# vtk DataFile Version 2.0
test
ASCII
DATASET UNSTRUCTURED_GRID
POINTS 41454 float
0.750000 -0.500000 0.050000
0.750000 0.400000 0.050000
0.743599 -0.539805 0.050000
0.772097 -0.531295 0.050000
0.799253 -0.520874 0.050000
0.818930 -0.503937 0.050000
0.832931 -0.485072 0.050000
0.843357 -0.465311 0.050000
0.851045 -0.445264 0.050000
0.856747 -0.424954 0.050000
0.860630 -0.404625 0.050000
0.862995 -0.384248 0.050000
0.863868 -0.363981 0.050000
0.863371 -0.343868 0.050000
0.861506 -0.324051 0.050000
0.858356 -0.304669 0.050000
0.853975 -0.285892 0.050000
0.848553 -0.267953 0.050000
0.842316 -0.250994 0.050000
0.835727 -0.235246 0.050000
0.829335 -0.220555 0.050000
0.823456 -0.206597 0.050000
0.818653 -0.193289 0.050000
0.814610 -0.179693 0.050000
0.811529 -0.166419 0.050000
0.809237 -0.152608 0.050000
0.807448 -0.138583 0.050000
0.806015 -0.124194 0.050000
0.804748 -0.109534 0.050000
0.803546 -0.094663 0.050000
0.802339 -0.079639 0.050000
0.801100 -0.064533 0.050000
0.799816 -0.049369 0.050000
0.798485 -0.034190 0.050000
0.797108 -0.019005 0.050000
0.795688 -0.003839 0.050000
0.794230 0.011300 0.050000
0.792737 0.026395 0.050000
0.791218 0.041432 0.050000
0.789677 0.056396 0.050000
0.788130 0.071261 0.050000
0.786591 0.086012 0.050000
0.785094 0.100602 0.050000
0.783672 0.115019 0.050000
0.782393 0.129196 0.050000
0.781339 0.143127 0.050000
0.780612 0.156766 0.050000
0.780393 0.170086 0.050000
0.780756 0.183239 0.050000
0.781942 0.195994 0.050000
0.784038 0.208915 0.050000
0.786967 0.221820 0.050000
0.790735 0.235073 0.050000
0.795211 0.249041 0.050000
0.800146 0.264014 0.050000
0.804557 0.280638 0.050000
0.807861 0.298454 0.050000
0.808930 0.317581 0.050000
0.808087 0.336821 0.050000
0.803395 0.356595 0.050000
0.797265 0.374901 0.050000
0.783250 0.391508 0.050000
0.774330 0.406020 0.050000
-0.750000 0.400000 0.050000
0.733871 0.400000 0.050000
0.717742 0.400000 0.050000
0.701613 0.400000 0.050000
0.685484 0.400000 0.050000
0.669355 0.400000 0.050000
0.653226 0.400000 0.050000
0.637097 0.400000 0.050000
0.620968 0.400000 0.050000
0.604839 0.400000 0.050000
0.588710 0.400000 0.050000
0.572581 0.400000 0.050000
0.556452 0.400000 0.050000
0.540323 0.400000 0.050000
0.524194 0.400000 0.050000
0.508065 0.400000 0.050000
0.491935 0.400000 0.050000
0.475807 0.400000 0.050000
0.459677 0.400000 0.050000
0.443548 0.400000 0.050000
0.427419 0.400000 0.050000
0.411290 0.400000 0.050000
0.395161 0.400000 0.050000
0.379032 0.400000 0.050000
0.362903 0.400000 0.050000
0.346774 0.400000 0.050000
0.330645 0.400000 0.050000
0.314516 0.400000 0.050000
0.298387 0.400000 0.050000
0.282258 0.400000 0.050000
0.266129 0.400000 0.050000
0.250000 0.400000 0.050000
0.233871 0.400000 0.050000
0.217742 0.400000 0.050000
0.201613 0.400000 0.050000
0.185484 0.400000 0.050000
0.169355 0.400000 0.050000
0.153226 0.400000 0.050000
0.137097 0.400000 0.050000
0.120968 0.400000 0.050000
0.104839 0.400000 0.050000
0.088710 0.400000 0.050000
0.072581 0.400000 0.050000
0.056452 0.400000 0.050000
0.040323 0.400000 0.050000
0.024194 0.400000 0.050000
0.008065 0.400000 0.050000
-0.008065 0.400000 0.050000
-0.024194 0.400000 0.050000
-0.040323 0.400000 0.050000
-0.056452 0.400000 0.050000
-0.072581 0.400000 0.050000
-0.088710 0.400000 0.050000
-0.104839 0.400000 0.050000
-0.120968 0.400000 0.050000
-0.137097 0.400000 0.050000
-0.153226 0.400000 0.050000
-0.169355 0.400000 0.050000
-0.185484 0.400000 0.050000
-0.201613 0.400000 0.050000
-0.217742 0.400000 0.050000
-0.233871 0.400000 0.050000
-0.250000 0.400000 0.050000
-0.266129 0.400000 0.050000
-0.282258 0.400000 0.050000
-0.298387 0.400000 0.050000
-0.314516 0.400000 0.050000
-0.330645 0.400000 0.050000
-0.346774 0.400000 0.050000
-0.362903 0.400000 0.050000
-0.379032 0.400000 0.050000
-0.395161 0.400000 0.050000
-0.411290 0.400000 0.050000
-0.427419 0.400000 0.050000
-0.443548 0.400000 0.050000
-0.459677 0.400000 0.050000
-0.475807 0.400000 0.050000
-0.491935 0.400000 0.050000
-0.508065 0.400000 0.050000
-0.524194 0.400000 0.050000
-0.540323 0.400000 0.050000
-0.556452 0.400000 0.050000
-0.572581 0.400000 0.050000
-0.588710 0.400000 0.050000
-0.604839 0.400000 0.050000
-0.620968 0.400000 0.050000
-0.637097 0.400000 0.050000
-0.653226 0.400000 0.050000
-0.669355 0.400000 0.050000
-0.685484 0.400000 0.050000
-0.701613 0.400000 0.050000
-0.717742 0.400000 0.050000
-0.733871 0.400000 0.050000
-0.750000 -0.500000 0.050000
-0.773313 0.401950 0.050000
-0.781947 0.387942 0.050000
-0.794701 0.371055 0.050000
-0.800748 0.352859 0.050000
-0.805391 0.333186 0.050000
-0.806605 0.314008 0.050000
-0.806076 0.294800 0.050000
-0.803571 0.276820 0.050000
-0.800026 0.259616 0.050000
-0.795836 0.243896 0.050000
-0.791750 0.228989 0.050000
-0.787899 0.214857 0.050000
-0.784637 0.201234 0.050000
-0.781971 0.187781 0.050000
-0.779937 0.174440 0.050000
-0.778520 0.161064 0.050000
-0.777639 0.147546 0.050000
-0.777182 0.133867 0.050000
-0.777062 0.120006 0.050000
-0.777188 0.105975 0.050000
-0.777499 0.091794 0.050000
-0.777942 0.077483 0.050000
-0.778485 0.063076 0.050000
-0.779100 0.048581 0.050000
-0.779776 0.034039 0.050000
-0.780501 0.019441 0.050000
-0.781266 0.004830 0.050000
-0.782063 -0.009814 0.050000
-0.782877 -0.024446 0.050000
-0.783702 -0.039070 0.050000
-0.784524 -0.053642 0.050000
-0.785350 -0.068124 0.050000
-0.786200 -0.082471 0.050000
-0.787126 -0.096611 0.050000
-0.788209 -0.110502 0.050000
-0.789566 -0.124083 0.050000
-0.791349 -0.137327 0.050000
-0.793732 -0.150239 0.050000
-0.796924 -0.162806 0.050000
-0.801012 -0.175368 0.050000
-0.806005 -0.187579 0.050000
-0.812136 -0.200242 0.050000
-0.818996 -0.213244 0.050000
-0.826691 -0.226997 0.050000
-0.834705 -0.241986 0.050000
-0.842507 -0.258230 0.050000
-0.849684 -0.275771 0.050000
-0.855871 -0.294363 0.050000
-0.860837 -0.313919 0.050000
-0.864397 -0.334170 0.050000
-0.866417 -0.355016 0.050000
-0.866792 -0.376212 0.050000
-0.865407 -0.397681 0.050000
-0.862108 -0.419206 0.050000
-0.856747 -0.440700 0.050000
-0.848832 -0.461913 0.050000
-0.838196 -0.482645 0.050000
-0.823066 -0.502174 0.050000
-0.803041 -0.519840 0.050000
-0.774941 -0.529641 0.050000
-0.746616 -0.540402 0.050000
-0.733871 -0.500000 0.050000
-0.717742 -0.500000 0.050000
-0.701613 -0.500000 0.050000
-0.685484 -0.500000 0.050000
-0.669355 -0.500000 0.050000
-0.653226 -0.500000 0.050000
-0.637097 -0.500000 0.050000
-0.620968 -0.500000 0.050000
-0.604839 -0.500000 0.050000
-0.588710 -0.500000 0.050000
-0.572581 -0.500000 0.050000
-0.556452 -0.500000 0.050000
-0.540323 -0.500000 0.050000
-0.524194 -0.500000 0.050000
-0.508065 -0.500000 0.050000
-0.491935 -0.500000 0.050000
-0.475807 -0.500000 0.050000
-0.459677 -0.500000 0.050000
-0.443548 -0.500000 0.050000
-0.427419 -0.500000 0.050000
-0.411290 -0.500000 0.050000
-0.395161 -0.500000 0.050000
-0.379032 -0.500000 0.050000
-0.362903 -0.500000 0.050000
-0.346774 -0.500000 0.050000
-0.330645 -0.500000 0.050000
-0.314516 -0.500000 0.050000
-0.298387 -0.500000 0.050000
-0.282258 -0.500000 0.050000
-0.266129 -0.500000 0.050000
-0.250000 -0.500000 0.050000
-0.233871 -0.500000 0.050000
-0.217742 -0.500000 0.050000
-0.201613 -0.500000 0.050000
-0.185484 -0.500000 0.050000
-0.169355 -0.500000 0.050000
-0.153226 -0.500000 0.050000
-0.137097 -0.500000 0.050000
-0.120968 -0.500000 0.050000
-0.104839 -0.500000 0.050000
-0.088710 -0.500000 0.050000
-0.072581 -0.500000 0.050000
-0.056452 -0.500000 0.050000
-0.040323 -0.500000 0.050000
-0.024194 -0.500000 0.050000
-0.008065 -0.500000 0.050000
0.008065 -0.500000 0.050000
0.024194 -0.500000 0.050000
0.040323 -0.500000 0.050000
0.056452 -0.500000 0.050000
0.072581 -0.500000 0.050000
0.088710 -0.500000 0.050000
0.104839 -0.500000 0.050000
0.120968 -0.500000 0.050000
0.137097 -0.500000 0.050000
0.153226 -0.500000 0.050000
0.169355 -0.500000 0.050000
0.185484 -0.500000 0.050000
0.201613 -0.500000 0.050000
0.217742 -0.500000 0.050000
0.233871 -0.500000 0.050000
0.250000 -0.500000 0.050000
0.266129 -0.500000 0.050000
0.282258 -0.500000 0.050000
0.298387 -0.500000 0.050000
0.314516 -0.500000 0.050000
0.330645 -0.500000 0.050000
0.346774 -0.500000 0.050000
0.362903 -0.500000 0.050000
0.379032 -0.500000 0.050000
0.395161 -0.500000 0.050000
0.411290 -0.500000 0.050000
0.427419 -0.500000 0.050000
0.443548 -0.500000 0.050000
0.459677 -0.500000 0.050000
0.475807 -0.500000 0.050000
0.491935 -0.500000 0.050000
0.508065 -0.500000 0.050000
0.524194 -0.500000 0.050000
0.540323 -0.500000 0.050000
0.556452 -0.500000 0.050000
0.572581 -0.500000 0.050000
0.588710 -0.500000 0.050000
0.604839 -0.500000 0.050000
0.620968 -0.500000 0.050000
0.637097 -0.500000 0.050000
0.653226 -0.500000 0.050000
0.669355 -0.500000 0.050000
0.685484 -0.500000 0.050000
0.701613 -0.500000 0.050000
0.717742 -0.500000 0.050000
0.733871 -0.500000 0.050000
0.769344 -0.519986 0.050000
0.778168 -0.518684 0.050000
0.796412 -0.509140 0.050000
0.811365 -0.494777 0.050000
0.823153 -0.477847 0.050000
0.832167 -0.459683 0.050000
0.839181 -0.440847 0.050000
0.844267 -0.421683 0.050000
0.847870 -0.402313 0.050000
0.849943 -0.382890 0.050000
0.850688 -0.363489 0.050000
0.850046 -0.344227 0.050000
0.848102 -0.325228 0.050000
0.844827 -0.306622 0.050000
0.840288 -0.288615 0.050000
0.834562 -0.271350 0.050000
0.827860 -0.255094 0.050000
0.820524 -0.239800 0.050000
0.813162 -0.225502 0.050000
0.806649 -0.211737 0.050000
0.801058 -0.197763 0.050000
0.796736 -0.184206 0.050000
0.793557 -0.169920 0.050000
0.791312 -0.155630 0.050000
0.789727 -0.141037 0.050000
0.788505 -0.126279 0.050000
0.787431 -0.111361 0.050000
0.786367 -0.096327 0.050000
0.785257 -0.081228 0.050000
0.784076 -0.066072 0.050000
0.782823 -0.050902 0.050000
0.781502 -0.035715 0.050000
0.780120 -0.020541 0.050000
0.778682 -0.005380 0.050000
0.777190 0.009751 0.050000
0.775650 0.024845 0.050000
0.774064 0.039890 0.050000
0.772439 0.054871 0.050000
0.770779 0.069780 0.050000
0.769099 0.084591 0.050000
0.767416 0.099303 0.050000
0.765768 0.113875 0.050000
0.764208 0.128322 0.050000
0.762833 0.142599 0.050000
0.761784 0.156736 0.050000
0.761235 0.170743 0.050000
0.761439 0.184517 0.050000
0.762571 0.198348 0.050000
0.764825 0.211711 0.050000
0.768246 0.225129 0.050000
0.772678 0.238562 0.050000
0.777975 0.252186 0.050000
0.784066 0.266542 0.050000
0.789538 0.282109 0.050000
0.793186 0.298925 0.050000
0.795128 0.316453 0.050000
0.794040 0.334437 0.050000
0.791071 0.352145 0.050000
0.783580 0.368224 0.050000
0.774936 0.383412 0.050000
0.760186 0.388035 0.050000
0.755946 -0.496968 0.050000
0.775707 -0.503253 0.050000
0.789088 -0.497418 0.050000
0.801850 -0.485237 0.050000
0.812031 -0.470155 0.050000
0.820284 -0.453509 0.050000
0.826497 -0.435963 0.050000
0.831269 -0.417927 0.050000
0.834460 -0.399573 0.050000
0.836391 -0.381076 0.050000
0.836921 -0.362515 0.050000
0.836196 -0.344035 0.050000
0.834103 -0.325706 0.050000
0.830679 -0.307717 0.050000
0.825873 -0.290152 0.050000
0.819709 -0.273288 0.050000
0.812321 -0.257180 0.050000
0.804034 -0.242195 0.050000
0.795765 -0.228110 0.050000
0.788685 -0.214575 0.050000
0.783212 -0.201550 0.050000
0.779083 -0.187504 0.050000
0.775949 -0.173524 0.050000
0.773912 -0.158950 0.050000
0.772476 -0.144075 0.050000
0.771399 -0.128933 0.050000
0.770399 -0.113675 0.050000
0.769391 -0.098381 0.050000
0.768300 -0.083072 0.050000
0.767128 -0.067788 0.050000
0.765875 -0.052508 0.050000
0.764544 -0.037255 0.050000
0.763146 -0.022013 0.050000
0.761680 -0.006798 0.050000
0.760156 0.008395 0.050000
0.758569 0.023557 0.050000
0.756928 0.038685 0.050000
0.755230 0.053775 0.050000
0.753484 0.068817 0.050000
0.751693 0.083816 0.050000
0.749881 0.098748 0.050000
0.748072 0.113631 0.050000
0.746332 0.128416 0.050000
0.744759 0.143131 0.050000
0.743494 0.157692 0.050000
0.742791 0.172076 0.050000
0.742769 0.186303 0.050000
0.743768 0.200006 0.050000
0.745801 0.213717 0.050000
0.748890 0.226717 0.050000
0.753303 0.239548 0.050000
0.758831 0.252487 0.050000
0.766518 0.266388 0.050000
0.772971 0.281523 0.050000
0.777746 0.297649 0.050000
0.779826 0.314375 0.050000
0.779773 0.331293 0.050000
0.776065 0.347314 0.050000
0.770239 0.362973 0.050000
0.759174 0.372973 0.050000
0.741612 0.385356 0.050000
0.735838 -0.488685 0.050000
0.761877 -0.486317 0.050000
0.778309 -0.485513 0.050000
0.789949 -0.475638 0.050000
0.799711 -0.462347 0.050000
0.807143 -0.447106 0.050000
0.813103 -0.430869 0.050000
0.817401 -0.413922 0.050000
0.820481 -0.396606 0.050000
0.822157 -0.378989 0.050000
0.822651 -0.361272 0.050000
0.821785 -0.343471 0.050000
0.819641 -0.325786 0.050000
0.816068 -0.308203 0.050000
0.811004 -0.291004 0.050000
0.804414 -0.274187 0.050000
0.796209 -0.258205 0.050000
0.786800 -0.243024 0.050000
0.776645 -0.229809 0.050000
0.769982 -0.217475 0.050000
0.764790 -0.204061 0.050000
0.760836 -0.191024 0.050000
0.758357 -0.177058 0.050000
0.756701 -0.162438 0.050000
0.755624 -0.147220 0.050000
0.754654 -0.131720 0.050000
0.753723 -0.116115 0.050000
0.752665 -0.100513 0.050000
0.751532 -0.085003 0.050000
0.750319 -0.069536 0.050000
0.749027 -0.054134 0.050000
0.747670 -0.038761 0.050000
0.746240 -0.023425 0.050000
0.744748 -0.008109 0.050000
0.743189 0.007183 0.050000
0.741570 0.022457 0.050000
0.739886 0.037716 0.050000
0.738145 0.052959 0.050000
0.736342 0.068199 0.050000
0.734494 0.083425 0.050000
0.732605 0.098660 0.050000
0.730709 0.113873 0.050000
0.728846 0.129088 0.050000
0.727109 0.144193 0.050000
0.725659 0.159207 0.050000
0.724625 0.173925 0.050000
0.724401 0.188241 0.050000
0.724909 0.202333 0.050000
0.726403 0.215409 0.050000
0.728978 0.228415 0.050000
0.732550 0.240502 0.050000
0.737423 0.252144 0.050000
0.747862 0.264933 0.050000
0.755793 0.279935 0.050000
0.761289 0.295683 0.050000
0.764256 0.311977 0.050000
0.763914 0.327961 0.050000
0.760990 0.343860 0.050000
0.753590 0.356852 0.050000
0.741410 0.370967 0.050000
0.724295 0.384459 0.050000
0.716543 -0.485735 0.050000
0.742662 -0.477384 0.050000
0.763027 -0.472428 0.050000
0.776262 -0.466242 0.050000
0.785548 -0.454501 0.050000
0.792993 -0.440787 0.050000
0.798540 -0.425716 0.050000
0.802818 -0.409928 0.050000
0.805653 -0.393543 0.050000
0.807362 -0.376858 0.050000
0.807727 -0.359878 0.050000
0.806933 -0.342825 0.050000
0.804725 -0.325620 0.050000
0.801153 -0.308552 0.050000
0.795973 -0.291427 0.050000
0.788900 -0.274816 0.050000
0.780102 -0.258565 0.050000
0.769033 -0.243956 0.050000
0.756404 -0.231198 0.050000
0.749489 -0.219206 0.050000
0.745166 -0.207911 0.050000
0.742467 -0.194924 0.050000
0.740752 -0.180796 0.050000
0.739775 -0.165775 0.050000
0.739011 -0.150251 0.050000
0.738366 -0.134339 0.050000
0.737318 -0.118357 0.050000
0.736171 -0.102564 0.050000
0.734946 -0.086848 0.050000
0.733650 -0.071249 0.050000
0.732308 -0.055704 0.050000
0.730898 -0.040219 0.050000
0.729438 -0.024763 0.050000
0.727912 -0.009336 0.050000
0.726332 0.006079 0.050000
0.724687 0.021487 0.050000
0.722988 0.036897 0.050000
0.721225 0.052324 0.050000
0.719414 0.067768 0.050000
0.717547 0.083258 0.050000
0.715650 0.098782 0.050000
0.713721 0.114380 0.050000
0.711805 0.129991 0.050000
0.709926 0.145645 0.050000
0.708178 0.161038 0.050000
0.706916 0.176263 0.050000
0.706121 0.191046 0.050000
0.706192 0.205014 0.050000
0.706997 0.218836 0.050000
0.708291 0.231034 0.050000
0.710418 0.242682 0.050000
0.713947 0.252944 0.050000
0.728656 0.264345 0.050000
0.738205 0.278396 0.050000
0.744684 0.293978 0.050000
0.747951 0.309794 0.050000
0.748113 0.325896 0.050000
0.744196 0.340501 0.050000
0.736518 0.355687 0.050000
0.724357 0.369712 0.050000
0.707349 0.384304 0.050000
0.698096 -0.484640 0.050000
0.723166 -0.473094 0.050000
0.743938 -0.464729 0.050000
0.759414 -0.456641 0.050000
0.769884 -0.447212 0.050000
0.777283 -0.434663 0.050000
0.783033 -0.420831 0.050000
0.787177 -0.406012 0.050000
0.790143 -0.390636 0.050000
0.791762 -0.374757 0.050000
0.792307 -0.358617 0.050000
0.791475 -0.342168 0.050000
0.789516 -0.325658 0.050000
0.785941 -0.308864 0.050000
0.780916 -0.292278 0.050000
0.773748 -0.275312 0.050000
0.763829 -0.259622 0.050000
0.751884 -0.244193 0.050000
0.732221 -0.235173 0.050000
0.728633 -0.226250 0.050000
0.726496 -0.213381 0.050000
0.724931 -0.198826 0.050000
0.723513 -0.183697 0.050000
0.722633 -0.168708 0.050000
0.723111 -0.152745 0.050000
0.722248 -0.136317 0.050000
0.721094 -0.120309 0.050000
0.719824 -0.104357 0.050000
0.718476 -0.088569 0.050000
0.717111 -0.072843 0.050000
0.715690 -0.057203 0.050000
0.714242 -0.041601 0.050000
0.712738 -0.026038 0.050000
0.711195 -0.010490 0.050000
0.709593 0.005050 0.050000
0.707947 0.020597 0.050000
0.706242 0.036167 0.050000
0.704497 0.051768 0.050000
0.702698 0.067427 0.050000
0.700873 0.083147 0.050000
0.699002 0.098971 0.050000
0.697131 0.114883 0.050000
0.695221 0.130953 0.050000
0.693318 0.147070 0.050000
0.691353 0.163389 0.050000
0.689411 0.179018 0.050000
0.688727 0.194364 0.050000
0.688835 0.210127 0.050000
0.687774 0.224546 0.050000
0.687294 0.237637 0.050000
0.687547 0.248725 0.050000
0.687258 0.259172 0.050000
0.710057 0.264931 0.050000
0.720152 0.278589 0.050000
0.728097 0.292990 0.050000
0.732044 0.309204 0.050000
0.731434 0.324628 0.050000
0.727473 0.340315 0.050000
0.719404 0.354850 0.050000
0.707157 0.369691 0.050000
0.690477 0.384353 0.050000
0.680269 -0.484200 0.050000
0.704161 -0.471103 0.050000
0.724432 -0.460312 0.050000
0.740284 -0.450764 0.050000
0.751992 -0.440465 0.050000
0.760301 -0.429277 0.050000
0.766226 -0.416333 0.050000
0.770669 -0.402508 0.050000
0.773667 -0.387949 0.050000
0.775546 -0.372940 0.050000
0.776101 -0.357511 0.050000
0.775639 -0.341849 0.050000
0.773672 -0.325880 0.050000
0.770703 -0.309853 0.050000
0.765579 -0.293472 0.050000
0.759224 -0.277486 0.050000
0.748592 -0.261322 0.050000
0.735871 -0.247669 0.050000
0.713185 -0.249457 0.050000
0.711755 -0.233391 0.050000
0.710326 -0.217326 0.050000
0.708896 -0.201260 0.050000
0.707466 -0.185195 0.050000
0.706036 -0.169129 0.050000
0.706918 -0.153537 0.050000
0.706091 -0.137835 0.050000
0.704888 -0.121820 0.050000
0.703494 -0.105948 0.050000
0.702093 -0.090098 0.050000
0.700634 -0.074332 0.050000
0.699175 -0.058601 0.050000
0.697672 -0.042915 0.050000
0.696150 -0.027248 0.050000
0.694581 -0.011593 0.050000
0.692983 0.004068 0.050000
0.691336 0.019748 0.050000
0.689659 0.035462 0.050000
0.687937 0.051230 0.050000
0.686200 0.067065 0.050000
0.684423 0.083002 0.050000
0.682659 0.099046 0.050000
0.680857 0.115259 0.050000
0.679106 0.131620 0.050000
0.677262 0.148282 0.050000
0.675495 0.165112 0.050000
0.673305 0.182946 0.050000
0.673150 0.200375 0.050000
0.671721 0.216440 0.050000
0.670291 0.232506 0.050000
0.668861 0.248572 0.050000
0.667431 0.264637 0.050000
0.666002 0.280703 0.050000
0.689703 0.269617 0.050000
0.702486 0.279843 0.050000
0.712929 0.294835 0.050000
0.715588 0.310419 0.050000
0.714847 0.326054 0.050000
0.709995 0.340813 0.050000
0.701663 0.355666 0.050000
0.689551 0.370105 0.050000
0.673388 0.384546 0.050000
0.662830 -0.484014 0.050000
0.685667 -0.470168 0.050000
0.705060 -0.458034 0.050000
0.720750 -0.446943 0.050000
0.732791 -0.436241 0.050000
0.741770 -0.424706 0.050000
0.748375 -0.412606 0.050000
0.753069 -0.399480 0.050000
0.756421 -0.385735 0.050000
0.758418 -0.371454 0.050000
0.759352 -0.356807 0.050000
0.758936 -0.341848 0.050000
0.757592 -0.326676 0.050000
0.754507 -0.311352 0.050000
0.750671 -0.295948 0.050000
0.743538 -0.280979 0.050000
0.736099 -0.266123 0.050000
0.721302 -0.262586 0.050000
0.697120 -0.250887 0.050000
0.695690 -0.234821 0.050000
0.694260 -0.218756 0.050000
0.692830 -0.202690 0.050000
0.691400 -0.186625 0.050000
0.689971 -0.170559 0.050000
0.690046 -0.154488 0.050000
0.689749 -0.138899 0.050000
0.688521 -0.123168 0.050000
0.687172 -0.107323 0.050000
0.685694 -0.091508 0.050000
0.684224 -0.075701 0.050000
0.682708 -0.059925 0.050000
0.681194 -0.044163 0.050000
0.679642 -0.028413 0.050000
0.678078 -0.012660 0.050000
0.676476 0.003107 0.050000
0.674858 0.018902 0.050000
0.673204 0.034744 0.050000
0.671544 0.050645 0.050000
0.669856 0.066633 0.050000
0.668190 0.082720 0.050000
0.666501 0.098945 0.050000
0.664886 0.115319 0.050000
0.663228 0.131903 0.050000
0.661732 0.148696 0.050000
0.660040 0.165839 0.050000
0.658910 0.183186 0.050000
0.657085 0.198945 0.050000
0.655655 0.215011 0.050000
0.654225 0.231076 0.050000
0.652796 0.247142 0.050000
0.651366 0.263207 0.050000
0.649936 0.279273 0.050000
0.678211 0.291190 0.050000
0.690719 0.289374 0.050000
0.696634 0.301359 0.050000
0.698764 0.315025 0.050000
0.696616 0.329030 0.050000
0.691389 0.343211 0.050000
0.682935 0.356982 0.050000
0.671275 0.370828 0.050000
0.655994 0.384776 0.050000
0.645630 -0.483935 0.050000
0.667509 -0.469734 0.050000
0.686008 -0.456887 0.050000
0.701098 -0.444925 0.050000
0.713127 -0.433315 0.050000
0.722410 -0.421835 0.050000
0.729397 -0.409698 0.050000
0.734602 -0.397174 0.050000
0.738207 -0.384030 0.050000
0.740586 -0.370448 0.050000
0.741661 -0.356513 0.050000
0.741722 -0.342297 0.050000
0.740371 -0.327974 0.050000
0.738129 -0.313513 0.050000
0.733841 -0.299532 0.050000
0.728564 -0.285728 0.050000
0.718847 -0.277349 0.050000
0.702264 -0.265514 0.050000
0.681054 -0.252317 0.050000
0.679624 -0.236251 0.050000
0.678195 -0.220186 0.050000
0.676765 -0.204120 0.050000
0.675335 -0.188054 0.050000
0.673905 -0.171989 0.050000
0.673647 -0.156065 0.050000
0.673115 -0.140131 0.050000
0.672125 -0.124411 0.050000
0.670750 -0.108632 0.050000
0.669323 -0.092818 0.050000
0.667811 -0.077001 0.050000
0.666305 -0.061183 0.050000
0.664762 -0.045367 0.050000
0.663221 -0.029546 0.050000
0.661650 -0.013713 0.050000
0.660075 0.002143 0.050000
0.658474 0.018035 0.050000
0.656875 0.033977 0.050000
0.655257 0.049985 0.050000
0.653663 0.066077 0.050000
0.652061 0.082272 0.050000
0.650527 0.098591 0.050000
0.648987 0.115046 0.050000
0.647584 0.131668 0.050000
0.646125 0.148421 0.050000
0.644896 0.165345 0.050000
0.643244 0.181745 0.050000
0.641019 0.197516 0.050000
0.639589 0.213581 0.050000
0.638160 0.229647 0.050000
0.636730 0.245712 0.050000
0.635300 0.261778 0.050000
0.633871 0.277843 0.050000
0.655142 0.293233 0.050000
0.671018 0.305785 0.050000
0.676865 0.311685 0.050000
0.678355 0.321715 0.050000
0.676207 0.333583 0.050000
0.671000 0.345812 0.050000
0.663099 0.358541 0.050000
0.652316 0.371549 0.050000
0.638287 0.385013 0.050000
0.628560 -0.483906 0.050000
0.649550 -0.469555 0.050000
0.667166 -0.456358 0.050000
0.681588 -0.443878 0.050000
0.693233 -0.431853 0.050000
0.702534 -0.419877 0.050000
0.709788 -0.407959 0.050000
0.715237 -0.395588 0.050000
0.719237 -0.382943 0.050000
0.721833 -0.369931 0.050000
0.723281 -0.356627 0.050000
0.723433 -0.343175 0.050000
0.722551 -0.329570 0.050000
0.720091 -0.316257 0.050000
0.716400 -0.303085 0.050000
0.709568 -0.292353 0.050000
0.699120 -0.279246 0.050000
0.684483 -0.267583 0.050000
0.664989 -0.253746 0.050000
0.663559 -0.237681 0.050000
0.662129 -0.221615 0.050000
0.660699 -0.205550 0.050000
0.659269 -0.189484 0.050000
0.657839 -0.173419 0.050000
0.657301 -0.157410 0.050000
0.656709 -0.141562 0.050000
0.655618 -0.125703 0.050000
0.654357 -0.109916 0.050000
0.652910 -0.094093 0.050000
0.651442 -0.078258 0.050000
0.649917 -0.062405 0.050000
0.648396 -0.046543 0.050000
0.646848 -0.030665 0.050000
0.645304 -0.014768 0.050000
0.643740 0.001160 0.050000
0.642185 0.017126 0.050000
0.640617 0.033143 0.050000
0.639074 0.049226 0.050000
0.637531 0.065385 0.050000
0.636044 0.081638 0.050000
0.634567 0.097985 0.050000
0.633192 0.114453 0.050000
0.631816 0.130991 0.050000
0.630560 0.147641 0.050000
0.629167 0.164119 0.050000
0.627312 0.180483 0.050000
0.624954 0.196086 0.050000
0.623524 0.212151 0.050000
0.622094 0.228217 0.050000
0.620665 0.244282 0.050000
0.619235 0.260348 0.050000
0.617805 0.276414 0.050000
0.634525 0.292672 0.050000
0.646221 0.303637 0.050000
0.651992 0.316853 0.050000
0.654728 0.326473 0.050000
0.653527 0.336646 0.050000
0.649336 0.347903 0.050000
0.642447 0.359692 0.050000
0.632888 0.372126 0.050000
0.620342 0.385201 0.050000
0.611550 -0.483899 0.050000
0.631678 -0.469515 0.050000
0.648443 -0.456174 0.050000
0.662143 -0.443451 0.050000
0.673333 -0.431116 0.050000
0.682401 -0.419049 0.050000
0.689657 -0.406914 0.050000
0.695322 -0.394812 0.050000
0.699488 -0.382432 0.050000
0.702386 -0.369868 0.050000
0.703979 -0.357132 0.050000
0.704435 -0.344234 0.050000
0.703491 -0.331441 0.050000
0.701291 -0.318640 0.050000
0.696774 -0.306817 0.050000
0.690257 -0.293460 0.050000
0.680728 -0.281889 0.050000
0.666906 -0.269183 0.050000
0.648923 -0.255176 0.050000
0.647494 -0.239111 0.050000
0.646064 -0.223045 0.050000
0.644634 -0.206980 0.050000
0.643204 -0.190914 0.050000
0.641774 -0.174849 0.050000
0.641041 -0.158905 0.050000
0.640292 -0.142909 0.050000
0.639227 -0.127071 0.050000
0.637922 -0.111205 0.050000
0.636542 -0.095366 0.050000
0.635065 -0.079495 0.050000
0.633578 -0.063614 0.050000
0.632054 -0.047709 0.050000
0.630536 -0.031786 0.050000
0.629000 -0.015836 0.050000
0.627476 0.000145 0.050000
0.625943 0.016165 0.050000
0.624433 0.032235 0.050000
0.622927 0.048361 0.050000
0.621467 0.064558 0.050000
0.620022 0.080822 0.050000
0.618653 0.097172 0.050000
0.617302 0.113572 0.050000
0.616031 0.130050 0.050000
0.614712 0.146468 0.050000
0.613256 0.162870 0.050000
0.611301 0.178993 0.050000
0.608888 0.194656 0.050000
0.607459 0.210722 0.050000
0.606029 0.226787 0.050000
0.604599 0.242853 0.050000
0.603169 0.258918 0.050000
0.601740 0.274984 0.050000
0.614915 0.291197 0.050000
0.624599 0.304520 0.050000
0.629862 0.314373 0.050000
0.631229 0.326515 0.050000
0.630695 0.337661 0.050000
0.627384 0.348702 0.050000
0.621579 0.360292 0.050000
0.613279 0.372434 0.050000
0.602292 0.385327 0.050000
0.594554 -0.483902 0.050000
0.613825 -0.469554 0.050000
0.629747 -0.456190 0.050000
0.642733 -0.443375 0.050000
0.653381 -0.430940 0.050000
0.662142 -0.418720 0.050000
0.669263 -0.406681 0.050000
0.674909 -0.394555 0.050000
0.679237 -0.382447 0.050000
0.682242 -0.370200 0.050000
0.684058 -0.357842 0.050000
0.684563 -0.345475 0.050000
0.683840 -0.333006 0.050000
0.681369 -0.320869 0.050000
0.677493 -0.307891 0.050000
0.671330 -0.296267 0.050000
0.662168 -0.283444 0.050000
0.649600 -0.270752 0.050000
0.632858 -0.256606 0.050000
0.631428 -0.240541 0.050000
0.629998 -0.224475 0.050000
0.628568 -0.208410 0.050000
0.627138 -0.192344 0.050000
0.625708 -0.176279 0.050000
0.624799 -0.160305 0.050000
0.623965 -0.144349 0.050000
0.622828 -0.128406 0.050000
0.621561 -0.112534 0.050000
0.620165 -0.096634 0.050000
0.618734 -0.080740 0.050000
0.617248 -0.064818 0.050000
0.615760 -0.048881 0.050000
0.614249 -0.032917 0.050000
0.612749 -0.016929 0.050000
0.611241 -0.000909 0.050000
0.609753 0.015149 0.050000
0.608271 0.031249 0.050000
0.606825 0.047401 0.050000
0.605395 0.063601 0.050000
0.604023 0.079865 0.050000
0.602673 0.096167 0.050000
0.601384 0.112527 0.050000
0.600086 0.128871 0.050000
0.598754 0.145225 0.050000
0.597217 0.161453 0.050000
0.595218 0.177604 0.050000
0.592823 0.193226 0.050000
0.591393 0.209292 0.050000
0.589963 0.225358 0.050000
0.588533 0.241423 0.050000
0.587104 0.257489 0.050000
0.585674 0.273554 0.050000
0.596123 0.289720 0.050000
0.603490 0.302510 0.050000
0.607872 0.315502 0.050000
0.609708 0.325925 0.050000
0.608746 0.337277 0.050000
0.605899 0.348747 0.050000
0.600895 0.360372 0.050000
0.593747 0.372526 0.050000
0.584252 0.385381 0.050000
0.577542 -0.483908 0.050000
0.595939 -0.469639 0.050000
0.611024 -0.456324 0.050000
0.623292 -0.443518 0.050000
0.633394 -0.431060 0.050000
0.641762 -0.418863 0.050000
0.648666 -0.406776 0.050000
0.654242 -0.394825 0.050000
0.658545 -0.382810 0.050000
0.661675 -0.370801 0.050000
0.663563 -0.358749 0.050000
0.664273 -0.346600 0.050000
0.663573 -0.334537 0.050000
0.661640 -0.322053 0.050000
0.657886 -0.310332 0.050000
0.652093 -0.297513 0.050000
0.643959 -0.285171 0.050000
0.632290 -0.272225 0.050000
0.616792 -0.258036 0.050000
0.615362 -0.241971 0.050000
0.613933 -0.225905 0.050000
0.612503 -0.209840 0.050000
0.611073 -0.193774 0.050000
0.609643 -0.177708 0.050000
0.608595 -0.161771 0.050000
0.607653 -0.145734 0.050000
0.606502 -0.129795 0.050000
0.605204 -0.113846 0.050000
0.603843 -0.097929 0.050000
0.602410 -0.081984 0.050000
0.600961 -0.066036 0.050000
0.599480 -0.050062 0.050000
0.598003 -0.034070 0.050000
0.596515 -0.018050 0.050000
0.595044 -0.002003 0.050000
0.593576 0.014077 0.050000
0.592138 0.030194 0.050000
0.590714 0.046348 0.050000
0.589335 0.062547 0.050000
0.587977 0.078777 0.050000
0.586669 0.095051 0.050000
0.585368 0.111327 0.050000
0.584072 0.127621 0.050000
0.582688 0.143857 0.050000
0.581113 0.160070 0.050000
0.579121 0.176136 0.050000
0.576757 0.191797 0.050000
0.575327 0.207862 0.050000
0.573898 0.223928 0.050000
0.572468 0.239993 0.050000
0.571038 0.256059 0.050000
0.569609 0.272124 0.050000
0.577668 0.288095 0.050000
0.583637 0.301661 0.050000
0.586917 0.313221 0.050000
0.587906 0.325690 0.050000
0.587434 0.336963 0.050000
0.584857 0.348425 0.050000
0.580550 0.360232 0.050000
0.574401 0.372461 0.050000
0.566304 0.385398 0.050000
0.560493 -0.483913 0.050000
0.577991 -0.469750 0.050000
0.592233 -0.456525 0.050000
0.603790 -0.443784 0.050000
0.613330 -0.431382 0.050000
0.621297 -0.419212 0.050000
0.627924 -0.407230 0.050000
0.633344 -0.395298 0.050000
0.637628 -0.383465 0.050000
0.640758 -0.371598 0.050000
0.642788 -0.359706 0.050000
0.643601 -0.347820 0.050000
0.643265 -0.335726 0.050000
0.641449 -0.323953 0.050000
0.638162 -0.311380 0.050000
0.633131 -0.299373 0.050000
0.625612 -0.286618 0.050000
0.615059 -0.273739 0.050000
0.600727 -0.259466 0.050000
0.599297 -0.243400 0.050000
0.597867 -0.227335 0.050000
0.596437 -0.211269 0.050000
0.595007 -0.195204 0.050000
0.593577 -0.179138 0.050000
0.592404 -0.163190 0.050000
0.591389 -0.147168 0.050000
0.590191 -0.131155 0.050000
0.588903 -0.115194 0.050000
0.587533 -0.099215 0.050000
0.586130 -0.083249 0.050000
0.584685 -0.067260 0.050000
0.583235 -0.051263 0.050000
0.581768 -0.035241 0.050000
0.580311 -0.019202 0.050000
0.578854 -0.003137 0.050000
0.577419 0.012955 0.050000
0.575996 0.029074 0.050000
0.574608 0.045225 0.050000
0.573239 0.061402 0.050000
0.571912 0.077610 0.050000
0.570598 0.093827 0.050000
0.569304 0.110064 0.050000
0.567975 0.126276 0.050000
0.566568 0.142483 0.050000
0.564970 0.158625 0.050000
0.562992 0.174710 0.050000
0.560692 0.190367 0.050000
0.559262 0.206432 0.050000
0.557832 0.222498 0.050000
0.556402 0.238564 0.050000
0.554973 0.254629 0.050000
0.553543 0.270695 0.050000
0.559656 0.286616 0.050000
0.563996 0.299860 0.050000
0.566506 0.312818 0.050000
0.567366 0.324220 0.050000
0.566418 0.336227 0.050000
0.564263 0.347999 0.050000
0.560523 0.359940 0.050000
0.555303 0.372340 0.050000
0.548484 0.385378 0.050000
0.543393 -0.483918 0.050000
0.559959 -0.469875 0.050000
0.573350 -0.456763 0.050000
0.584199 -0.444121 0.050000
0.593184 -0.431803 0.050000
0.600728 -0.419726 0.050000
0.607067 -0.407797 0.050000
0.612310 -0.396007 0.050000
0.616498 -0.384235 0.050000
0.619669 -0.372516 0.050000
0.621760 -0.360781 0.050000
0.622801 -0.348957 0.050000
0.622624 -0.337224 0.050000
0.621260 -0.325018 0.050000
0.618486 -0.313238 0.050000
0.613926 -0.300677 0.050000
0.607384 -0.288215 0.050000
0.597770 -0.275186 0.050000
0.584661 -0.260896 0.050000
0.583231 -0.244830 0.050000
0.581801 -0.228765 0.050000
0.580372 -0.212699 0.050000
0.578942 -0.196634 0.050000
0.577512 -0.180568 0.050000
0.576236 -0.164645 0.050000
0.575146 -0.148568 0.050000
0.573928 -0.132549 0.050000
0.572621 -0.116524 0.050000
0.571266 -0.100527 0.050000
0.569863 -0.084513 0.050000
0.568443 -0.068504 0.050000
0.566999 -0.052475 0.050000
0.565557 -0.036438 0.050000
0.564110 -0.020381 0.050000
0.562678 -0.004307 0.050000
0.561254 0.011787 0.050000
0.559857 0.027904 0.050000
0.558475 0.044039 0.050000
0.557128 0.060198 0.050000
0.555797 0.076367 0.050000
0.554491 0.092552 0.050000
0.553176 0.108731 0.050000
0.551836 0.124911 0.050000
0.550403 0.141062 0.050000
0.548797 0.157197 0.050000
0.546861 0.173257 0.050000
0.544626 0.188937 0.050000
0.543196 0.205003 0.050000
0.541767 0.221068 0.050000
0.540337 0.237134 0.050000
0.538907 0.253199 0.050000
0.537477 0.269265 0.050000
0.541782 0.284982 0.050000
0.545003 0.298676 0.050000
0.546600 0.310984 0.050000
0.546896 0.323594 0.050000
0.546173 0.335361 0.050000
0.544064 0.347389 0.050000
0.540875 0.359598 0.050000
0.536456 0.372159 0.050000
0.530810 0.385357 0.050000
0.526235 -0.483920 0.050000
0.541832 -0.470005 0.050000
0.554363 -0.457016 0.050000
0.564510 -0.444488 0.050000
0.572940 -0.432278 0.050000
0.580067 -0.420294 0.050000
0.586101 -0.408482 0.050000
0.591148 -0.396757 0.050000
0.595252 -0.385128 0.050000
0.598401 -0.373498 0.050000
0.600611 -0.361863 0.050000
0.601793 -0.350229 0.050000
0.601956 -0.338365 0.050000
0.600952 -0.326710 0.050000
0.598604 -0.314408 0.050000
0.594859 -0.302356 0.050000
0.589016 -0.289633 0.050000
0.580508 -0.276709 0.050000
0.568596 -0.262326 0.050000
0.567166 -0.246260 0.050000
0.565736 -0.230195 0.050000
0.564306 -0.214129 0.050000
0.562876 -0.198064 0.050000
0.561446 -0.181998 0.050000
0.560082 -0.166070 0.050000
0.558936 -0.149996 0.050000
0.557688 -0.133918 0.050000
0.556380 -0.117877 0.050000
0.555019 -0.101828 0.050000
0.553629 -0.085796 0.050000
0.552211 -0.069751 0.050000
0.550786 -0.053710 0.050000
0.549350 -0.037653 0.050000
0.547922 -0.021589 0.050000
0.546497 -0.005510 0.050000
0.545091 0.010583 0.050000
0.543697 0.026689 0.050000
0.542331 0.042810 0.050000
0.540980 0.058941 0.050000
0.539655 0.075083 0.050000
0.538334 0.091226 0.050000
0.537014 0.107373 0.050000
0.535651 0.123509 0.050000
0.534210 0.139640 0.050000
0.532610 0.155749 0.050000
0.530717 0.171817 0.050000
0.528561 0.187508 0.050000
0.527131 0.203573 0.050000
0.525701 0.219639 0.050000
0.524271 0.235704 0.050000
0.522842 0.251770 0.050000
0.521412 0.267835 0.050000
0.524196 0.283533 0.050000
0.526178 0.296990 0.050000
0.527138 0.310070 0.050000
0.527152 0.322178 0.050000
0.526125 0.334602 0.050000
0.524346 0.346792 0.050000
0.521554 0.359194 0.050000
0.517882 0.371978 0.050000
0.513287 0.385306 0.050000
0.509012 -0.483920 0.050000
0.523607 -0.470133 0.050000
0.535270 -0.457266 0.050000
0.544717 -0.444857 0.050000
0.552602 -0.432759 0.050000
0.559309 -0.420888 0.050000
0.565040 -0.409168 0.050000
0.569883 -0.397570 0.050000
0.573876 -0.386016 0.050000
0.577032 -0.374509 0.050000
0.579307 -0.362988 0.050000
0.580705 -0.351383 0.050000
0.581134 -0.339822 0.050000
0.580504 -0.327849 0.050000
0.578799 -0.316104 0.050000
0.575564 -0.303667 0.050000
0.570706 -0.291249 0.050000
0.563171 -0.278141 0.050000
0.552530 -0.263756 0.050000
0.551100 -0.247690 0.050000
0.549670 -0.231625 0.050000
0.548240 -0.215559 0.050000
0.546811 -0.199494 0.050000
0.545381 -0.183428 0.050000
0.543947 -0.167521 0.050000
0.542751 -0.151399 0.050000
0.541483 -0.135307 0.050000
0.540162 -0.119212 0.050000
0.538801 -0.103147 0.050000
0.537409 -0.087076 0.050000
0.536000 -0.071020 0.050000
0.534578 -0.054955 0.050000
0.533154 -0.038893 0.050000
0.531730 -0.022820 0.050000
0.530317 -0.006742 0.050000
0.528912 0.009345 0.050000
0.527529 0.025441 0.050000
0.526157 0.041543 0.050000
0.524811 0.057651 0.050000
0.523472 0.073762 0.050000
0.522148 0.089875 0.050000
0.520808 0.105986 0.050000
0.519441 0.122096 0.050000
0.517993 0.138203 0.050000
0.516410 0.154304 0.050000
0.514572 0.170371 0.050000
0.512495 0.186078 0.050000
0.511065 0.202143 0.050000
0.509635 0.218209 0.050000
0.508206 0.234274 0.050000
0.506776 0.250340 0.050000
0.505346 0.266406 0.050000
0.506711 0.281924 0.050000
0.507761 0.295723 0.050000
0.508028 0.308489 0.050000
0.507645 0.321330 0.050000
0.506676 0.333640 0.050000
0.504930 0.346166 0.050000
0.502587 0.358811 0.050000
0.499554 0.371763 0.050000
0.495911 0.385279 0.050000
0.491727 -0.483918 0.050000
0.505289 -0.470253 0.050000
0.516079 -0.457499 0.050000
0.524832 -0.445203 0.050000
0.532174 -0.433217 0.050000
0.538466 -0.421449 0.050000
0.543885 -0.409842 0.050000
0.548520 -0.398332 0.050000
0.552403 -0.386904 0.050000
0.555531 -0.375487 0.050000
0.557906 -0.364062 0.050000
0.559470 -0.352618 0.050000
0.560188 -0.340975 0.050000
0.560039 -0.329421 0.050000
0.558725 -0.317305 0.050000
0.556361 -0.305350 0.050000
0.552224 -0.292624 0.050000
0.545849 -0.279709 0.050000
0.536465 -0.265186 0.050000
0.535035 -0.249120 0.050000
0.533605 -0.233055 0.050000
0.532175 -0.216989 0.050000
0.530745 -0.200923 0.050000
0.529315 -0.184858 0.050000
0.527832 -0.168946 0.050000
0.526596 -0.152819 0.050000
0.525306 -0.136674 0.050000
0.523972 -0.120563 0.050000
0.522603 -0.104457 0.050000
0.521209 -0.088376 0.050000
0.519799 -0.072295 0.050000
0.518381 -0.056226 0.050000
0.516959 -0.040152 0.050000
0.515541 -0.024080 0.050000
0.514128 -0.008002 0.050000
0.512729 0.008078 0.050000
0.511339 0.024162 0.050000
0.509970 0.040248 0.050000
0.508609 0.056334 0.050000
0.507267 0.072421 0.050000
0.505924 0.088505 0.050000
0.504580 0.104588 0.050000
0.503200 0.120674 0.050000
0.501762 0.136761 0.050000
0.500199 0.152856 0.050000
0.498423 0.168923 0.050000
0.496430 0.184648 0.050000
0.495000 0.200714 0.050000
0.493570 0.216779 0.050000
0.492140 0.232845 0.050000
0.490711 0.248910 0.050000
0.489281 0.264976 0.050000
0.489430 0.280510 0.050000
0.489521 0.294130 0.050000
0.489270 0.307412 0.050000
0.488608 0.320057 0.050000
0.487471 0.332865 0.050000
0.485945 0.345529 0.050000
0.483910 0.358392 0.050000
0.481475 0.371582 0.050000
0.478676 0.385209 0.050000
0.474382 -0.483914 0.050000
0.486892 -0.470358 0.050000
0.496808 -0.457701 0.050000
0.504871 -0.445503 0.050000
0.511676 -0.433615 0.050000
0.517548 -0.421948 0.050000
0.522653 -0.410435 0.050000
0.527067 -0.399038 0.050000
0.530822 -0.387697 0.050000
0.533927 -0.376398 0.050000
0.536358 -0.365088 0.050000
0.538111 -0.353703 0.050000
0.539143 -0.342298 0.050000
0.539305 -0.330564 0.050000
0.538733 -0.318944 0.050000
0.536854 -0.306587 0.050000
0.533780 -0.294324 0.050000
0.528422 -0.281104 0.050000
0.520399 -0.266615 0.050000
0.518969 -0.250550 0.050000
0.517539 -0.234484 0.050000
0.516109 -0.218419 0.050000
0.514680 -0.202353 0.050000
0.513250 -0.186288 0.050000
0.511738 -0.170394 0.050000
0.510471 -0.154217 0.050000
0.509155 -0.138056 0.050000
0.507803 -0.121905 0.050000
0.506420 -0.105791 0.050000
0.505020 -0.089686 0.050000
0.503606 -0.073602 0.050000
0.502187 -0.057519 0.050000
0.500767 -0.041445 0.050000
0.499348 -0.025369 0.050000
0.497938 -0.009295 0.050000
0.496532 0.006780 0.050000
0.495142 0.022854 0.050000
0.493758 0.038927 0.050000
0.492393 0.054996 0.050000
0.491030 0.071063 0.050000
0.489680 0.087124 0.050000
0.488317 0.103185 0.050000
0.486941 0.119245 0.050000
0.485508 0.135320 0.050000
0.483984 0.151401 0.050000
0.482271 0.167482 0.050000
0.480364 0.183218 0.050000
0.478934 0.199284 0.050000
0.477504 0.215350 0.050000
0.476075 0.231415 0.050000
0.474645 0.247481 0.050000
0.473215 0.263546 0.050000
0.472255 0.278923 0.050000
0.471574 0.292848 0.050000
0.470792 0.305973 0.050000
0.469859 0.319116 0.050000
0.468696 0.331936 0.050000
0.467243 0.344910 0.050000
0.465550 0.358010 0.050000
0.463622 0.371351 0.050000
0.461573 0.385192 0.050000
0.456989 -0.483908 0.050000
0.468440 -0.470438 0.050000
0.477487 -0.457855 0.050000
0.484869 -0.445732 0.050000
0.491136 -0.433922 0.050000
0.496585 -0.422334 0.050000
0.501361 -0.410912 0.050000
0.505539 -0.399602 0.050000
0.509149 -0.388375 0.050000
0.512198 -0.377174 0.050000
0.514688 -0.365970 0.050000
0.516590 -0.354739 0.050000
0.517871 -0.343364 0.050000
0.518576 -0.331957 0.050000
0.518316 -0.320052 0.050000
0.517433 -0.308330 0.050000
0.515067 -0.295575 0.050000
0.511000 -0.282759 0.050000
0.504334 -0.268045 0.050000
0.502904 -0.251980 0.050000
0.501474 -0.235914 0.050000
0.500044 -0.219849 0.050000
0.498614 -0.203783 0.050000
0.497184 -0.187718 0.050000
0.495674 -0.171819 0.050000
0.494374 -0.155629 0.050000
0.493026 -0.139436 0.050000
0.491647 -0.123282 0.050000
0.490252 -0.107147 0.050000
0.488839 -0.091043 0.050000
0.487422 -0.074945 0.050000
0.486000 -0.058863 0.050000
0.484578 -0.042782 0.050000
0.483159 -0.026706 0.050000
0.481742 -0.010631 0.050000
0.480335 0.005440 0.050000
0.478931 0.021510 0.050000
0.477542 0.037575 0.050000
0.476155 0.053636 0.050000
0.474783 0.069689 0.050000
0.473407 0.085738 0.050000
0.472040 0.101780 0.050000
0.470651 0.117826 0.050000
0.469240 0.133876 0.050000
0.467752 0.149954 0.050000
0.466117 0.166025 0.050000
0.464298 0.181789 0.050000
0.462869 0.197854 0.050000
0.461439 0.213920 0.050000
0.460009 0.229985 0.050000
0.458580 0.246051 0.050000
0.457150 0.262116 0.050000
0.455223 0.277547 0.050000
0.453799 0.291304 0.050000
0.452622 0.304842 0.050000
0.451433 0.317932 0.050000
0.450216 0.331126 0.050000
0.448886 0.344279 0.050000
0.447464 0.357577 0.050000
0.445993 0.371184 0.050000
0.444598 0.385096 0.050000
0.439566 -0.483897 0.050000
0.449965 -0.470484 0.050000
0.458158 -0.457942 0.050000
0.464866 -0.445863 0.050000
0.470596 -0.434099 0.050000
0.475610 -0.422568 0.050000
0.480042 -0.411209 0.050000
0.483957 -0.399983 0.050000
0.487389 -0.388840 0.050000
0.490356 -0.377756 0.050000
0.492857 -0.366680 0.050000
0.494893 -0.355551 0.050000
0.496451 -0.344365 0.050000
0.497405 -0.332976 0.050000
0.498004 -0.321575 0.050000
0.497494 -0.309333 0.050000
0.496358 -0.297429 0.050000
0.493415 -0.284067 0.050000
0.488268 -0.269475 0.050000
0.486838 -0.253410 0.050000
0.485408 -0.237344 0.050000
0.483978 -0.221279 0.050000
0.482549 -0.205213 0.050000
0.481119 -0.189148 0.050000
0.479636 -0.173256 0.050000
0.478284 -0.157065 0.050000
0.476906 -0.140875 0.050000
0.475506 -0.124715 0.050000
0.474088 -0.108588 0.050000
0.472672 -0.092473 0.050000
0.471246 -0.076376 0.050000
0.469823 -0.060284 0.050000
0.468398 -0.044200 0.050000
0.466975 -0.028118 0.050000
0.465556 -0.012039 0.050000
0.464138 0.004037 0.050000
0.462728 0.020109 0.050000
0.461319 0.036177 0.050000
0.459922 0.052238 0.050000
0.458522 0.068294 0.050000
0.457136 0.084340 0.050000
0.455739 0.100383 0.050000
0.454352 0.116417 0.050000
0.452936 0.132459 0.050000
0.451494 0.148509 0.050000
0.449952 0.164577 0.050000
0.448233 0.180359 0.050000
0.446803 0.196424 0.050000
0.445373 0.212490 0.050000
0.443944 0.228556 0.050000
0.442514 0.244621 0.050000
0.441084 0.260687 0.050000
0.438302 0.275953 0.050000
0.436259 0.290032 0.050000
0.434652 0.303443 0.050000
0.433334 0.316919 0.050000
0.432037 0.330220 0.050000
0.430840 0.343619 0.050000
0.429651 0.357201 0.050000
0.428585 0.370919 0.050000
0.427751 0.385101 0.050000
0.422140 -0.483879 0.050000
0.431512 -0.470486 0.050000
0.438875 -0.457944 0.050000
0.444923 -0.445863 0.050000
0.450113 -0.434105 0.050000
0.454679 -0.422592 0.050000
0.458738 -0.411270 0.050000
0.462357 -0.400094 0.050000
0.465569 -0.389034 0.050000
0.468397 -0.378043 0.050000
0.470862 -0.367092 0.050000
0.472973 -0.356144 0.050000
0.474730 -0.345105 0.050000
0.476180 -0.333926 0.050000
0.476951 -0.322428 0.050000
0.477656 -0.311142 0.050000
0.477183 -0.298364 0.050000
0.475757 -0.285864 0.050000
0.472202 -0.270905 0.050000
0.470773 -0.254840 0.050000
0.469343 -0.238774 0.050000
0.467913 -0.222709 0.050000
0.466483 -0.206643 0.050000
0.465053 -0.190578 0.050000
0.463549 -0.174818 0.050000
0.462212 -0.158643 0.050000
0.460804 -0.142481 0.050000
0.459378 -0.126339 0.050000
0.457960 -0.110204 0.050000
0.456528 -0.094087 0.050000
0.455103 -0.077976 0.050000
0.453672 -0.061872 0.050000
0.452245 -0.045772 0.050000
0.450818 -0.029675 0.050000
0.449390 -0.013580 0.050000
0.447967 0.002512 0.050000
0.446541 0.018602 0.050000
0.445124 0.034689 0.050000
0.443701 0.050773 0.050000
0.442290 0.066852 0.050000
0.440869 0.082926 0.050000
0.439464 0.098993 0.050000
0.438040 0.115057 0.050000
0.436633 0.131110 0.050000
0.435190 0.147157 0.050000
0.433701 0.163182 0.050000
0.432167 0.178929 0.050000
0.430738 0.194995 0.050000
0.429308 0.211060 0.050000
0.427878 0.227126 0.050000
0.426448 0.243191 0.050000
0.425019 0.259257 0.050000
0.421458 0.274632 0.050000
0.418832 0.288442 0.050000
0.416999 0.302253 0.050000
0.415425 0.315725 0.050000
0.414219 0.329303 0.050000
0.413066 0.342976 0.050000
0.412138 0.356702 0.050000
0.411385 0.370774 0.050000
0.411026 0.384959 0.050000
0.404744 -0.483851 0.050000
0.413136 -0.470434 0.050000
0.419706 -0.457840 0.050000
0.425113 -0.445703 0.050000
0.429763 -0.433894 0.050000
0.433860 -0.422347 0.050000
0.437514 -0.411014 0.050000
0.440787 -0.399861 0.050000
0.443724 -0.388847 0.050000
0.446355 -0.377943 0.050000
0.448707 -0.367106 0.050000
0.450805 -0.356291 0.050000
0.452689 -0.345482 0.050000
0.454354 -0.334614 0.050000
0.456039 -0.323498 0.050000
0.456843 -0.311595 0.050000
0.457848 -0.300487 0.050000
0.457842 -0.287007 0.050000
0.456137 -0.272335 0.050000
0.454707 -0.256269 0.050000
0.453277 -0.240204 0.050000
0.451847 -0.224138 0.050000
0.450418 -0.208073 0.050000
0.448988 -0.192007 0.050000
0.447558 -0.175942 0.050000
0.446128 -0.159876 0.050000
0.444698 -0.143811 0.050000
0.443268 -0.127745 0.050000
0.441838 -0.111680 0.050000
0.440409 -0.095614 0.050000
0.438979 -0.079549 0.050000
0.437549 -0.063483 0.050000
0.436119 -0.047418 0.050000
0.434689 -0.031352 0.050000
0.433259 -0.015287 0.050000
0.431830 0.000779 0.050000
0.430400 0.016844 0.050000
0.428970 0.032910 0.050000
0.427540 0.048975 0.050000
0.426110 0.065041 0.050000
0.424681 0.081106 0.050000
0.423251 0.097172 0.050000
0.421821 0.113237 0.050000
0.420391 0.129303 0.050000
0.418961 0.145369 0.050000
0.417532 0.161434 0.050000
0.416102 0.177500 0.050000
0.414672 0.193565 0.050000
0.413242 0.209631 0.050000
0.411813 0.225696 0.050000
0.410383 0.241762 0.050000
0.408953 0.257827 0.050000
0.404699 0.272937 0.050000
0.401609 0.287168 0.050000
0.399388 0.300734 0.050000
0.397936 0.314527 0.050000
0.396606 0.328339 0.050000
0.395680 0.342181 0.050000
0.394869 0.356323 0.050000
0.394435 0.370432 0.050000
0.394439 0.385016 0.050000
0.387414 -0.483812 0.050000
0.394895 -0.470322 0.050000
0.400726 -0.457617 0.050000
0.405521 -0.445356 0.050000
0.409637 -0.433425 0.050000
0.413249 -0.421771 0.050000
0.416456 -0.410361 0.050000
0.419324 -0.399166 0.050000
0.421904 -0.388165 0.050000
0.424246 -0.377321 0.050000
0.426399 -0.366597 0.050000
0.428409 -0.355945 0.050000
0.430307 -0.345290 0.050000
0.432159 -0.334583 0.050000
0.433893 -0.323959 0.050000
0.436206 -0.313304 0.050000
0.437686 -0.300595 0.050000
0.439512 -0.288975 0.050000
0.440072 -0.273765 0.050000
0.438642 -0.257699 0.050000
0.437212 -0.241634 0.050000
0.435782 -0.225568 0.050000
0.434352 -0.209503 0.050000
0.432922 -0.193437 0.050000
0.431492 -0.177372 0.050000
0.430062 -0.161306 0.050000
0.428633 -0.145241 0.050000
0.427203 -0.129175 0.050000
0.425773 -0.113110 0.050000
0.424343 -0.097044 0.050000
0.422913 -0.080979 0.050000
0.421483 -0.064913 0.050000
0.420054 -0.048848 0.050000
0.418624 -0.032782 0.050000
0.417194 -0.016716 0.050000
0.415764 -0.000651 0.050000
0.414334 0.015414 0.050000
0.412904 0.031480 0.050000
0.411475 0.047546 0.050000
0.410045 0.063611 0.050000
0.408615 0.079677 0.050000
0.407185 0.095742 0.050000
0.405755 0.111808 0.050000
0.404326 0.127873 0.050000
0.402896 0.143939 0.050000
0.401466 0.160004 0.050000
0.400036 0.176070 0.050000
0.398607 0.192135 0.050000
0.397177 0.208201 0.050000
0.395747 0.224266 0.050000
0.394317 0.240332 0.050000
0.392888 0.256398 0.050000
0.387854 0.271712 0.050000
0.384297 0.285254 0.050000
0.382233 0.299292 0.050000
0.380494 0.313168 0.050000
0.379495 0.327154 0.050000
0.378536 0.341478 0.050000
0.377991 0.355702 0.050000
0.377678 0.370343 0.050000
0.377978 0.384783 0.050000
0.370191 -0.483762 0.050000
0.376851 -0.470148 0.050000
0.382013 -0.457270 0.050000
0.386242 -0.444809 0.050000
0.389843 -0.432672 0.050000
0.392964 -0.420817 0.050000
0.395692 -0.409227 0.050000
0.398087 -0.397891 0.050000
0.400210 -0.386803 0.050000
0.402124 -0.375956 0.050000
0.403909 -0.365333 0.050000
0.405660 -0.354891 0.050000
0.407488 -0.344560 0.050000
0.409465 -0.334206 0.050000
0.411688 -0.323482 0.050000
0.413650 -0.312713 0.050000
0.416849 -0.303204 0.050000
0.420669 -0.289773 0.050000
0.424006 -0.275195 0.050000
0.422576 -0.259129 0.050000
0.421146 -0.243064 0.050000
0.419716 -0.226998 0.050000
0.418286 -0.210933 0.050000
0.416857 -0.194867 0.050000
0.415427 -0.178802 0.050000
0.413997 -0.162736 0.050000
0.412567 -0.146671 0.050000
0.411137 -0.130605 0.050000
0.409707 -0.114539 0.050000
0.408277 -0.098474 0.050000
0.406848 -0.082408 0.050000
0.405418 -0.066343 0.050000
0.403988 -0.050277 0.050000
0.402558 -0.034212 0.050000
0.401128 -0.018146 0.050000
0.399699 -0.002081 0.050000
0.398269 0.013985 0.050000
0.396839 0.030050 0.050000
0.395409 0.046116 0.050000
0.393979 0.062181 0.050000
0.392549 0.078247 0.050000
0.391120 0.094312 0.050000
0.389690 0.110378 0.050000
0.388260 0.126443 0.050000
0.386830 0.142509 0.050000
0.385401 0.158575 0.050000
0.383971 0.174640 0.050000
0.382541 0.190705 0.050000
0.381111 0.206771 0.050000
0.379681 0.222837 0.050000
0.378252 0.238902 0.050000
0.376822 0.254968 0.050000
0.370911 0.269528 0.050000
0.367257 0.283802 0.050000
0.364806 0.297355 0.050000
0.363744 0.311445 0.050000
0.362579 0.326030 0.050000
0.361946 0.340475 0.050000
0.361328 0.355351 0.050000
0.361249 0.369894 0.050000
0.361651 0.384982 0.050000
0.353110 -0.483698 0.050000
0.359061 -0.469917 0.050000
0.363640 -0.456801 0.050000
0.367364 -0.444065 0.050000
0.370489 -0.431630 0.050000
0.373138 -0.419467 0.050000
0.375379 -0.407571 0.050000
0.377263 -0.395944 0.050000
0.378841 -0.384602 0.050000
0.380178 -0.373563 0.050000
0.381361 -0.362857 0.050000
0.382516 -0.352520 0.050000
0.383828 -0.342567 0.050000
0.385558 -0.332945 0.050000
0.388024 -0.323565 0.050000
0.391616 -0.313223 0.050000
0.394610 -0.301023 0.050000
0.400271 -0.291851 0.050000
0.407940 -0.276625 0.050000
0.406510 -0.260559 0.050000
0.405081 -0.244494 0.050000
0.403651 -0.228428 0.050000
0.402221 -0.212362 0.050000
0.400791 -0.196297 0.050000
0.399361 -0.180231 0.050000
0.397931 -0.164166 0.050000
0.396501 -0.148100 0.050000
0.395072 -0.132035 0.050000
0.393642 -0.115969 0.050000
0.392212 -0.099904 0.050000
0.390782 -0.083838 0.050000
0.389352 -0.067773 0.050000
0.387922 -0.051707 0.050000
0.386493 -0.035642 0.050000
0.385063 -0.019576 0.050000
0.383633 -0.003511 0.050000
0.382203 0.012555 0.050000
0.380773 0.028620 0.050000
0.379343 0.044686 0.050000
0.377914 0.060752 0.050000
0.376484 0.076817 0.050000
0.375054 0.092883 0.050000
0.373624 0.108948 0.050000
0.372194 0.125014 0.050000
0.370765 0.141079 0.050000
0.369335 0.157145 0.050000
0.367905 0.173210 0.050000
0.366475 0.189276 0.050000
0.365046 0.205341 0.050000
0.363616 0.221407 0.050000
0.362186 0.237472 0.050000
0.360756 0.253538 0.050000
0.353150 0.268451 0.050000
0.349571 0.280728 0.050000
0.348483 0.295048 0.050000
0.346913 0.309831 0.050000
0.346389 0.324356 0.050000
0.345672 0.339668 0.050000
0.345287 0.354684 0.050000
0.344905 0.370063 0.050000
0.345402 0.384581 0.050000
0.336203 -0.483629 0.050000
0.341575 -0.469634 0.050000
0.345671 -0.456225 0.050000
0.348965 -0.443143 0.050000
0.351674 -0.430323 0.050000
0.353895 -0.417746 0.050000
0.355681 -0.405409 0.050000
0.357066 -0.393320 0.050000
0.358086 -0.381497 0.050000
0.358783 -0.369969 0.050000
0.359220 -0.358786 0.050000
0.359503 -0.348015 0.050000
0.359807 -0.337779 0.050000
0.360433 -0.328251 0.050000
0.361888 -0.319544 0.050000
0.364876 -0.312366 0.050000
0.370779 -0.305090 0.050000
0.378478 -0.291641 0.050000
0.391875 -0.278054 0.050000
0.390445 -0.261989 0.050000
0.389015 -0.245923 0.050000
0.387585 -0.229858 0.050000
0.386155 -0.213792 0.050000
0.384726 -0.197727 0.050000
0.383296 -0.181661 0.050000
0.381866 -0.165596 0.050000
0.380436 -0.149530 0.050000
0.379006 -0.133465 0.050000
0.377576 -0.117399 0.050000
0.376146 -0.101334 0.050000
0.374717 -0.085268 0.050000
0.373287 -0.069203 0.050000
0.371857 -0.053137 0.050000
0.370427 -0.037072 0.050000
0.368997 -0.021006 0.050000
0.367567 -0.004940 0.050000
0.366138 0.011125 0.050000
0.364708 0.027191 0.050000
0.363278 0.043256 0.050000
0.361848 0.059322 0.050000
0.360418 0.075387 0.050000
0.358989 0.091453 0.050000
0.357559 0.107518 0.050000
0.356129 0.123584 0.050000
0.354699 0.139649 0.050000
0.353270 0.155715 0.050000
0.351840 0.171780 0.050000
0.350410 0.187846 0.050000
0.348980 0.203912 0.050000
0.347550 0.219977 0.050000
0.346121 0.236043 0.050000
0.344691 0.252108 0.050000
0.334551 0.264058 0.050000
0.333453 0.279044 0.050000
0.330870 0.293034 0.050000
0.330970 0.306828 0.050000
0.330612 0.322718 0.050000
0.330404 0.338479 0.050000
0.329490 0.354649 0.050000
0.328975 0.369717 0.050000
0.329089 0.385259 0.050000
0.319501 -0.483563 0.050000
0.324429 -0.469311 0.050000
0.328150 -0.455563 0.050000
0.331098 -0.442077 0.050000
0.333465 -0.428800 0.050000
0.335329 -0.415718 0.050000
0.336728 -0.402823 0.050000
0.337689 -0.390115 0.050000
0.338228 -0.377597 0.050000
0.338375 -0.365274 0.050000
0.338170 -0.353151 0.050000
0.337698 -0.341253 0.050000
0.337120 -0.329611 0.050000
0.336759 -0.318340 0.050000
0.337112 -0.307850 0.050000
0.339351 -0.298431 0.050000
0.343694 -0.292549 0.050000
0.350444 -0.291774 0.050000
0.375809 -0.279484 0.050000
0.374379 -0.263419 0.050000
0.372950 -0.247353 0.050000
0.371520 -0.231288 0.050000
0.370090 -0.215222 0.050000
0.368660 -0.199157 0.050000
0.367230 -0.183091 0.050000
0.365800 -0.167026 0.050000
0.364370 -0.150960 0.050000
0.362940 -0.134895 0.050000
0.361511 -0.118829 0.050000
0.360081 -0.102763 0.050000
0.358651 -0.086698 0.050000
0.357221 -0.070632 0.050000
0.355791 -0.054567 0.050000
0.354361 -0.038501 0.050000
0.352932 -0.022436 0.050000
0.351502 -0.006370 0.050000
0.350072 0.009695 0.050000
0.348642 0.025761 0.050000
0.347212 0.041826 0.050000
0.345783 0.057892 0.050000
0.344353 0.073957 0.050000
0.342923 0.090023 0.050000
0.341493 0.106088 0.050000
0.340063 0.122154 0.050000
0.338634 0.138220 0.050000
0.337204 0.154285 0.050000
0.335774 0.170351 0.050000
0.334344 0.186416 0.050000
0.332915 0.202482 0.050000
0.331485 0.218547 0.050000
0.330055 0.234613 0.050000
0.328625 0.250678 0.050000
0.312079 0.267303 0.050000
0.313010 0.275026 0.050000
0.314836 0.287446 0.050000
0.314980 0.303995 0.050000
0.316156 0.319985 0.050000
0.315901 0.337670 0.050000
0.314679 0.354416 0.050000
0.312912 0.370874 0.050000
0.312305 0.384707 0.050000
0.303017 -0.483490 0.050000
0.307648 -0.468965 0.050000
0.311098 -0.454842 0.050000
0.313790 -0.440912 0.050000
0.315896 -0.427130 0.050000
0.317486 -0.413478 0.050000
0.318595 -0.399945 0.050000
0.319243 -0.386513 0.050000
0.319454 -0.373159 0.050000
0.319257 -0.359844 0.050000
0.318721 -0.346517 0.050000
0.317972 -0.333085 0.050000
0.317304 -0.319467 0.050000
0.317192 -0.305598 0.050000
0.318753 -0.291605 0.050000
0.322408 -0.278844 0.050000
0.329837 -0.268770 0.050000
0.340259 -0.265606 0.050000
0.359744 -0.280914 0.050000
0.358314 -0.264849 0.050000
0.356884 -0.248783 0.050000
0.355454 -0.232718 0.050000
0.354024 -0.216652 0.050000
0.352595 -0.200587 0.050000
0.351165 -0.184521 0.050000
0.349735 -0.168455 0.050000
0.348305 -0.152390 0.050000
0.346875 -0.136324 0.050000
0.345445 -0.120259 0.050000
0.344015 -0.104193 0.050000
0.342586 -0.088128 0.050000
0.341156 -0.072062 0.050000
0.339726 -0.055997 0.050000
0.338296 -0.039931 0.050000
0.336866 -0.023866 0.050000
0.335436 -0.007800 0.050000
0.334007 0.008265 0.050000
0.332577 0.024331 0.050000
0.331147 0.040397 0.050000
0.329717 0.056462 0.050000
0.328287 0.072528 0.050000
0.326858 0.088593 0.050000
0.325428 0.104659 0.050000
0.323998 0.120724 0.050000
0.322568 0.136790 0.050000
0.321138 0.152855 0.050000
0.319709 0.168921 0.050000
0.318279 0.184986 0.050000
0.316849 0.201052 0.050000
0.315419 0.217117 0.050000
0.313990 0.233183 0.050000
0.312560 0.249249 0.050000
0.301433 0.239811 0.050000
0.295867 0.260743 0.050000
0.299819 0.282145 0.050000
0.301475 0.300073 0.050000
0.301576 0.318914 0.050000
0.302190 0.335390 0.050000
0.301514 0.354673 0.050000
0.296883 0.371544 0.050000
0.294514 0.386739 0.050000
0.286753 -0.483412 0.050000
0.291234 -0.468608 0.050000
0.294516 -0.454096 0.050000
0.297036 -0.439702 0.050000
0.298962 -0.425389 0.050000
0.300366 -0.411141 0.050000
0.301282 -0.396935 0.050000
0.301746 -0.382742 0.050000
0.301788 -0.368511 0.050000
0.301484 -0.354180 0.050000
0.300938 -0.339647 0.050000
0.300417 -0.324812 0.050000
0.300259 -0.309579 0.050000
0.301268 -0.294072 0.050000
0.303667 -0.279034 0.050000
0.308305 -0.264987 0.050000
0.315220 -0.254170 0.050000
0.322937 -0.246242 0.050000
0.339319 -0.250679 0.050000
0.338341 -0.236608 0.050000
0.337585 -0.223275 0.050000
0.336343 -0.209362 0.050000
0.335143 -0.195166 0.050000
0.333871 -0.180740 0.050000
0.332578 -0.166143 0.050000
0.331278 -0.151466 0.050000
0.329962 -0.136720 0.050000
0.328659 -0.121969 0.050000
0.327350 -0.107185 0.050000
0.326049 -0.092405 0.050000
0.324756 -0.077597 0.050000
0.323462 -0.062759 0.050000
0.322178 -0.047879 0.050000
0.320892 -0.032935 0.050000
0.319601 -0.017914 0.050000
0.318335 -0.002792 0.050000
0.317038 0.012477 0.050000
0.315828 0.027944 0.050000
0.314535 0.043731 0.050000
0.313544 0.060029 0.050000
0.312209 0.077143 0.050000
0.311799 0.095487 0.050000
0.309098 0.115241 0.050000
0.308111 0.134200 0.050000
0.297058 0.151708 0.050000
0.297126 0.159863 0.050000
0.296637 0.167709 0.050000
0.296406 0.176027 0.050000
0.295927 0.184921 0.050000
0.295570 0.194697 0.050000
0.295138 0.205074 0.050000
0.294860 0.216065 0.050000
0.288427 0.235589 0.050000
0.286774 0.257922 0.050000
0.286542 0.280282 0.050000
0.288227 0.299613 0.050000
0.288427 0.317369 0.050000
0.287193 0.335698 0.050000
0.290102 0.353200 0.050000
0.281630 0.373254 0.050000
0.274147 0.385642 0.050000
0.270708 -0.483333 0.050000
0.275178 -0.468256 0.050000
0.278385 -0.453357 0.050000
0.280809 -0.438501 0.050000
0.282630 -0.423661 0.050000
0.283921 -0.408821 0.050000
0.284738 -0.393956 0.050000
0.285117 -0.379025 0.050000
0.285135 -0.363976 0.050000
0.284875 -0.348732 0.050000
0.284552 -0.333215 0.050000
0.284378 -0.317378 0.050000
0.284902 -0.301293 0.050000
0.286262 -0.285359 0.050000
0.288989 -0.269811 0.050000
0.293186 -0.255610 0.050000
0.298487 -0.242793 0.050000
0.305934 -0.232684 0.050000
0.317022 -0.227815 0.050000
0.317170 -0.217132 0.050000
0.316678 -0.204615 0.050000
0.316083 -0.192123 0.050000
0.315206 -0.179078 0.050000
0.314209 -0.165815 0.050000
0.313123 -0.152385 0.050000
0.311959 -0.138812 0.050000
0.310775 -0.125177 0.050000
0.309565 -0.111447 0.050000
0.308350 -0.097689 0.050000
0.307152 -0.083856 0.050000
0.305956 -0.069974 0.050000
0.304789 -0.056024 0.050000
0.303637 -0.041992 0.050000
0.302504 -0.027868 0.050000
0.301409 -0.013617 0.050000
0.300334 0.000781 0.050000
0.299358 0.015384 0.050000
0.298414 0.030233 0.050000
0.297743 0.045476 0.050000
0.297143 0.061135 0.050000
0.297230 0.077768 0.050000
0.297005 0.095191 0.050000
0.297394 0.115568 0.050000
0.290536 0.134273 0.050000
0.274206 0.123832 0.050000
0.274128 0.139961 0.050000
0.274051 0.156090 0.050000
0.273973 0.172218 0.050000
0.273896 0.188348 0.050000
0.273818 0.204476 0.050000
0.273741 0.220605 0.050000
0.273663 0.236734 0.050000
0.273586 0.252863 0.050000
0.273508 0.268992 0.050000
0.273431 0.285120 0.050000
0.273353 0.301249 0.050000
0.273276 0.317378 0.050000
0.273198 0.333507 0.050000
0.273121 0.349636 0.050000
0.273043 0.365764 0.050000
0.257139 0.382491 0.050000
0.254866 -0.483258 0.050000
0.259455 -0.467925 0.050000
0.262670 -0.452658 0.050000
0.265065 -0.437360 0.050000
0.266837 -0.422020 0.050000
0.268083 -0.406624 0.050000
0.268858 -0.391149 0.050000
0.269240 -0.375557 0.050000
0.269292 -0.359798 0.050000
0.269180 -0.343823 0.050000
0.269044 -0.327617 0.050000
0.269238 -0.311199 0.050000
0.269902 -0.294816 0.050000
0.271388 -0.278598 0.050000
0.273810 -0.263073 0.050000
0.277159 -0.248352 0.050000
0.281638 -0.235003 0.050000
0.286813 -0.223178 0.050000
0.293928 -0.213829 0.050000
0.295122 -0.203044 0.050000
0.295271 -0.191782 0.050000
0.294945 -0.179714 0.050000
0.294352 -0.167531 0.050000
0.293532 -0.155045 0.050000
0.292586 -0.142405 0.050000
0.291567 -0.129660 0.050000
0.290496 -0.116782 0.050000
0.289405 -0.103862 0.050000
0.288329 -0.090821 0.050000
0.287251 -0.077726 0.050000
0.286216 -0.064534 0.050000
0.285201 -0.051249 0.050000
0.284226 -0.037866 0.050000
0.283300 -0.024355 0.050000
0.282421 -0.010716 0.050000
0.281635 0.003092 0.050000
0.280924 0.017066 0.050000
0.280412 0.031279 0.050000
0.280045 0.045668 0.050000
0.280052 0.060381 0.050000
0.280356 0.075005 0.050000
0.280776 0.089709 0.050000
0.280373 0.101622 0.050000
0.278616 0.108581 0.050000
0.258077 0.123755 0.050000
0.257999 0.139884 0.050000
0.257922 0.156012 0.050000
0.257844 0.172140 0.050000
0.257767 0.188270 0.050000
0.257690 0.204399 0.050000
0.257612 0.220528 0.050000
0.257535 0.236656 0.050000
0.257457 0.252785 0.050000
0.257379 0.268914 0.050000
0.257302 0.285043 0.050000
0.257225 0.301172 0.050000
0.257147 0.317301 0.050000
0.257070 0.333429 0.050000
0.256992 0.349558 0.050000
0.256915 0.365687 0.050000
0.243280 0.382823 0.050000
0.239207 -0.483191 0.050000
0.244028 -0.467628 0.050000
0.247322 -0.452024 0.050000
0.249741 -0.436325 0.050000
0.251515 -0.420530 0.050000
0.252753 -0.404638 0.050000
0.253543 -0.388626 0.050000
0.253946 -0.372473 0.050000
0.254085 -0.356144 0.050000
0.254058 -0.339642 0.050000
0.254099 -0.322967 0.050000
0.254334 -0.306282 0.050000
0.255009 -0.289672 0.050000
0.256247 -0.273483 0.050000
0.258111 -0.257832 0.050000
0.260705 -0.243094 0.050000
0.263787 -0.229335 0.050000
0.267460 -0.216713 0.050000
0.271464 -0.205639 0.050000
0.272789 -0.194414 0.050000
0.273246 -0.182830 0.050000
0.273115 -0.171215 0.050000
0.272655 -0.159309 0.050000
0.271983 -0.147328 0.050000
0.271177 -0.135220 0.050000
0.270282 -0.122990 0.050000
0.269352 -0.110716 0.050000
0.268420 -0.098293 0.050000
0.267479 -0.085836 0.050000
0.266588 -0.073252 0.050000
0.265713 -0.060581 0.050000
0.264893 -0.047807 0.050000
0.264121 -0.034910 0.050000
0.263405 -0.021903 0.050000
0.262770 -0.008755 0.050000
0.262209 0.004512 0.050000
0.261781 0.017933 0.050000
0.261463 0.031437 0.050000
0.261333 0.045063 0.050000
0.261297 0.058556 0.050000
0.261196 0.071844 0.050000
0.260489 0.083955 0.050000
0.257414 0.095658 0.050000
0.253909 0.110438 0.050000
0.241948 0.123677 0.050000
0.241871 0.139806 0.050000
0.241793 0.155935 0.050000
0.241716 0.172063 0.050000
0.241638 0.188193 0.050000
0.241561 0.204321 0.050000
0.241483 0.220450 0.050000
0.241406 0.236579 0.050000
0.241328 0.252708 0.050000
0.241251 0.268837 0.050000
0.241173 0.284965 0.050000
0.241096 0.301094 0.050000
0.241018 0.317223 0.050000
0.240941 0.333352 0.050000
0.240863 0.349481 0.050000
0.240786 0.365609 0.050000
0.229378 0.382629 0.050000
0.223711 -0.483140 0.050000
0.228853 -0.467374 0.050000
0.232285 -0.451482 0.050000
0.234771 -0.435432 0.050000
0.236577 -0.419248 0.050000
0.237845 -0.402928 0.050000
0.238658 -0.386473 0.050000
0.239114 -0.369863 0.050000
0.239290 -0.353111 0.050000
0.239340 -0.336211 0.050000
0.239371 -0.319276 0.050000
0.239553 -0.302370 0.050000
0.240008 -0.285737 0.050000
0.240805 -0.269497 0.050000
0.242058 -0.253932 0.050000
0.243636 -0.239119 0.050000
0.245615 -0.225216 0.050000
0.247666 -0.212294 0.050000
0.249825 -0.200126 0.050000
0.250814 -0.188463 0.050000
0.251058 -0.176898 0.050000
0.250906 -0.165219 0.050000
0.250465 -0.153580 0.050000
0.249856 -0.141853 0.050000
0.249132 -0.130070 0.050000
0.248363 -0.118253 0.050000
0.247571 -0.106295 0.050000
0.246774 -0.094337 0.050000
0.246026 -0.082221 0.050000
0.245289 -0.070049 0.050000
0.244619 -0.057764 0.050000
0.243991 -0.045364 0.050000
0.243421 -0.032864 0.050000
0.242917 -0.020237 0.050000
0.242474 -0.007511 0.050000
0.242120 0.005333 0.050000
0.241833 0.018241 0.050000
0.241642 0.031230 0.050000
0.241472 0.044167 0.050000
0.241240 0.057070 0.050000
0.240655 0.069719 0.050000
0.239157 0.082614 0.050000
0.237690 0.096541 0.050000
0.234020 0.108219 0.050000
0.225819 0.123600 0.050000
0.225742 0.139729 0.050000
0.225664 0.155857 0.050000
0.225587 0.171985 0.050000
0.225509 0.188115 0.050000
0.225432 0.204244 0.050000
0.225354 0.220373 0.050000
0.225277 0.236501 0.050000
0.225199 0.252630 0.050000
0.225122 0.268759 0.050000
0.225044 0.284888 0.050000
0.224967 0.301017 0.050000
0.224889 0.317146 0.050000
0.224812 0.333274 0.050000
0.224734 0.349403 0.050000
0.224657 0.365532 0.050000
0.215252 0.382603 0.050000
0.208345 -0.483097 0.050000
0.213877 -0.467177 0.050000
0.217498 -0.451048 0.050000
0.220080 -0.434717 0.050000
0.221947 -0.418209 0.050000
0.223255 -0.401552 0.050000
0.224113 -0.384738 0.050000
0.224595 -0.367789 0.050000
0.224805 -0.350701 0.050000
0.224831 -0.333555 0.050000
0.224785 -0.316399 0.050000
0.224775 -0.299414 0.050000
0.224864 -0.282716 0.050000
0.225156 -0.266533 0.050000
0.225608 -0.250973 0.050000
0.226292 -0.236193 0.050000
0.227035 -0.222232 0.050000
0.227915 -0.209000 0.050000
0.228680 -0.196614 0.050000
0.228936 -0.184596 0.050000
0.228861 -0.172827 0.050000
0.228489 -0.161247 0.050000
0.227966 -0.149675 0.050000
0.227335 -0.138141 0.050000
0.226673 -0.126599 0.050000
0.225980 -0.114965 0.050000
0.225309 -0.103365 0.050000
0.224679 -0.091584 0.050000
0.224067 -0.079805 0.050000
0.223538 -0.067886 0.050000
0.223042 -0.055871 0.050000
0.222614 -0.043761 0.050000
0.222238 -0.031526 0.050000
0.221914 -0.019201 0.050000
0.221648 -0.006765 0.050000
0.221423 0.005739 0.050000
0.221250 0.018322 0.050000
0.221083 0.030916 0.050000
0.220897 0.043557 0.050000
0.220571 0.056166 0.050000
0.219999 0.068937 0.050000
0.219314 0.081968 0.050000
0.217520 0.094150 0.050000
0.214564 0.108716 0.050000
0.209690 0.123522 0.050000
0.209613 0.139651 0.050000
0.209535 0.155780 0.050000
0.209458 0.171908 0.050000
0.209380 0.188038 0.050000
0.209303 0.204166 0.050000
0.209225 0.220295 0.050000
0.209148 0.236424 0.050000
0.209070 0.252553 0.050000
0.208993 0.268682 0.050000
0.208915 0.284810 0.050000
0.208838 0.300939 0.050000
0.208760 0.317068 0.050000
0.208683 0.333197 0.050000
0.208605 0.349326 0.050000
0.208528 0.365454 0.050000
0.201008 0.382527 0.050000
0.193068 -0.483065 0.050000
0.199048 -0.467041 0.050000
0.202893 -0.450745 0.050000
0.205597 -0.434197 0.050000
0.207540 -0.417455 0.050000
0.208905 -0.400534 0.050000
0.209801 -0.383467 0.050000
0.210311 -0.366252 0.050000
0.210510 -0.348951 0.050000
0.210470 -0.331599 0.050000
0.210274 -0.314331 0.050000
0.209970 -0.297250 0.050000
0.209644 -0.280553 0.050000
0.209289 -0.264364 0.050000
0.208982 -0.248853 0.050000
0.208640 -0.234084 0.050000
0.208369 -0.220069 0.050000
0.208029 -0.206857 0.050000
0.207686 -0.194217 0.050000
0.207222 -0.182138 0.050000
0.206605 -0.170379 0.050000
0.205951 -0.158779 0.050000
0.205254 -0.147328 0.050000
0.204578 -0.135909 0.050000
0.203904 -0.124481 0.050000
0.203300 -0.113094 0.050000
0.202732 -0.101535 0.050000
0.202221 -0.090046 0.050000
0.201806 -0.078366 0.050000
0.201426 -0.066640 0.050000
0.201135 -0.054807 0.050000
0.200891 -0.042849 0.050000
0.200699 -0.030803 0.050000
0.200547 -0.018639 0.050000
0.200421 -0.006399 0.050000
0.200320 0.005932 0.050000
0.200217 0.018303 0.050000
0.200111 0.030739 0.050000
0.199959 0.043188 0.050000
0.199748 0.055745 0.050000
0.199424 0.068360 0.050000
0.198723 0.080812 0.050000
0.197820 0.094654 0.050000
0.196194 0.107684 0.050000
0.193562 0.123445 0.050000
0.193484 0.139574 0.050000
0.193407 0.155702 0.050000
0.193329 0.171830 0.050000
0.193252 0.187960 0.050000
0.193174 0.204089 0.050000
0.193097 0.220218 0.050000
0.193019 0.236346 0.050000
0.192942 0.252475 0.050000
0.192864 0.268604 0.050000
0.192787 0.284733 0.050000
0.192709 0.300862 0.050000
0.192632 0.316991 0.050000
0.192554 0.333119 0.050000
0.192477 0.349248 0.050000
0.192399 0.365377 0.050000
0.186699 0.382472 0.050000
0.177841 -0.483043 0.050000
0.184308 -0.466973 0.050000
0.188406 -0.450574 0.050000
0.191251 -0.433898 0.050000
0.193282 -0.416994 0.050000
0.194712 -0.399913 0.050000
0.195649 -0.382662 0.050000
0.196178 -0.365291 0.050000
0.196345 -0.347825 0.050000
0.196214 -0.330361 0.050000
0.195807 -0.312985 0.050000
0.195188 -0.295861 0.050000
0.194348 -0.279122 0.050000
0.193361 -0.262947 0.050000
0.192180 -0.247441 0.050000
0.190914 -0.232688 0.050000
0.189504 -0.218732 0.050000
0.188096 -0.205480 0.050000
0.186691 -0.192943 0.050000
0.185411 -0.180894 0.050000
0.184297 -0.169178 0.050000
0.183286 -0.157706 0.050000
0.182414 -0.146318 0.050000
0.181634 -0.134997 0.050000
0.180994 -0.123703 0.050000
0.180412 -0.112294 0.050000
0.179961 -0.100986 0.050000
0.179605 -0.089426 0.050000
0.179313 -0.077911 0.050000
0.179146 -0.066241 0.050000
0.179029 -0.054458 0.050000
0.178981 -0.042587 0.050000
0.178973 -0.030581 0.050000
0.178983 -0.018489 0.050000
0.179001 -0.006291 0.050000
0.179004 0.005968 0.050000
0.178993 0.018303 0.050000
0.178947 0.030666 0.050000
0.178876 0.043092 0.050000
0.178770 0.055522 0.050000
0.178619 0.068045 0.050000
0.178422 0.081149 0.050000
0.178216 0.093613 0.050000
0.177860 0.108277 0.050000
0.177433 0.123367 0.050000
0.177355 0.139496 0.050000
0.177278 0.155625 0.050000
0.177200 0.171753 0.050000
0.175704 0.188294 0.050000
0.175680 0.203907 0.050000
0.176968 0.220140 0.050000
0.176890 0.236269 0.050000
0.176813 0.252398 0.050000
0.176735 0.268527 0.050000
0.177487 0.284543 0.050000
0.177470 0.301168 0.050000
0.176503 0.316913 0.050000
0.176425 0.333042 0.050000
0.176348 0.349171 0.050000
0.176270 0.365299 0.050000
0.172388 0.382426 0.050000
0.162620 -0.483034 0.050000
0.169596 -0.466972 0.050000
0.173970 -0.450551 0.050000
0.176966 -0.433818 0.050000
0.179101 -0.416854 0.050000
0.180598 -0.399684 0.050000
0.181591 -0.382359 0.050000
0.182130 -0.364890 0.050000
0.182274 -0.347354 0.050000
0.182022 -0.329803 0.050000
0.181416 -0.312376 0.050000
0.180426 -0.295189 0.050000
0.179099 -0.278425 0.050000
0.177391 -0.262218 0.050000
0.175393 -0.246717 0.050000
0.173074 -0.232000 0.050000
0.170599 -0.218089 0.050000
0.168002 -0.204997 0.050000
0.165488 -0.192621 0.050000
0.163467 -0.180779 0.050000
0.161819 -0.169272 0.050000
0.160515 -0.157898 0.050000
0.159458 -0.146639 0.050000
0.158642 -0.135382 0.050000
0.157967 -0.124083 0.050000
0.157510 -0.112833 0.050000
0.157133 -0.101318 0.050000
0.156901 -0.089949 0.050000
0.156820 -0.078316 0.050000
0.156800 -0.066632 0.050000
0.156904 -0.054844 0.050000
0.157057 -0.042895 0.050000
0.157241 -0.030854 0.050000
0.157429 -0.018680 0.050000
0.157587 -0.006424 0.050000
0.157708 0.005924 0.050000
0.157770 0.018313 0.050000
0.157793 0.030754 0.050000
0.157778 0.043211 0.050000
0.157756 0.055737 0.050000
0.157791 0.068330 0.050000
0.158124 0.080766 0.050000
0.158478 0.094550 0.050000
0.159536 0.107496 0.050000
0.161304 0.123290 0.050000
0.161226 0.139419 0.050000
0.161149 0.155547 0.050000
0.161071 0.171675 0.050000
0.157977 0.188087 0.050000
0.157859 0.203872 0.050000
0.160839 0.220063 0.050000
0.160761 0.236191 0.050000
0.160684 0.252320 0.050000
0.160606 0.268449 0.050000
0.162462 0.284695 0.050000
0.162381 0.300825 0.050000
0.160374 0.316836 0.050000
0.160296 0.332964 0.050000
0.160219 0.349093 0.050000
0.160141 0.365222 0.050000
0.158141 0.382377 0.050000
0.147366 -0.483038 0.050000
0.154855 -0.467041 0.050000
0.159513 -0.450667 0.050000
0.162677 -0.433973 0.050000
0.164914 -0.417024 0.050000
0.166503 -0.399877 0.050000
0.167544 -0.382545 0.050000
0.168126 -0.365085 0.050000
0.168236 -0.347522 0.050000
0.167907 -0.329961 0.050000
0.167080 -0.312487 0.050000
0.165773 -0.295270 0.050000
0.163913 -0.278448 0.050000
0.161546 -0.262213 0.050000
0.158630 -0.246696 0.050000
0.155305 -0.232019 0.050000
0.151593 -0.218239 0.050000
0.147748 -0.205375 0.050000
0.143930 -0.193364 0.050000
0.141196 -0.181937 0.050000
0.139155 -0.170668 0.050000
0.137618 -0.159526 0.050000
0.136488 -0.148327 0.050000
0.135635 -0.137104 0.050000
0.135070 -0.125817 0.050000
0.134610 -0.114347 0.050000
0.134419 -0.103019 0.050000
0.134336 -0.091295 0.050000
0.134371 -0.079675 0.050000
0.134606 -0.067866 0.050000
0.134908 -0.055891 0.050000
0.135294 -0.043825 0.050000
0.135702 -0.031584 0.050000
0.136083 -0.019235 0.050000
0.136406 -0.006758 0.050000
0.136636 0.005788 0.050000
0.136773 0.018401 0.050000
0.136814 0.031019 0.050000
0.136820 0.043643 0.050000
0.136879 0.056257 0.050000
0.137084 0.068948 0.050000
0.137364 0.081846 0.050000
0.138699 0.093945 0.050000
0.140982 0.108467 0.050000
0.145175 0.123212 0.050000
0.145098 0.139341 0.050000
0.145020 0.155470 0.050000
0.144943 0.171598 0.050000
0.140208 0.187932 0.050000
0.140115 0.203862 0.050000
0.144710 0.219985 0.050000
0.144633 0.236114 0.050000
0.144555 0.252243 0.050000
0.144478 0.268372 0.050000
0.147376 0.284424 0.050000
0.147302 0.300966 0.050000
0.144245 0.316758 0.050000
0.144168 0.332887 0.050000
0.144090 0.349016 0.050000
0.144013 0.365145 0.050000
0.144013 0.382343 0.050000
0.132044 -0.483053 0.050000
0.140020 -0.467174 0.050000
0.144975 -0.450927 0.050000
0.148298 -0.434348 0.050000
0.150664 -0.417521 0.050000
0.152329 -0.400473 0.050000
0.153465 -0.383251 0.050000
0.154078 -0.365861 0.050000
0.154222 -0.348376 0.050000
0.153812 -0.330836 0.050000
0.152853 -0.313382 0.050000
0.151223 -0.296123 0.050000
0.148927 -0.279268 0.050000
0.145854 -0.262975 0.050000
0.142092 -0.247457 0.050000
0.137610 -0.232841 0.050000
0.132635 -0.219279 0.050000
0.127276 -0.206762 0.050000
0.121727 -0.195516 0.050000
0.118521 -0.184609 0.050000
0.116278 -0.173775 0.050000
0.114703 -0.162724 0.050000
0.113578 -0.151604 0.050000
0.112832 -0.140301 0.050000
0.112300 -0.128870 0.050000
0.112099 -0.117391 0.050000
0.111903 -0.105521 0.050000
0.111979 -0.093930 0.050000
0.112257 -0.081936 0.050000
0.112627 -0.069885 0.050000
0.113213 -0.057736 0.050000
0.113863 -0.045345 0.050000
0.114524 -0.032838 0.050000
0.115145 -0.020152 0.050000
0.115658 -0.007351 0.050000
0.116032 0.005574 0.050000
0.116227 0.018551 0.050000
0.116263 0.031554 0.050000
0.116169 0.044495 0.050000
0.116076 0.057284 0.050000
0.116289 0.069884 0.050000
0.117263 0.082682 0.050000
0.118141 0.096352 0.050000
0.121233 0.107729 0.050000
0.129046 0.123135 0.050000
0.128969 0.139264 0.050000
0.128891 0.155393 0.050000
0.128814 0.171520 0.050000
0.122321 0.188088 0.050000
0.122235 0.203545 0.050000
0.128581 0.219908 0.050000
0.128504 0.236036 0.050000
0.128426 0.252165 0.050000
0.128349 0.268294 0.050000
0.132350 0.284543 0.050000
0.132278 0.300744 0.050000
0.128116 0.316681 0.050000
0.128039 0.332809 0.050000
0.127961 0.348938 0.050000
0.127884 0.365067 0.050000
0.130074 0.382318 0.050000
0.116613 -0.483084 0.050000
0.125043 -0.467366 0.050000
0.130275 -0.451315 0.050000
0.133774 -0.434944 0.050000
0.136245 -0.418320 0.050000
0.138032 -0.401486 0.050000
0.139236 -0.384452 0.050000
0.139961 -0.367257 0.050000
0.140127 -0.349910 0.050000
0.139757 -0.332502 0.050000
0.138676 -0.315088 0.050000
0.136871 -0.297860 0.050000
0.134145 -0.280954 0.050000
0.130500 -0.264641 0.050000
0.125810 -0.249116 0.050000
0.120237 -0.234660 0.050000
0.113748 -0.221386 0.050000
0.106677 -0.209617 0.050000
0.098550 -0.199544 0.050000
0.095350 -0.189524 0.050000
0.093259 -0.178908 0.050000
0.091888 -0.168080 0.050000
0.091011 -0.156788 0.050000
0.090418 -0.145274 0.050000
0.090112 -0.133516 0.050000
0.089846 -0.121566 0.050000
0.090003 -0.109769 0.050000
0.090105 -0.097360 0.050000
0.090420 -0.085253 0.050000
0.091121 -0.072908 0.050000
0.091938 -0.060280 0.050000
0.092896 -0.047579 0.050000
0.093876 -0.034618 0.050000
0.094770 -0.021508 0.050000
0.095526 -0.008221 0.050000
0.096078 0.005181 0.050000
0.096402 0.018711 0.050000
0.096432 0.032302 0.050000
0.096188 0.045873 0.050000
0.095727 0.059292 0.050000
0.095258 0.072222 0.050000
0.095500 0.083978 0.050000
0.097953 0.095413 0.050000
0.100873 0.109969 0.050000
0.112917 0.123057 0.050000
0.112840 0.139186 0.050000
0.112762 0.155315 0.050000
0.112685 0.171443 0.050000
0.104534 0.187524 0.050000
0.104480 0.203890 0.050000
0.112452 0.219830 0.050000
0.112375 0.235959 0.050000
0.112297 0.252088 0.050000
0.112220 0.268216 0.050000
0.117397 0.284419 0.050000
0.117197 0.300866 0.050000
0.111987 0.316603 0.050000
0.111910 0.332732 0.050000
0.111832 0.348861 0.050000
0.111755 0.364990 0.050000
0.116384 0.382256 0.050000
0.101050 -0.483122 0.050000
0.109863 -0.467614 0.050000
0.115360 -0.451820 0.050000
0.119004 -0.435736 0.050000
0.121608 -0.419413 0.050000
0.123481 -0.402882 0.050000
0.124822 -0.386160 0.050000
0.125621 -0.369249 0.050000
0.125941 -0.352183 0.050000
0.125599 -0.334972 0.050000
0.124599 -0.317735 0.050000
0.122641 -0.300552 0.050000
0.119710 -0.283689 0.050000
0.115498 -0.267341 0.050000
0.110043 -0.251913 0.050000
0.103224 -0.237667 0.050000
0.095271 -0.225119 0.050000
0.086053 -0.214308 0.050000
0.074133 -0.207186 0.050000
0.071691 -0.197519 0.050000
0.070314 -0.187315 0.050000
0.069509 -0.176105 0.050000
0.069004 -0.164586 0.050000
0.068817 -0.152563 0.050000
0.068718 -0.140227 0.050000
0.068806 -0.127631 0.050000
0.068537 -0.114794 0.050000
0.068872 -0.102560 0.050000
0.069358 -0.089643 0.050000
0.070028 -0.076742 0.050000
0.071244 -0.063819 0.050000
0.072563 -0.050458 0.050000
0.073860 -0.036988 0.050000
0.075082 -0.023299 0.050000
0.076114 -0.009452 0.050000
0.076903 0.004569 0.050000
0.077387 0.018704 0.050000
0.077587 0.033006 0.050000
0.077350 0.047507 0.050000
0.076606 0.062082 0.050000
0.075353 0.076586 0.050000
0.074011 0.090737 0.050000
0.073847 0.101945 0.050000
0.075066 0.108192 0.050000
0.096788 0.122980 0.050000
0.096711 0.139109 0.050000
0.096634 0.155238 0.050000
0.096556 0.171365 0.050000
0.086189 0.188240 0.050000
0.086521 0.203078 0.050000
0.096324 0.219753 0.050000
0.096246 0.235881 0.050000
0.096169 0.252010 0.050000
0.096091 0.268139 0.050000
0.102724 0.284646 0.050000
0.101990 0.300827 0.050000
0.095859 0.316526 0.050000
0.095781 0.332654 0.050000
0.095704 0.348783 0.050000
0.095626 0.364912 0.050000
0.103050 0.382379 0.050000
0.085325 -0.483174 0.050000
0.094443 -0.467900 0.050000
0.100148 -0.452428 0.050000
0.103937 -0.436701 0.050000
0.106632 -0.420766 0.050000
0.108627 -0.404638 0.050000
0.110054 -0.388331 0.050000
0.111026 -0.371842 0.050000
0.111447 -0.355171 0.050000
0.111343 -0.338338 0.050000
0.110406 -0.321367 0.050000
0.108622 -0.304407 0.050000
0.105509 -0.287615 0.050000
0.101082 -0.271371 0.050000
0.094813 -0.256055 0.050000
0.086949 -0.242398 0.050000
0.077325 -0.230647 0.050000
0.065652 -0.222543 0.050000
0.049093 -0.220654 0.050000
0.048349 -0.211190 0.050000
0.048120 -0.199706 0.050000
0.047918 -0.188070 0.050000
0.047993 -0.175692 0.050000
0.048177 -0.162916 0.050000
0.048523 -0.149761 0.050000
0.048807 -0.136308 0.050000
0.049280 -0.122510 0.050000
0.048537 -0.108389 0.050000
0.048727 -0.095448 0.050000
0.049885 -0.082072 0.050000
0.051303 -0.068024 0.050000
0.052949 -0.054121 0.050000
0.054648 -0.039870 0.050000
0.056153 -0.025485 0.050000
0.057444 -0.010989 0.050000
0.058488 0.003623 0.050000
0.059236 0.018445 0.050000
0.059575 0.033393 0.050000
0.059730 0.048592 0.050000
0.059351 0.064498 0.050000
0.058008 0.081191 0.050000
0.056808 0.098794 0.050000
0.055786 0.119097 0.050000
0.064609 0.135416 0.050000
0.080660 0.122902 0.050000
0.080582 0.139031 0.050000
0.080505 0.155160 0.050000
0.080427 0.171288 0.050000
0.067443 0.183821 0.050000
0.070134 0.201633 0.050000
0.080195 0.219675 0.050000
0.080117 0.235804 0.050000
0.080040 0.251933 0.050000
0.079962 0.268061 0.050000
0.087535 0.283871 0.050000
0.087452 0.300565 0.050000
0.079730 0.316448 0.050000
0.079652 0.332577 0.050000
0.079575 0.348706 0.050000
0.079497 0.364835 0.050000
0.090009 0.381946 0.050000
0.069429 -0.483244 0.050000
0.078732 -0.468221 0.050000
0.084593 -0.453106 0.050000
0.088477 -0.437805 0.050000
0.091263 -0.422328 0.050000
0.093325 -0.406700 0.050000
0.094876 -0.390915 0.050000
0.095948 -0.374978 0.050000
0.096598 -0.358866 0.050000
0.096653 -0.342581 0.050000
0.096097 -0.326120 0.050000
0.094467 -0.309547 0.050000
0.091700 -0.293056 0.050000
0.087061 -0.277009 0.050000
0.080598 -0.261982 0.050000
0.071356 -0.248988 0.050000
0.060429 -0.239968 0.050000
0.047085 -0.234473 0.050000
0.025783 -0.244213 0.050000
0.026388 -0.230440 0.050000
0.026632 -0.217805 0.050000
0.027361 -0.204644 0.050000
0.027984 -0.191112 0.050000
0.028684 -0.177191 0.050000
0.029380 -0.162925 0.050000
0.030142 -0.148356 0.050000
0.030765 -0.133608 0.050000
0.031657 -0.118368 0.050000
0.030031 -0.102750 0.050000
0.030273 -0.088108 0.050000
0.032468 -0.073668 0.050000
0.034516 -0.058231 0.050000
0.036283 -0.043036 0.050000
0.038025 -0.027920 0.050000
0.039512 -0.012735 0.050000
0.040710 0.002481 0.050000
0.041694 0.017732 0.050000
0.042429 0.033328 0.050000
0.042540 0.048980 0.050000
0.043119 0.064787 0.050000
0.043419 0.082577 0.050000
0.041309 0.100837 0.050000
0.044412 0.120101 0.050000
0.043473 0.137137 0.050000
0.055934 0.152822 0.050000
0.055699 0.159307 0.050000
0.055933 0.164893 0.050000
0.055540 0.171329 0.050000
0.049936 0.186422 0.050000
0.051005 0.199235 0.050000
0.053529 0.208935 0.050000
0.055207 0.216532 0.050000
0.065969 0.236218 0.050000
0.066143 0.257034 0.050000
0.070962 0.280663 0.050000
0.073918 0.296795 0.050000
0.066550 0.314444 0.050000
0.065688 0.335666 0.050000
0.063543 0.354310 0.050000
0.070353 0.374343 0.050000
0.070512 0.386194 0.050000
0.053349 -0.483327 0.050000
0.062708 -0.468564 0.050000
0.068632 -0.453841 0.050000
0.072572 -0.438999 0.050000
0.075392 -0.424046 0.050000
0.077509 -0.408980 0.050000
0.079108 -0.393820 0.050000
0.080304 -0.378548 0.050000
0.081074 -0.363172 0.050000
0.081428 -0.347647 0.050000
0.081136 -0.331982 0.050000
0.080108 -0.316154 0.050000
0.077692 -0.300312 0.050000
0.073696 -0.284775 0.050000
0.067098 -0.270400 0.050000
0.057891 -0.258033 0.050000
0.043290 -0.251778 0.050000
0.027865 -0.254884 0.050000
0.006205 -0.277413 0.050000
0.007093 -0.261308 0.050000
0.007980 -0.245204 0.050000
0.008867 -0.229099 0.050000
0.009754 -0.212994 0.050000
0.010641 -0.196890 0.050000
0.011529 -0.180785 0.050000
0.012416 -0.164681 0.050000
0.013303 -0.148576 0.050000
0.014190 -0.132471 0.050000
0.015078 -0.116367 0.050000
0.013746 -0.098769 0.050000
0.016260 -0.078823 0.050000
0.016918 -0.062250 0.050000
0.018994 -0.046296 0.050000
0.020707 -0.030231 0.050000
0.022197 -0.014454 0.050000
0.023484 0.001236 0.050000
0.024496 0.016882 0.050000
0.025464 0.032411 0.050000
0.026231 0.048611 0.050000
0.025616 0.064113 0.050000
0.027387 0.078249 0.050000
0.026612 0.092993 0.050000
0.027499 0.109097 0.050000
0.028386 0.125202 0.050000
0.029274 0.141307 0.050000
0.030161 0.157411 0.050000
0.031048 0.173516 0.050000
0.031935 0.189620 0.050000
0.032823 0.205725 0.050000
0.033710 0.221830 0.050000
0.034597 0.237934 0.050000
0.035484 0.254039 0.050000
0.047587 0.236658 0.050000
0.058538 0.255321 0.050000
0.057933 0.279241 0.050000
0.058191 0.297228 0.050000
0.055628 0.316758 0.050000
0.052120 0.335717 0.050000
0.052239 0.355992 0.050000
0.054130 0.371679 0.050000
0.050593 0.386268 0.050000
0.037076 -0.483414 0.050000
0.046346 -0.468922 0.050000
0.052239 -0.454599 0.050000
0.056160 -0.440250 0.050000
0.058968 -0.425844 0.050000
0.061067 -0.411398 0.050000
0.062674 -0.396911 0.050000
0.063881 -0.382406 0.050000
0.064745 -0.367872 0.050000
0.065219 -0.353330 0.050000
0.065266 -0.338749 0.050000
0.064624 -0.324171 0.050000
0.063095 -0.309631 0.050000
0.059883 -0.295398 0.050000
0.054495 -0.282299 0.050000
0.046121 -0.272625 0.050000
0.035278 -0.267301 0.050000
0.023785 -0.280919 0.050000
-0.009899 -0.276526 0.050000
-0.009012 -0.260421 0.050000
-0.008125 -0.244316 0.050000
-0.007238 -0.228212 0.050000
-0.006350 -0.212107 0.050000
-0.005463 -0.196002 0.050000
-0.004576 -0.179898 0.050000
-0.003689 -0.163793 0.050000
-0.002801 -0.147689 0.050000
-0.001914 -0.131584 0.050000
-0.001027 -0.115479 0.050000
-0.000140 -0.099375 0.050000
0.000747 -0.083270 0.050000
0.001035 -0.066208 0.050000
0.002532 -0.048703 0.050000
0.004148 -0.032168 0.050000
0.005483 -0.015785 0.050000
0.006493 0.000166 0.050000
0.007567 0.015932 0.050000
0.008382 0.031606 0.050000
0.009051 0.046464 0.050000
0.008733 0.061671 0.050000
0.009620 0.077775 0.050000
0.010507 0.093880 0.050000
0.011394 0.109985 0.050000
0.012282 0.126089 0.050000
0.013169 0.142194 0.050000
0.014056 0.158299 0.050000
0.014944 0.174403 0.050000
0.015831 0.190508 0.050000
0.016718 0.206612 0.050000
0.017605 0.222717 0.050000
0.018493 0.238821 0.050000
0.019380 0.254926 0.050000
0.044416 0.265843 0.050000
0.044938 0.273015 0.050000
0.044288 0.286161 0.050000
0.044150 0.302888 0.050000
0.041581 0.319238 0.050000
0.039896 0.337706 0.050000
0.038861 0.355162 0.050000
0.037542 0.371617 0.050000
0.033163 0.385106 0.050000
0.020609 -0.483506 0.050000
0.029643 -0.469276 0.050000
0.035391 -0.455359 0.050000
0.039216 -0.441495 0.050000
0.041936 -0.427653 0.050000
0.043953 -0.413826 0.050000
0.045468 -0.400044 0.050000
0.046597 -0.386324 0.050000
0.047378 -0.372711 0.050000
0.047828 -0.359231 0.050000
0.047880 -0.345952 0.050000
0.047444 -0.332951 0.050000
0.046238 -0.320428 0.050000
0.043949 -0.308883 0.050000
0.039853 -0.299101 0.050000
0.033168 -0.293040 0.050000
0.025039 -0.293468 0.050000
0.001049 -0.288542 0.050000
-0.026004 -0.275638 0.050000
-0.025117 -0.259534 0.050000
-0.024229 -0.243429 0.050000
-0.023342 -0.227325 0.050000
-0.022455 -0.211220 0.050000
-0.021568 -0.195115 0.050000
-0.020680 -0.179011 0.050000
-0.019793 -0.162906 0.050000
-0.018906 -0.146802 0.050000
-0.018019 -0.130697 0.050000
-0.017132 -0.114592 0.050000
-0.016244 -0.098488 0.050000
-0.015357 -0.082383 0.050000
-0.014366 -0.066714 0.050000
-0.013236 -0.049993 0.050000
-0.012045 -0.033162 0.050000
-0.010925 -0.016784 0.050000
-0.009958 -0.000362 0.050000
-0.009718 0.015317 0.050000
-0.008603 0.030696 0.050000
-0.008259 0.046453 0.050000
-0.007372 0.062558 0.050000
-0.006485 0.078663 0.050000
-0.005597 0.094767 0.050000
-0.004710 0.110872 0.050000
-0.003823 0.126976 0.050000
-0.002936 0.143081 0.050000
-0.002048 0.159186 0.050000
-0.001161 0.175290 0.050000
-0.000274 0.191395 0.050000
0.000613 0.207500 0.050000
0.001501 0.223604 0.050000
0.002388 0.239709 0.050000
0.003275 0.255813 0.050000
0.020110 0.268109 0.050000
0.024764 0.281378 0.050000
0.028162 0.293616 0.050000
0.027976 0.306822 0.050000
0.027341 0.322817 0.050000
0.025873 0.338930 0.050000
0.024388 0.355317 0.050000
0.021445 0.370196 0.050000
0.016164 0.385187 0.050000
0.003952 -0.483596 0.050000
0.012600 -0.469620 0.050000
0.018093 -0.456086 0.050000
0.021731 -0.442693 0.050000
0.024290 -0.429379 0.050000
0.026138 -0.416154 0.050000
0.027472 -0.403034 0.050000
0.028387 -0.390073 0.050000
0.028928 -0.377319 0.050000
0.029084 -0.364862 0.050000
0.028807 -0.352813 0.050000
0.027956 -0.341352 0.050000
0.026287 -0.330792 0.050000
0.023316 -0.321490 0.050000
0.018341 -0.314289 0.050000
0.010229 -0.308982 0.050000
-0.002400 -0.298702 0.050000
-0.020636 -0.289554 0.050000
-0.042109 -0.274751 0.050000
-0.041221 -0.258646 0.050000
-0.040334 -0.242542 0.050000
-0.039447 -0.226437 0.050000
-0.038560 -0.210333 0.050000
-0.037672 -0.194228 0.050000
-0.036785 -0.178123 0.050000
-0.035898 -0.162019 0.050000
-0.035011 -0.145914 0.050000
-0.034123 -0.129810 0.050000
-0.033236 -0.113705 0.050000
-0.032349 -0.097600 0.050000
-0.031462 -0.081496 0.050000
-0.030575 -0.065391 0.050000
-0.029293 -0.049776 0.050000
-0.028028 -0.033424 0.050000
-0.027133 -0.016854 0.050000
-0.026711 -0.001012 0.050000
-0.026138 0.015131 0.050000
-0.025251 0.031236 0.050000
-0.024364 0.047341 0.050000
-0.023477 0.063445 0.050000
-0.022589 0.079550 0.050000
-0.021702 0.095655 0.050000
-0.020815 0.111759 0.050000
-0.019927 0.127864 0.050000
-0.019040 0.143968 0.050000
-0.018153 0.160073 0.050000
-0.017266 0.176178 0.050000
-0.016378 0.192282 0.050000
-0.015491 0.208387 0.050000
-0.014604 0.224491 0.050000
-0.013717 0.240596 0.050000
-0.012829 0.256701 0.050000
0.000576 0.270852 0.050000
0.007108 0.282363 0.050000
0.009925 0.296245 0.050000
0.011827 0.310585 0.050000
0.011679 0.324919 0.050000
0.010782 0.340276 0.050000
0.008649 0.355224 0.050000
0.005292 0.370435 0.050000
-0.000177 0.384835 0.050000
-0.012882 -0.483683 0.050000
-0.004761 -0.469938 0.050000
0.000364 -0.456759 0.050000
0.003733 -0.443788 0.050000
0.006051 -0.430960 0.050000
0.007657 -0.418263 0.050000
0.008718 -0.405732 0.050000
0.009316 -0.393409 0.050000
0.009466 -0.381367 0.050000
0.009137 -0.369692 0.050000
0.008224 -0.358507 0.050000
0.006551 -0.347970 0.050000
0.003794 -0.338194 0.050000
-0.000507 -0.329319 0.050000
-0.006986 -0.320474 0.050000
-0.014848 -0.309156 0.050000
-0.025563 -0.300866 0.050000
-0.040818 -0.289294 0.050000
-0.058213 -0.273864 0.050000
-0.057326 -0.257759 0.050000
-0.056439 -0.241655 0.050000
-0.055551 -0.225550 0.050000
-0.054664 -0.209445 0.050000
-0.053878 -0.194061 0.050000
-0.053195 -0.177962 0.050000
-0.052002 -0.161132 0.050000
-0.051115 -0.145027 0.050000
-0.050228 -0.128922 0.050000
-0.049341 -0.112818 0.050000
-0.048454 -0.096713 0.050000
-0.047566 -0.080609 0.050000
-0.046679 -0.064504 0.050000
-0.045792 -0.048399 0.050000
-0.044064 -0.032581 0.050000
-0.043492 -0.016402 0.050000
-0.043130 -0.000086 0.050000
-0.042243 0.016019 0.050000
-0.041356 0.032123 0.050000
-0.040468 0.048228 0.050000
-0.039581 0.064333 0.050000
-0.038694 0.080437 0.050000
-0.037807 0.096542 0.050000
-0.036919 0.112646 0.050000
-0.036032 0.128751 0.050000
-0.035145 0.144856 0.050000
-0.034258 0.160960 0.050000
-0.033370 0.177065 0.050000
-0.032483 0.193169 0.050000
-0.031596 0.209274 0.050000
-0.030709 0.225379 0.050000
-0.029821 0.241483 0.050000
-0.028934 0.257588 0.050000
-0.017736 0.272065 0.050000
-0.010679 0.285508 0.050000
-0.006634 0.298444 0.050000
-0.005128 0.312286 0.050000
-0.004555 0.326761 0.050000
-0.005481 0.341077 0.050000
-0.007487 0.355895 0.050000
-0.011061 0.370311 0.050000
-0.016578 0.384995 0.050000
-0.029878 -0.483765 0.050000
-0.022412 -0.470225 0.050000
-0.017750 -0.457353 0.050000
-0.014729 -0.444752 0.050000
-0.012715 -0.432330 0.050000
-0.011414 -0.420078 0.050000
-0.010682 -0.408011 0.050000
-0.010466 -0.396174 0.050000
-0.010764 -0.384614 0.050000
-0.011641 -0.373396 0.050000
-0.013205 -0.362575 0.050000
-0.015644 -0.352151 0.050000
-0.019156 -0.342068 0.050000
-0.023974 -0.331817 0.050000
-0.029495 -0.320937 0.050000
-0.037224 -0.312334 0.050000
-0.047338 -0.300770 0.050000
-0.059886 -0.288516 0.050000
-0.074318 -0.272977 0.050000
-0.073430 -0.256872 0.050000
-0.072543 -0.240767 0.050000
-0.071656 -0.224663 0.050000
-0.070769 -0.208558 0.050000
-0.070085 -0.192956 0.050000
-0.069113 -0.176718 0.050000
-0.068350 -0.160833 0.050000
-0.067220 -0.144140 0.050000
-0.066333 -0.128035 0.050000
-0.065445 -0.111931 0.050000
-0.064558 -0.095826 0.050000
-0.063671 -0.079721 0.050000
-0.062784 -0.063617 0.050000
-0.061897 -0.047512 0.050000
-0.060516 -0.031318 0.050000
-0.059963 -0.015318 0.050000
-0.059235 0.000801 0.050000
-0.058348 0.016906 0.050000
-0.057460 0.033011 0.050000
-0.056573 0.049115 0.050000
-0.055686 0.065220 0.050000
-0.054798 0.081325 0.050000
-0.053911 0.097429 0.050000
-0.053310 0.113967 0.050000
-0.052355 0.130153 0.050000
-0.051493 0.146332 0.050000
-0.050602 0.162485 0.050000
-0.049692 0.178512 0.050000
-0.048588 0.194057 0.050000
-0.047700 0.210161 0.050000
-0.046813 0.226266 0.050000
-0.045926 0.242371 0.050000
-0.045039 0.258475 0.050000
-0.034944 0.273468 0.050000
-0.028083 0.286676 0.050000
-0.024158 0.300369 0.050000
-0.021917 0.313974 0.050000
-0.021488 0.327788 0.050000
-0.022105 0.342079 0.050000
-0.024152 0.356188 0.050000
-0.027623 0.370663 0.050000
-0.032952 0.384965 0.050000
-0.047015 -0.483839 0.050000
-0.040311 -0.470471 0.050000
-0.036193 -0.457859 0.050000
-0.033578 -0.445558 0.050000
-0.031917 -0.433463 0.050000
-0.030954 -0.421547 0.050000
-0.030576 -0.409821 0.050000
-0.030739 -0.398299 0.050000
-0.031459 -0.387009 0.050000
-0.032781 -0.375964 0.050000
-0.034803 -0.365141 0.050000
-0.037594 -0.354494 0.050000
-0.041266 -0.343838 0.050000
-0.045651 -0.333255 0.050000
-0.051666 -0.323686 0.050000
-0.058936 -0.311739 0.050000
-0.067533 -0.300458 0.050000
-0.078324 -0.287641 0.050000
-0.090422 -0.272089 0.050000
-0.089535 -0.255985 0.050000
-0.088648 -0.239880 0.050000
-0.087761 -0.223776 0.050000
-0.086873 -0.207671 0.050000
-0.086033 -0.192002 0.050000
-0.085275 -0.175910 0.050000
-0.084430 -0.159504 0.050000
-0.083560 -0.143671 0.050000
-0.082437 -0.127148 0.050000
-0.081550 -0.111043 0.050000
-0.080663 -0.094939 0.050000
-0.079776 -0.078834 0.050000
-0.078888 -0.062730 0.050000
-0.078001 -0.046625 0.050000
-0.077114 -0.030520 0.050000
-0.076227 -0.014416 0.050000
-0.075340 0.001689 0.050000
-0.074452 0.017793 0.050000
-0.073565 0.033898 0.050000
-0.072678 0.050003 0.050000
-0.071790 0.066107 0.050000
-0.070903 0.082212 0.050000
-0.070212 0.098687 0.050000
-0.069273 0.114715 0.050000
-0.068506 0.130956 0.050000
-0.067609 0.147111 0.050000
-0.066748 0.163263 0.050000
-0.065944 0.179324 0.050000
-0.064692 0.194944 0.050000
-0.063805 0.211049 0.050000
-0.062918 0.227153 0.050000
-0.062031 0.243258 0.050000
-0.061143 0.259362 0.050000
-0.051904 0.274389 0.050000
-0.045360 0.288135 0.050000
-0.041370 0.301499 0.050000
-0.039357 0.315123 0.050000
-0.038548 0.328893 0.050000
-0.039203 0.342639 0.050000
-0.041044 0.356751 0.050000
-0.044363 0.370781 0.050000
-0.049459 0.385083 0.050000
-0.064266 -0.483904 0.050000
-0.058414 -0.470674 0.050000
-0.054896 -0.458268 0.050000
-0.052731 -0.446201 0.050000
-0.051448 -0.434347 0.050000
-0.050835 -0.422673 0.050000
-0.050796 -0.411166 0.050000
-0.051300 -0.399828 0.050000
-0.052348 -0.388656 0.050000
-0.053979 -0.377634 0.050000
-0.056221 -0.366739 0.050000
-0.059154 -0.355911 0.050000
-0.062768 -0.345226 0.050000
-0.067564 -0.334770 0.050000
-0.072868 -0.322878 0.050000
-0.079295 -0.312054 0.050000
-0.087088 -0.299781 0.050000
-0.096266 -0.286743 0.050000
-0.106527 -0.271202 0.050000
-0.105640 -0.255098 0.050000
-0.104752 -0.238993 0.050000
-0.103865 -0.222888 0.050000
-0.102978 -0.206784 0.050000
-0.102070 -0.191150 0.050000
-0.101212 -0.174890 0.050000
-0.100543 -0.158750 0.050000
-0.099719 -0.142351 0.050000
-0.098771 -0.126525 0.050000
-0.097655 -0.110156 0.050000
-0.096767 -0.094052 0.050000
-0.095880 -0.077947 0.050000
-0.094993 -0.061842 0.050000
-0.094106 -0.045738 0.050000
-0.093219 -0.029633 0.050000
-0.092331 -0.013529 0.050000
-0.091444 0.002576 0.050000
-0.090557 0.018681 0.050000
-0.089670 0.034785 0.050000
-0.088782 0.050890 0.050000
-0.087895 0.066995 0.050000
-0.087140 0.083425 0.050000
-0.086241 0.099435 0.050000
-0.085443 0.115673 0.050000
-0.084541 0.131777 0.050000
-0.083711 0.147972 0.050000
-0.082851 0.164123 0.050000
-0.082027 0.180238 0.050000
-0.080797 0.195831 0.050000
-0.079910 0.211936 0.050000
-0.079022 0.228040 0.050000
-0.078135 0.244145 0.050000
-0.077248 0.260250 0.050000
-0.068659 0.275379 0.050000
-0.062555 0.289029 0.050000
-0.058853 0.302621 0.050000
-0.056691 0.316081 0.050000
-0.056034 0.329594 0.050000
-0.056452 0.343336 0.050000
-0.058198 0.357039 0.050000
-0.061273 0.371042 0.050000
-0.066024 0.385110 0.050000
-0.081607 -0.483959 0.050000
-0.076670 -0.470833 0.050000
-0.073791 -0.458583 0.050000
-0.072100 -0.446683 0.050000
-0.071205 -0.434999 0.050000
-0.070933 -0.423480 0.050000
-0.071206 -0.412106 0.050000
-0.071989 -0.400860 0.050000
-0.073287 -0.389727 0.050000
-0.075106 -0.378691 0.050000
-0.077499 -0.367721 0.050000
-0.080473 -0.356820 0.050000
-0.084256 -0.345879 0.050000
-0.088352 -0.334278 0.050000
-0.093419 -0.323500 0.050000
-0.099327 -0.311343 0.050000
-0.105979 -0.299077 0.050000
-0.113944 -0.285802 0.050000
-0.122632 -0.270315 0.050000
-0.121744 -0.254210 0.050000
-0.120857 -0.238106 0.050000
-0.119970 -0.222001 0.050000
-0.119083 -0.205896 0.050000
-0.118066 -0.190184 0.050000
-0.117237 -0.174073 0.050000
-0.116513 -0.157740 0.050000
-0.115800 -0.141598 0.050000
-0.114961 -0.125230 0.050000
-0.113872 -0.109298 0.050000
-0.113049 -0.093314 0.050000
-0.111985 -0.077060 0.050000
-0.111098 -0.060955 0.050000
-0.110210 -0.044851 0.050000
-0.109323 -0.028746 0.050000
-0.108436 -0.012641 0.050000
-0.107549 0.003463 0.050000
-0.106661 0.019568 0.050000
-0.105774 0.035672 0.050000
-0.104887 0.051777 0.050000
-0.104083 0.068165 0.050000
-0.103202 0.084171 0.050000
-0.102383 0.100385 0.050000
-0.101490 0.116475 0.050000
-0.100647 0.132673 0.050000
-0.099769 0.148826 0.050000
-0.098923 0.165016 0.050000
-0.098092 0.181124 0.050000
-0.096901 0.196718 0.050000
-0.096014 0.212823 0.050000
-0.095127 0.228928 0.050000
-0.094240 0.245032 0.050000
-0.093352 0.261137 0.050000
-0.085406 0.276278 0.050000
-0.079764 0.289993 0.050000
-0.076260 0.303456 0.050000
-0.074352 0.316867 0.050000
-0.073540 0.330324 0.050000
-0.073984 0.343762 0.050000
-0.075498 0.357441 0.050000
-0.078321 0.371173 0.050000
-0.082682 0.385191 0.050000
-0.099012 -0.484003 0.050000
-0.095037 -0.470950 0.050000
-0.092815 -0.458810 0.050000
-0.091607 -0.447024 0.050000
-0.091098 -0.435446 0.050000
-0.091152 -0.424020 0.050000
-0.091699 -0.412713 0.050000
-0.092717 -0.401502 0.050000
-0.094195 -0.390367 0.050000
-0.096156 -0.379281 0.050000
-0.098596 -0.368216 0.050000
-0.101607 -0.357085 0.050000
-0.104935 -0.345705 0.050000
-0.109056 -0.334733 0.050000
-0.113619 -0.322662 0.050000
-0.118725 -0.310865 0.050000
-0.124607 -0.298208 0.050000
-0.131396 -0.284853 0.050000
-0.138736 -0.269428 0.050000
-0.137849 -0.253323 0.050000
-0.136962 -0.237218 0.050000
-0.136074 -0.221114 0.050000
-0.135187 -0.205009 0.050000
-0.134110 -0.189326 0.050000
-0.133232 -0.173131 0.050000
-0.132527 -0.156953 0.050000
-0.131810 -0.140639 0.050000
-0.130986 -0.124496 0.050000
-0.130161 -0.108304 0.050000
-0.129141 -0.092198 0.050000
-0.128170 -0.076229 0.050000
-0.127202 -0.060068 0.050000
-0.126315 -0.043963 0.050000
-0.125428 -0.027859 0.050000
-0.124540 -0.011754 0.050000
-0.123653 0.004351 0.050000
-0.122766 0.020455 0.050000
-0.121879 0.036560 0.050000
-0.121037 0.052899 0.050000
-0.120158 0.068910 0.050000
-0.119329 0.085101 0.050000
-0.118442 0.101182 0.050000
-0.117588 0.117365 0.050000
-0.116702 0.133511 0.050000
-0.115842 0.149714 0.050000
-0.114976 0.165891 0.050000
-0.114152 0.182023 0.050000
-0.113006 0.197606 0.050000
-0.112119 0.213710 0.050000
-0.111232 0.229815 0.050000
-0.110344 0.245920 0.050000
-0.109457 0.262024 0.050000
-0.102173 0.277152 0.050000
-0.096980 0.290868 0.050000
-0.093856 0.304265 0.050000
-0.091978 0.317601 0.050000
-0.091334 0.330866 0.050000
-0.091598 0.344268 0.050000
-0.092987 0.357692 0.050000
-0.095486 0.371364 0.050000
-0.099402 0.385229 0.050000
-0.116456 -0.484036 0.050000
-0.113470 -0.471029 0.050000
-0.111914 -0.458960 0.050000
-0.111189 -0.447242 0.050000
-0.111058 -0.435723 0.050000
-0.111414 -0.424341 0.050000
-0.112209 -0.413057 0.050000
-0.113415 -0.401842 0.050000
-0.115034 -0.390668 0.050000
-0.117052 -0.379504 0.050000
-0.119505 -0.368300 0.050000
-0.122283 -0.357000 0.050000
-0.125661 -0.345814 0.050000
-0.129269 -0.333908 0.050000
-0.133367 -0.322360 0.050000
-0.137937 -0.310000 0.050000
-0.142934 -0.297334 0.050000
-0.148727 -0.283915 0.050000
-0.154841 -0.268540 0.050000
-0.153954 -0.252436 0.050000
-0.153066 -0.236331 0.050000
-0.152179 -0.220227 0.050000
-0.151292 -0.204122 0.050000
-0.150158 -0.188399 0.050000
-0.149275 -0.172302 0.050000
-0.148546 -0.156069 0.050000
-0.147818 -0.139888 0.050000
-0.147071 -0.123657 0.050000
-0.146200 -0.107503 0.050000
-0.145331 -0.091402 0.050000
-0.144339 -0.075311 0.050000
-0.143307 -0.059181 0.050000
-0.142420 -0.043076 0.050000
-0.141532 -0.026971 0.050000
-0.140645 -0.010867 0.050000
-0.139758 0.005238 0.050000
-0.138871 0.021342 0.050000
-0.138012 0.037625 0.050000
-0.137107 0.053657 0.050000
-0.136274 0.069829 0.050000
-0.135394 0.085901 0.050000
-0.134535 0.102062 0.050000
-0.133649 0.118193 0.050000
-0.132774 0.134385 0.050000
-0.131892 0.150573 0.050000
-0.131033 0.166779 0.050000
-0.130203 0.182909 0.050000
-0.129111 0.198493 0.050000
-0.128223 0.214598 0.050000
-0.127336 0.230702 0.050000
-0.126449 0.246807 0.050000
-0.125562 0.262911 0.050000
-0.118944 0.278113 0.050000
-0.114337 0.291673 0.050000
-0.111435 0.305077 0.050000
-0.109872 0.318239 0.050000
-0.109145 0.331456 0.050000
-0.109442 0.344641 0.050000
-0.110578 0.358002 0.050000
-0.112774 0.371491 0.050000
-0.116190 0.385290 0.050000
-0.133918 -0.484058 0.050000
-0.131937 -0.471075 0.050000
-0.131042 -0.459044 0.050000
-0.130795 -0.447359 0.050000
-0.131028 -0.435863 0.050000
-0.131671 -0.424490 0.050000
-0.132681 -0.413197 0.050000
-0.134047 -0.401950 0.050000
-0.135748 -0.390717 0.050000
-0.137800 -0.379467 0.050000
-0.140150 -0.368165 0.050000
-0.142934 -0.356846 0.050000
-0.145883 -0.345119 0.050000
-0.149271 -0.333648 0.050000
-0.152921 -0.321459 0.050000
-0.156842 -0.309226 0.050000
-0.161119 -0.296413 0.050000
-0.165971 -0.282921 0.050000
-0.170945 -0.267653 0.050000
-0.170058 -0.251549 0.050000
-0.169171 -0.235444 0.050000
-0.168284 -0.219339 0.050000
-0.167397 -0.203235 0.050000
-0.166244 -0.187527 0.050000
-0.165349 -0.171419 0.050000
-0.164595 -0.155280 0.050000
-0.163874 -0.139079 0.050000
-0.163092 -0.122902 0.050000
-0.162296 -0.106724 0.050000
-0.161411 -0.090574 0.050000
-0.160464 -0.074458 0.050000
-0.159412 -0.058293 0.050000
-0.158524 -0.042189 0.050000
-0.157637 -0.026084 0.050000
-0.156750 -0.009980 0.050000
-0.155863 0.006125 0.050000
-0.154975 0.022230 0.050000
-0.154084 0.038444 0.050000
-0.153212 0.054587 0.050000
-0.152345 0.070648 0.050000
-0.151486 0.086786 0.050000
-0.150604 0.102898 0.050000
-0.149723 0.119067 0.050000
-0.148832 0.135240 0.050000
-0.147947 0.151447 0.050000
-0.147078 0.167656 0.050000
-0.146251 0.183804 0.050000
-0.145215 0.199380 0.050000
-0.144328 0.215485 0.050000
-0.143441 0.231589 0.050000
-0.142554 0.247694 0.050000
-0.141666 0.263799 0.050000
-0.135841 0.278893 0.050000
-0.131670 0.292625 0.050000
-0.129279 0.305766 0.050000
-0.127743 0.318935 0.050000
-0.127229 0.331949 0.050000
-0.127351 0.345063 0.050000
-0.128344 0.358244 0.050000
-0.130155 0.371647 0.050000
-0.133043 0.385333 0.050000
-0.151382 -0.484072 0.050000
-0.150408 -0.471093 0.050000
-0.150166 -0.459074 0.050000
-0.150388 -0.447395 0.050000
-0.150975 -0.435897 0.050000
-0.151882 -0.424509 0.050000
-0.153088 -0.413186 0.050000
-0.154574 -0.401891 0.050000
-0.156343 -0.390595 0.050000
-0.158364 -0.379264 0.050000
-0.160698 -0.367883 0.050000
-0.163185 -0.356283 0.050000
-0.166031 -0.344798 0.050000
-0.169011 -0.332752 0.050000
-0.172218 -0.320791 0.050000
-0.175599 -0.308301 0.050000
-0.179195 -0.295446 0.050000
-0.183132 -0.282035 0.050000
-0.187050 -0.266766 0.050000
-0.186163 -0.250661 0.050000
-0.185275 -0.234557 0.050000
-0.184388 -0.218452 0.050000
-0.183501 -0.202348 0.050000
-0.182361 -0.186630 0.050000
-0.181464 -0.170583 0.050000
-0.180698 -0.154464 0.050000
-0.179923 -0.138318 0.050000
-0.179150 -0.122131 0.050000
-0.178320 -0.105942 0.050000
-0.177471 -0.089755 0.050000
-0.176512 -0.073577 0.050000
-0.175516 -0.057406 0.050000
-0.174629 -0.041302 0.050000
-0.173742 -0.025197 0.050000
-0.172854 -0.009092 0.050000
-0.171967 0.007012 0.050000
-0.171080 0.023117 0.050000
-0.170156 0.039350 0.050000
-0.169300 0.055439 0.050000
-0.168432 0.071554 0.050000
-0.167560 0.087648 0.050000
-0.166679 0.103794 0.050000
-0.165788 0.119944 0.050000
-0.164892 0.136133 0.050000
-0.164006 0.152336 0.050000
-0.163120 0.168538 0.050000
-0.162292 0.184699 0.050000
-0.161320 0.200267 0.050000
-0.160433 0.216372 0.050000
-0.159545 0.232477 0.050000
-0.158658 0.248581 0.050000
-0.157771 0.264686 0.050000
-0.152678 0.279991 0.050000
-0.149297 0.293307 0.050000
-0.147042 0.306622 0.050000
-0.145950 0.319521 0.050000
-0.145326 0.332481 0.050000
-0.145491 0.345428 0.050000
-0.146201 0.358508 0.050000
-0.147660 0.371775 0.050000
-0.149956 0.385382 0.050000
-0.168833 -0.484077 0.050000
-0.168861 -0.471090 0.050000
-0.169264 -0.459064 0.050000
-0.169945 -0.447372 0.050000
-0.170872 -0.435854 0.050000
-0.172030 -0.424437 0.050000
-0.173406 -0.413071 0.050000
-0.174999 -0.401723 0.050000
-0.176791 -0.390356 0.050000
-0.178806 -0.378946 0.050000
-0.180960 -0.367412 0.050000
-0.183381 -0.355890 0.050000
-0.185875 -0.343979 0.050000
-0.188573 -0.332164 0.050000
-0.191350 -0.319858 0.050000
-0.194241 -0.307400 0.050000
-0.197134 -0.294548 0.050000
-0.200300 -0.280959 0.050000
-0.203155 -0.265879 0.050000
-0.202267 -0.249774 0.050000
-0.201380 -0.233670 0.050000
-0.200493 -0.217565 0.050000
-0.199606 -0.201460 0.050000
-0.198524 -0.185736 0.050000
-0.197650 -0.169747 0.050000
-0.196815 -0.153671 0.050000
-0.196009 -0.137533 0.050000
-0.195174 -0.121355 0.050000
-0.194338 -0.105140 0.050000
-0.193463 -0.088921 0.050000
-0.192523 -0.072702 0.050000
-0.191621 -0.056519 0.050000
-0.190733 -0.040414 0.050000
-0.189846 -0.024310 0.050000
-0.188959 -0.008205 0.050000
-0.188072 0.007899 0.050000
-0.187184 0.024004 0.050000
-0.186245 0.040238 0.050000
-0.185371 0.056367 0.050000
-0.184512 0.072458 0.050000
-0.183628 0.088590 0.050000
-0.182742 0.104728 0.050000
-0.181851 0.120899 0.050000
-0.180958 0.137079 0.050000
-0.180059 0.153276 0.050000
-0.179203 0.169484 0.050000
-0.178335 0.185575 0.050000
-0.177425 0.201155 0.050000
-0.176537 0.217259 0.050000
-0.175650 0.233364 0.050000
-0.174763 0.249469 0.050000
-0.173875 0.265573 0.050000
-0.169795 0.280575 0.050000
-0.166754 0.294395 0.050000
-0.165260 0.307226 0.050000
-0.164074 0.320174 0.050000
-0.163733 0.332962 0.050000
-0.163697 0.345786 0.050000
-0.164231 0.358739 0.050000
-0.165250 0.371903 0.050000
-0.166937 0.385424 0.050000
-0.186264 -0.484075 0.050000
-0.187282 -0.471070 0.050000
-0.188322 -0.459023 0.050000
-0.189453 -0.447308 0.050000
-0.190709 -0.435760 0.050000
-0.192101 -0.424305 0.050000
-0.193635 -0.412895 0.050000
-0.195304 -0.401487 0.050000
-0.197120 -0.390055 0.050000
-0.199043 -0.378546 0.050000
-0.201142 -0.367000 0.050000
-0.203285 -0.355198 0.050000
-0.205596 -0.343444 0.050000
-0.207934 -0.331265 0.050000
-0.210355 -0.319060 0.050000
-0.212694 -0.306465 0.050000
-0.215119 -0.293484 0.050000
-0.217372 -0.280197 0.050000
-0.219259 -0.264992 0.050000
-0.218372 -0.248887 0.050000
-0.217485 -0.232782 0.050000
-0.216598 -0.216678 0.050000
-0.215710 -0.200573 0.050000
-0.214803 -0.184911 0.050000
-0.213839 -0.168914 0.050000
-0.212969 -0.152837 0.050000
-0.212088 -0.136698 0.050000
-0.211213 -0.120508 0.050000
-0.210330 -0.104289 0.050000
-0.209453 -0.088047 0.050000
-0.208513 -0.071839 0.050000
-0.207725 -0.055632 0.050000
-0.206838 -0.039527 0.050000
-0.205951 -0.023423 0.050000
-0.205064 -0.007318 0.050000
-0.204176 0.008787 0.050000
-0.203289 0.024891 0.050000
-0.202269 0.041226 0.050000
-0.201450 0.057356 0.050000
-0.200561 0.073502 0.050000
-0.199678 0.089651 0.050000
-0.198793 0.105820 0.050000
-0.197900 0.121998 0.050000
-0.197016 0.138193 0.050000
-0.196134 0.154385 0.050000
-0.195254 0.170556 0.050000
-0.194532 0.186680 0.050000
-0.193529 0.202042 0.050000
-0.192642 0.218147 0.050000
-0.191755 0.234251 0.050000
-0.190867 0.250356 0.050000
-0.189980 0.266460 0.050000
-0.186721 0.281987 0.050000
-0.184839 0.294853 0.050000
-0.183198 0.308055 0.050000
-0.182671 0.320740 0.050000
-0.182152 0.333373 0.050000
-0.182128 0.346104 0.050000
-0.182344 0.358935 0.050000
-0.182952 0.372010 0.050000
-0.183971 0.385457 0.050000
-0.203667 -0.484069 0.050000
-0.205660 -0.471040 0.050000
-0.207332 -0.458965 0.050000
-0.208907 -0.447220 0.050000
-0.210482 -0.435639 0.050000
-0.212098 -0.424147 0.050000
-0.213769 -0.412690 0.050000
-0.215508 -0.401233 0.050000
-0.217300 -0.389730 0.050000
-0.219182 -0.378179 0.050000
-0.221079 -0.366458 0.050000
-0.223086 -0.354726 0.050000
-0.225084 -0.342655 0.050000
-0.227147 -0.330583 0.050000
-0.229145 -0.318115 0.050000
-0.231192 -0.305513 0.050000
-0.232859 -0.292656 0.050000
-0.234556 -0.278915 0.050000
-0.235364 -0.264104 0.050000
-0.234477 -0.248000 0.050000
-0.233589 -0.231895 0.050000
-0.232702 -0.215791 0.050000
-0.231815 -0.199686 0.050000
-0.230928 -0.183581 0.050000
-0.230041 -0.167477 0.050000
-0.229153 -0.151372 0.050000
-0.228266 -0.135267 0.050000
-0.227379 -0.119163 0.050000
-0.226492 -0.103058 0.050000
-0.225604 -0.086954 0.050000
-0.224717 -0.070849 0.050000
-0.223830 -0.054744 0.050000
-0.222943 -0.038640 0.050000
-0.222056 -0.022535 0.050000
-0.221168 -0.006431 0.050000
-0.220281 0.009674 0.050000
-0.219394 0.025779 0.050000
-0.218507 0.041883 0.050000
-0.217619 0.057988 0.050000
-0.216732 0.074092 0.050000
-0.215845 0.090197 0.050000
-0.214957 0.106302 0.050000
-0.214070 0.122406 0.050000
-0.213183 0.138511 0.050000
-0.212296 0.154616 0.050000
-0.211408 0.170720 0.050000
-0.210521 0.186825 0.050000
-0.209634 0.202929 0.050000
-0.208747 0.219034 0.050000
-0.207859 0.235138 0.050000
-0.206972 0.251243 0.050000
-0.206085 0.267348 0.050000
-0.204307 0.282014 0.050000
-0.202354 0.296080 0.050000
-0.201970 0.308595 0.050000
-0.201132 0.321135 0.050000
-0.200889 0.333755 0.050000
-0.200635 0.346302 0.050000
-0.200598 0.359066 0.050000
-0.200708 0.372062 0.050000
-0.201049 0.385479 0.050000
-0.221043 -0.484058 0.050000
-0.223993 -0.471005 0.050000
-0.226295 -0.458898 0.050000
-0.228311 -0.447124 0.050000
-0.230200 -0.435514 0.050000
-0.232027 -0.423988 0.050000
-0.233828 -0.412497 0.050000
-0.235607 -0.400993 0.050000
-0.237389 -0.389452 0.050000
-0.239138 -0.377798 0.050000
-0.240918 -0.366093 0.050000
-0.242648 -0.354123 0.050000
-0.244415 -0.342120 0.050000
-0.246131 -0.329751 0.050000
-0.247863 -0.317340 0.050000
-0.249315 -0.304522 0.050000
-0.250908 -0.291425 0.050000
-0.251603 -0.278461 0.050000
-0.251468 -0.263217 0.050000
-0.250581 -0.247112 0.050000
-0.249694 -0.231008 0.050000
-0.248807 -0.214903 0.050000
-0.247920 -0.198799 0.050000
-0.247032 -0.182694 0.050000
-0.246145 -0.166589 0.050000
-0.245258 -0.150485 0.050000
-0.244371 -0.134380 0.050000
-0.243483 -0.118276 0.050000
-0.242596 -0.102171 0.050000
-0.241709 -0.086066 0.050000
-0.240822 -0.069962 0.050000
-0.239935 -0.053857 0.050000
-0.239047 -0.037753 0.050000
-0.238160 -0.021648 0.050000
-0.237273 -0.005543 0.050000
-0.236386 0.010561 0.050000
-0.235498 0.026666 0.050000
-0.234611 0.042770 0.050000
-0.233724 0.058875 0.050000
-0.232837 0.074980 0.050000
-0.231949 0.091084 0.050000
-0.231062 0.107189 0.050000
-0.230175 0.123293 0.050000
-0.229288 0.139398 0.050000
-0.228400 0.155503 0.050000
-0.227513 0.171607 0.050000
-0.226626 0.187712 0.050000
-0.225738 0.203816 0.050000
-0.224851 0.219921 0.050000
-0.223964 0.236026 0.050000
-0.223077 0.252130 0.050000
-0.222189 0.268235 0.050000
-0.221496 0.284299 0.050000
-0.221340 0.296152 0.050000
-0.220128 0.308952 0.050000
-0.220155 0.321621 0.050000
-0.219732 0.333830 0.050000
-0.219331 0.346337 0.050000
-0.218875 0.359017 0.050000
-0.218488 0.372042 0.050000
-0.218122 0.385465 0.050000
-0.238392 -0.484046 0.050000
-0.242284 -0.470968 0.050000
-0.245218 -0.458832 0.050000
-0.247675 -0.447033 0.050000
-0.249874 -0.435400 0.050000
-0.251912 -0.423855 0.050000
-0.253827 -0.412340 0.050000
-0.255650 -0.400818 0.050000
-0.257369 -0.389230 0.050000
-0.259023 -0.377583 0.050000
-0.260566 -0.365736 0.050000
-0.262069 -0.353812 0.050000
-0.263486 -0.341541 0.050000
-0.264911 -0.329173 0.050000
-0.266248 -0.316390 0.050000
-0.267655 -0.303689 0.050000
-0.268233 -0.290597 0.050000
-0.269062 -0.276479 0.050000
-0.267573 -0.262330 0.050000
-0.266686 -0.246225 0.050000
-0.265799 -0.230121 0.050000
-0.264911 -0.214016 0.050000
-0.264024 -0.197911 0.050000
-0.263137 -0.181807 0.050000
-0.262250 -0.165702 0.050000
-0.261363 -0.149598 0.050000
-0.260475 -0.133493 0.050000
-0.259588 -0.117388 0.050000
-0.258701 -0.101284 0.050000
-0.257814 -0.085179 0.050000
-0.256926 -0.069075 0.050000
-0.256039 -0.052970 0.050000
-0.255152 -0.036865 0.050000
-0.254265 -0.020761 0.050000
-0.253377 -0.004656 0.050000
-0.252490 0.011448 0.050000
-0.251603 0.027553 0.050000
-0.250716 0.043658 0.050000
-0.249828 0.059762 0.050000
-0.248941 0.075867 0.050000
-0.248054 0.091972 0.050000
-0.247167 0.108076 0.050000
-0.246279 0.124181 0.050000
-0.245392 0.140285 0.050000
-0.244505 0.156390 0.050000
-0.243618 0.172495 0.050000
-0.242730 0.188599 0.050000
-0.241843 0.204704 0.050000
-0.240956 0.220808 0.050000
-0.240068 0.236913 0.050000
-0.239181 0.253018 0.050000
-0.238294 0.269122 0.050000
-0.240341 0.282446 0.050000
-0.238472 0.297115 0.050000
-0.239757 0.309825 0.050000
-0.239492 0.321264 0.050000
-0.238862 0.333497 0.050000
-0.237984 0.345921 0.050000
-0.237105 0.358764 0.050000
-0.236172 0.371887 0.050000
-0.235143 0.385428 0.050000
-0.255718 -0.484034 0.050000
-0.260537 -0.470933 0.050000
-0.264111 -0.458772 0.050000
-0.267014 -0.446956 0.050000
-0.269528 -0.435314 0.050000
-0.271773 -0.423762 0.050000
-0.273810 -0.412249 0.050000
-0.275653 -0.400721 0.050000
-0.277331 -0.389159 0.050000
-0.278819 -0.377465 0.050000
-0.280157 -0.365690 0.050000
-0.281312 -0.353622 0.050000
-0.282353 -0.341400 0.050000
-0.283284 -0.328689 0.050000
-0.284311 -0.315792 0.050000
-0.285266 -0.302235 0.050000
-0.286741 -0.289363 0.050000
-0.286199 -0.277232 0.050000
-0.283678 -0.261443 0.050000
-0.282790 -0.245338 0.050000
-0.281903 -0.229233 0.050000
-0.281016 -0.213129 0.050000
-0.280129 -0.197024 0.050000
-0.279242 -0.180920 0.050000
-0.278354 -0.164815 0.050000
-0.277467 -0.148710 0.050000
-0.276580 -0.132606 0.050000
-0.275693 -0.116501 0.050000
-0.274805 -0.100397 0.050000
-0.273918 -0.084292 0.050000
-0.273031 -0.068187 0.050000
-0.272144 -0.052083 0.050000
-0.271257 -0.035978 0.050000
-0.270369 -0.019874 0.050000
-0.269482 -0.003769 0.050000
-0.268595 0.012336 0.050000
-0.267708 0.028440 0.050000
-0.266820 0.044545 0.050000
-0.265933 0.060650 0.050000
-0.265046 0.076754 0.050000
-0.264159 0.092859 0.050000
-0.263271 0.108963 0.050000
-0.262384 0.125068 0.050000
-0.261497 0.141173 0.050000
-0.260609 0.157277 0.050000
-0.259722 0.173382 0.050000
-0.258835 0.189486 0.050000
-0.257948 0.205591 0.050000
-0.257060 0.221696 0.050000
-0.256173 0.237800 0.050000
-0.255286 0.253905 0.050000
-0.254399 0.270010 0.050000
-0.257822 0.288657 0.050000
-0.260355 0.298179 0.050000
-0.260116 0.307663 0.050000
-0.259110 0.319808 0.050000
-0.257720 0.332166 0.050000
-0.256409 0.345110 0.050000
-0.255056 0.358224 0.050000
-0.253666 0.371644 0.050000
-0.252041 0.385345 0.050000
-0.273026 -0.484022 0.050000
-0.278762 -0.470902 0.050000
-0.282987 -0.458724 0.050000
-0.286349 -0.446899 0.050000
-0.289186 -0.435258 0.050000
-0.291651 -0.423720 0.050000
-0.293809 -0.412226 0.050000
-0.295696 -0.400742 0.050000
-0.297310 -0.389198 0.050000
-0.298669 -0.377606 0.050000
-0.299745 -0.365818 0.050000
-0.300561 -0.353914 0.050000
-0.301099 -0.341617 0.050000
-0.301413 -0.329034 0.050000
-0.301603 -0.315601 0.050000
-0.302110 -0.301782 0.050000
-0.302814 -0.286053 0.050000
-0.305469 -0.271100 0.050000
-0.299782 -0.260555 0.050000
-0.298895 -0.244451 0.050000
-0.298008 -0.228346 0.050000
-0.297121 -0.212242 0.050000
-0.296233 -0.196137 0.050000
-0.295346 -0.180032 0.050000
-0.294459 -0.163928 0.050000
-0.293572 -0.147823 0.050000
-0.292684 -0.131719 0.050000
-0.291797 -0.115614 0.050000
-0.290910 -0.099509 0.050000
-0.290023 -0.083405 0.050000
-0.289136 -0.067300 0.050000
-0.288248 -0.051195 0.050000
-0.287361 -0.035091 0.050000
-0.286474 -0.018986 0.050000
-0.285587 -0.002882 0.050000
-0.284699 0.013223 0.050000
-0.283812 0.029328 0.050000
-0.282925 0.045432 0.050000
-0.282038 0.061537 0.050000
-0.281150 0.077641 0.050000
-0.280263 0.093746 0.050000
-0.279376 0.109851 0.050000
-0.278489 0.125955 0.050000
-0.277601 0.142060 0.050000
-0.276714 0.158165 0.050000
-0.275827 0.174269 0.050000
-0.274939 0.190374 0.050000
-0.274052 0.206478 0.050000
-0.273165 0.222583 0.050000
-0.272278 0.238687 0.050000
-0.271390 0.254792 0.050000
-0.270503 0.270897 0.050000
-0.278895 0.276780 0.050000
-0.280351 0.288375 0.050000
-0.279577 0.303129 0.050000
-0.277448 0.316528 0.050000
-0.275855 0.330390 0.050000
-0.274210 0.343916 0.050000
-0.272616 0.357595 0.050000
-0.270862 0.371310 0.050000
-0.268776 0.385263 0.050000
-0.290321 -0.484009 0.050000
-0.296970 -0.470877 0.050000
-0.301863 -0.458685 0.050000
-0.305698 -0.446860 0.050000
-0.308877 -0.435233 0.050000
-0.311577 -0.423721 0.050000
-0.313882 -0.412276 0.050000
-0.315822 -0.400840 0.050000
-0.317416 -0.389405 0.050000
-0.318650 -0.377874 0.050000
-0.319523 -0.366296 0.050000
-0.320007 -0.354481 0.050000
-0.320083 -0.342526 0.050000
-0.319732 -0.330096 0.050000
-0.318875 -0.317254 0.050000
-0.317872 -0.302788 0.050000
-0.316611 -0.286833 0.050000
-0.318397 -0.265639 0.050000
-0.316349 -0.248435 0.050000
-0.315606 -0.234653 0.050000
-0.315023 -0.221073 0.050000
-0.314310 -0.207048 0.050000
-0.313622 -0.192714 0.050000
-0.312895 -0.178125 0.050000
-0.312166 -0.163342 0.050000
-0.311422 -0.148412 0.050000
-0.310674 -0.133381 0.050000
-0.309916 -0.118287 0.050000
-0.309163 -0.103177 0.050000
-0.308402 -0.088083 0.050000
-0.307655 -0.073049 0.050000
-0.306893 -0.058103 0.050000
-0.306163 -0.043303 0.050000
-0.305410 -0.028668 0.050000
-0.304698 -0.014278 0.050000
-0.303993 -0.000125 0.050000
-0.303228 0.013662 0.050000
-0.302606 0.027291 0.050000
-0.297647 0.047330 0.050000
-0.296818 0.067153 0.050000
-0.296356 0.085746 0.050000
-0.295387 0.103890 0.050000
-0.294845 0.121440 0.050000
-0.293055 0.139576 0.050000
-0.292474 0.158111 0.050000
-0.295498 0.171995 0.050000
-0.294807 0.183809 0.050000
-0.294213 0.195441 0.050000
-0.293716 0.206903 0.050000
-0.293089 0.218285 0.050000
-0.292664 0.229419 0.050000
-0.291985 0.241216 0.050000
-0.289346 0.255994 0.050000
-0.293250 0.278537 0.050000
-0.294793 0.297053 0.050000
-0.294116 0.313976 0.050000
-0.292814 0.328538 0.050000
-0.291372 0.342924 0.050000
-0.289703 0.356942 0.050000
-0.287754 0.371028 0.050000
-0.285333 0.385160 0.050000
-0.307607 -0.483996 0.050000
-0.315172 -0.470854 0.050000
-0.320749 -0.458653 0.050000
-0.325082 -0.446831 0.050000
-0.328626 -0.435225 0.050000
-0.331588 -0.423754 0.050000
-0.334063 -0.412359 0.050000
-0.336100 -0.401015 0.050000
-0.337706 -0.389659 0.050000
-0.338884 -0.378312 0.050000
-0.339619 -0.366854 0.050000
-0.339886 -0.355379 0.050000
-0.339658 -0.343687 0.050000
-0.338870 -0.331931 0.050000
-0.337511 -0.319830 0.050000
-0.335349 -0.307809 0.050000
-0.333353 -0.295159 0.050000
-0.331775 -0.284901 0.050000
-0.335400 -0.274469 0.050000
-0.334647 -0.258358 0.050000
-0.333893 -0.242246 0.050000
-0.333139 -0.226135 0.050000
-0.332386 -0.210024 0.050000
-0.331632 -0.193912 0.050000
-0.330878 -0.177801 0.050000
-0.330125 -0.161689 0.050000
-0.329371 -0.145578 0.050000
-0.328617 -0.129466 0.050000
-0.327864 -0.113355 0.050000
-0.327110 -0.097244 0.050000
-0.326356 -0.081132 0.050000
-0.325603 -0.065021 0.050000
-0.324849 -0.048909 0.050000
-0.324095 -0.032798 0.050000
-0.323342 -0.016686 0.050000
-0.322588 -0.000575 0.050000
-0.321835 0.015536 0.050000
-0.321081 0.031648 0.050000
-0.311202 0.044527 0.050000
-0.311532 0.063024 0.050000
-0.310862 0.081636 0.050000
-0.311016 0.099508 0.050000
-0.310097 0.117221 0.050000
-0.309323 0.134134 0.050000
-0.308631 0.149523 0.050000
-0.315052 0.160535 0.050000
-0.314298 0.176646 0.050000
-0.313544 0.192758 0.050000
-0.312791 0.208869 0.050000
-0.312037 0.224980 0.050000
-0.311283 0.241092 0.050000
-0.310529 0.257203 0.050000
-0.303390 0.264967 0.050000
-0.306628 0.280673 0.050000
-0.308536 0.297380 0.050000
-0.309711 0.312604 0.050000
-0.309092 0.327806 0.050000
-0.308040 0.342202 0.050000
-0.306436 0.356569 0.050000
-0.304394 0.370788 0.050000
-0.301736 0.385110 0.050000
-0.324888 -0.483982 0.050000
-0.333373 -0.470831 0.050000
-0.339659 -0.458619 0.050000
-0.344515 -0.446804 0.050000
-0.348450 -0.435220 0.050000
-0.351701 -0.423785 0.050000
-0.354386 -0.412454 0.050000
-0.356553 -0.401177 0.050000
-0.358227 -0.389949 0.050000
-0.359412 -0.378695 0.050000
-0.360097 -0.367479 0.050000
-0.360281 -0.356158 0.050000
-0.359944 -0.344893 0.050000
-0.359096 -0.333512 0.050000
-0.357761 -0.322318 0.050000
-0.356146 -0.311112 0.050000
-0.354643 -0.300897 0.050000
-0.354619 -0.289440 0.050000
-0.351512 -0.273715 0.050000
-0.350758 -0.257604 0.050000
-0.350004 -0.241493 0.050000
-0.349251 -0.225381 0.050000
-0.348497 -0.209270 0.050000
-0.347743 -0.193158 0.050000
-0.346989 -0.177047 0.050000
-0.346236 -0.160936 0.050000
-0.345482 -0.144824 0.050000
-0.344728 -0.128713 0.050000
-0.343975 -0.112601 0.050000
-0.343221 -0.096490 0.050000
-0.342468 -0.080379 0.050000
-0.341714 -0.064267 0.050000
-0.340960 -0.048156 0.050000
-0.340207 -0.032044 0.050000
-0.339453 -0.015933 0.050000
-0.338699 0.000179 0.050000
-0.337946 0.016290 0.050000
-0.337192 0.032401 0.050000
-0.329217 0.048625 0.050000
-0.326090 0.063067 0.050000
-0.326609 0.080196 0.050000
-0.326082 0.097454 0.050000
-0.326401 0.114315 0.050000
-0.326139 0.130211 0.050000
-0.328406 0.143916 0.050000
-0.331163 0.161289 0.050000
-0.330409 0.177400 0.050000
-0.329656 0.193511 0.050000
-0.328902 0.209623 0.050000
-0.328148 0.225734 0.050000
-0.327394 0.241846 0.050000
-0.326640 0.257957 0.050000
-0.323715 0.275144 0.050000
-0.323385 0.286406 0.050000
-0.324874 0.298984 0.050000
-0.325370 0.313431 0.050000
-0.325460 0.327715 0.050000
-0.324499 0.342147 0.050000
-0.323032 0.356394 0.050000
-0.320881 0.370722 0.050000
-0.318057 0.385058 0.050000
-0.342165 -0.483968 0.050000
-0.351583 -0.470802 0.050000
-0.358599 -0.458582 0.050000
-0.364004 -0.446763 0.050000
-0.368358 -0.435193 0.050000
-0.371930 -0.423792 0.050000
-0.374852 -0.412502 0.050000
-0.377189 -0.401300 0.050000
-0.378972 -0.390129 0.050000
-0.380208 -0.379016 0.050000
-0.380914 -0.367855 0.050000
-0.381081 -0.356763 0.050000
-0.380735 -0.345561 0.050000
-0.379906 -0.334445 0.050000
-0.378669 -0.323174 0.050000
-0.377086 -0.311989 0.050000
-0.375529 -0.299936 0.050000
-0.371628 -0.287015 0.050000
-0.367623 -0.272962 0.050000
-0.366870 -0.256850 0.050000
-0.366116 -0.240739 0.050000
-0.365362 -0.224628 0.050000
-0.364608 -0.208516 0.050000
-0.363855 -0.192405 0.050000
-0.363101 -0.176293 0.050000
-0.362347 -0.160182 0.050000
-0.361594 -0.144071 0.050000
-0.360840 -0.127959 0.050000
-0.360086 -0.111848 0.050000
-0.359333 -0.095736 0.050000
-0.358579 -0.079625 0.050000
-0.357825 -0.063513 0.050000
-0.357072 -0.047402 0.050000
-0.356318 -0.031291 0.050000
-0.355565 -0.015179 0.050000
-0.354811 0.000932 0.050000
-0.354057 0.017044 0.050000
-0.353304 0.033155 0.050000
-0.346661 0.048725 0.050000
-0.343579 0.064858 0.050000
-0.342161 0.080421 0.050000
-0.342558 0.096913 0.050000
-0.342417 0.113268 0.050000
-0.344117 0.129048 0.050000
-0.345009 0.146514 0.050000
-0.347275 0.162043 0.050000
-0.346521 0.178154 0.050000
-0.345767 0.194265 0.050000
-0.345013 0.210377 0.050000
-0.344260 0.226488 0.050000
-0.343506 0.242599 0.050000
-0.342752 0.258711 0.050000
-0.340966 0.272589 0.050000
-0.342431 0.287458 0.050000
-0.341963 0.301126 0.050000
-0.342351 0.314471 0.050000
-0.341994 0.328407 0.050000
-0.341208 0.342384 0.050000
-0.339603 0.356536 0.050000
-0.337380 0.370731 0.050000
-0.334345 0.385073 0.050000
-0.359435 -0.483959 0.050000
-0.369802 -0.470779 0.050000
-0.377566 -0.458526 0.050000
-0.383550 -0.446695 0.050000
-0.388349 -0.435129 0.050000
-0.392265 -0.423741 0.050000
-0.395450 -0.412484 0.050000
-0.397980 -0.401306 0.050000
-0.399889 -0.390202 0.050000
-0.401207 -0.379095 0.050000
-0.401928 -0.368050 0.050000
-0.402082 -0.356900 0.050000
-0.401672 -0.345809 0.050000
-0.400712 -0.334519 0.050000
-0.399203 -0.323194 0.050000
-0.397184 -0.311457 0.050000
-0.394044 -0.299477 0.050000
-0.390047 -0.287073 0.050000
-0.383735 -0.272208 0.050000
-0.382981 -0.256097 0.050000
-0.382227 -0.239985 0.050000
-0.381473 -0.223874 0.050000
-0.380720 -0.207762 0.050000
-0.379966 -0.191651 0.050000
-0.379212 -0.175540 0.050000
-0.378459 -0.159428 0.050000
-0.377705 -0.143317 0.050000
-0.376951 -0.127205 0.050000
-0.376198 -0.111094 0.050000
-0.375444 -0.094983 0.050000
-0.374690 -0.078871 0.050000
-0.373937 -0.062760 0.050000
-0.373183 -0.046648 0.050000
-0.372430 -0.030537 0.050000
-0.371676 -0.014426 0.050000
-0.370922 0.001686 0.050000
-0.370169 0.017797 0.050000
-0.369415 0.033909 0.050000
-0.363650 0.050036 0.050000
-0.360454 0.065414 0.050000
-0.359320 0.081436 0.050000
-0.358694 0.097333 0.050000
-0.359563 0.113412 0.050000
-0.359984 0.130294 0.050000
-0.361453 0.146203 0.050000
-0.363386 0.162796 0.050000
-0.362632 0.178908 0.050000
-0.361878 0.195019 0.050000
-0.361125 0.211131 0.050000
-0.360371 0.227242 0.050000
-0.359617 0.243353 0.050000
-0.358863 0.259465 0.050000
-0.358899 0.275363 0.050000
-0.359037 0.288293 0.050000
-0.359855 0.301985 0.050000
-0.359546 0.315599 0.050000
-0.359184 0.329122 0.050000
-0.358073 0.342895 0.050000
-0.356406 0.356779 0.050000
-0.353934 0.370860 0.050000
-0.350694 0.385082 0.050000
-0.376704 -0.483988 0.050000
-0.388016 -0.470742 0.050000
-0.396558 -0.458448 0.050000
-0.403146 -0.446593 0.050000
-0.408411 -0.435012 0.050000
-0.412690 -0.423624 0.050000
-0.416152 -0.412364 0.050000
-0.418882 -0.401204 0.050000
-0.420930 -0.390085 0.050000
-0.422304 -0.379025 0.050000
-0.423038 -0.367902 0.050000
-0.423112 -0.356835 0.050000
-0.422543 -0.345576 0.050000
-0.421320 -0.334316 0.050000
-0.419416 -0.322767 0.050000
-0.416656 -0.311052 0.050000
-0.413049 -0.298902 0.050000
-0.407351 -0.285969 0.050000
-0.399846 -0.271454 0.050000
-0.399092 -0.255343 0.050000
-0.398339 -0.239232 0.050000
-0.397585 -0.223120 0.050000
-0.396831 -0.207009 0.050000
-0.396078 -0.190897 0.050000
-0.395324 -0.174786 0.050000
-0.394570 -0.158675 0.050000
-0.393816 -0.142563 0.050000
-0.393063 -0.126452 0.050000
-0.392309 -0.110340 0.050000
-0.391556 -0.094229 0.050000
-0.390802 -0.078118 0.050000
-0.390048 -0.062006 0.050000
-0.389295 -0.045895 0.050000
-0.388541 -0.029783 0.050000
-0.387787 -0.013672 0.050000
-0.387034 0.002439 0.050000
-0.386280 0.018551 0.050000
-0.385527 0.034662 0.050000
-0.380500 0.050664 0.050000
-0.377603 0.066605 0.050000
-0.376010 0.082251 0.050000
-0.375792 0.098195 0.050000
-0.375696 0.114530 0.050000
-0.376576 0.130614 0.050000
-0.377589 0.147529 0.050000
-0.379498 0.163550 0.050000
-0.378744 0.179662 0.050000
-0.377990 0.195773 0.050000
-0.377236 0.211884 0.050000
-0.376482 0.227996 0.050000
-0.375729 0.244107 0.050000
-0.374975 0.260219 0.050000
-0.375842 0.275342 0.050000
-0.376964 0.289660 0.050000
-0.377091 0.302955 0.050000
-0.377233 0.316377 0.050000
-0.376506 0.329862 0.050000
-0.375335 0.343389 0.050000
-0.373358 0.357110 0.050000
-0.370680 0.371002 0.050000
-0.367112 0.385129 0.050000
-0.393948 -0.484028 0.050000
-0.406218 -0.470694 0.050000
-0.415564 -0.458349 0.050000
-0.422777 -0.446451 0.050000
-0.428527 -0.434841 0.050000
-0.433180 -0.423425 0.050000
-0.436926 -0.412151 0.050000
-0.439861 -0.400963 0.050000
-0.442028 -0.389848 0.050000
-0.443464 -0.378724 0.050000
-0.444149 -0.367653 0.050000
-0.444118 -0.356430 0.050000
-0.443337 -0.345258 0.050000
-0.441783 -0.333817 0.050000
-0.439401 -0.322285 0.050000
-0.436108 -0.310408 0.050000
-0.431417 -0.298124 0.050000
-0.424918 -0.285385 0.050000
-0.415958 -0.270701 0.050000
-0.415204 -0.254589 0.050000
-0.414450 -0.238478 0.050000
-0.413696 -0.222367 0.050000
-0.412943 -0.206255 0.050000
-0.412189 -0.190144 0.050000
-0.411435 -0.174032 0.050000
-0.410682 -0.157921 0.050000
-0.409928 -0.141810 0.050000
-0.409174 -0.125698 0.050000
-0.408421 -0.109587 0.050000
-0.407667 -0.093475 0.050000
-0.406913 -0.077364 0.050000
-0.406160 -0.061253 0.050000
-0.405406 -0.045141 0.050000
-0.404653 -0.029030 0.050000
-0.403899 -0.012918 0.050000
-0.403145 0.003193 0.050000
-0.402392 0.019304 0.050000
-0.401638 0.035416 0.050000
-0.397201 0.051601 0.050000
-0.394446 0.067401 0.050000
-0.393088 0.083291 0.050000
-0.392310 0.099271 0.050000
-0.392453 0.115267 0.050000
-0.392794 0.131798 0.050000
-0.393776 0.148038 0.050000
-0.395609 0.164304 0.050000
-0.394855 0.180415 0.050000
-0.394101 0.196527 0.050000
-0.393348 0.212638 0.050000
-0.392594 0.228749 0.050000
-0.391840 0.244861 0.050000
-0.391086 0.260972 0.050000
-0.392984 0.276708 0.050000
-0.394203 0.290266 0.050000
-0.394980 0.303881 0.050000
-0.394799 0.317168 0.050000
-0.394203 0.330471 0.050000
-0.392739 0.343882 0.050000
-0.390600 0.357413 0.050000
-0.387566 0.371166 0.050000
-0.383655 0.385158 0.050000
-0.411162 -0.484063 0.050000
-0.424402 -0.470639 0.050000
-0.434566 -0.458226 0.050000
-0.442425 -0.446272 0.050000
-0.448674 -0.434611 0.050000
-0.453711 -0.423155 0.050000
-0.457745 -0.411837 0.050000
-0.460879 -0.400625 0.050000
-0.463171 -0.389456 0.050000
-0.464625 -0.378344 0.050000
-0.465280 -0.367151 0.050000
-0.465087 -0.356032 0.050000
-0.464060 -0.344657 0.050000
-0.462159 -0.333299 0.050000
-0.459293 -0.321626 0.050000
-0.455288 -0.309720 0.050000
-0.449887 -0.297429 0.050000
-0.442200 -0.284530 0.050000
-0.432069 -0.269947 0.050000
-0.431315 -0.253836 0.050000
-0.430562 -0.237724 0.050000
-0.429808 -0.221613 0.050000
-0.429054 -0.205501 0.050000
-0.428300 -0.189390 0.050000
-0.427547 -0.173279 0.050000
-0.426793 -0.157167 0.050000
-0.426053 -0.141284 0.050000
-0.425389 -0.125171 0.050000
-0.424655 -0.109071 0.050000
-0.423915 -0.092966 0.050000
-0.423150 -0.076838 0.050000
-0.422423 -0.060687 0.050000
-0.421517 -0.044388 0.050000
-0.420764 -0.028276 0.050000
-0.420010 -0.012165 0.050000
-0.419257 0.003947 0.050000
-0.418503 0.020058 0.050000
-0.417750 0.036169 0.050000
-0.413790 0.052349 0.050000
-0.411321 0.068349 0.050000
-0.409803 0.084245 0.050000
-0.409173 0.100170 0.050000
-0.408903 0.116372 0.050000
-0.409243 0.132505 0.050000
-0.410004 0.149037 0.050000
-0.411720 0.165058 0.050000
-0.410967 0.181169 0.050000
-0.410213 0.197280 0.050000
-0.409459 0.213392 0.050000
-0.408705 0.229503 0.050000
-0.407951 0.245615 0.050000
-0.407198 0.261726 0.050000
-0.409879 0.277208 0.050000
-0.411858 0.291285 0.050000
-0.412620 0.304598 0.050000
-0.412769 0.317869 0.050000
-0.411957 0.331069 0.050000
-0.410456 0.344305 0.050000
-0.407993 0.357704 0.050000
-0.404665 0.371306 0.050000
-0.400292 0.385197 0.050000
-0.428346 -0.484099 0.050000
-0.442556 -0.470573 0.050000
-0.453552 -0.458081 0.050000
-0.462072 -0.446053 0.050000
-0.468833 -0.434328 0.050000
-0.474263 -0.422811 0.050000
-0.478587 -0.411447 0.050000
-0.481926 -0.400178 0.050000
-0.484322 -0.388988 0.050000
-0.485821 -0.377793 0.050000
-0.486382 -0.366664 0.050000
-0.486053 -0.355346 0.050000
-0.484761 -0.344134 0.050000
-0.482461 -0.332585 0.050000
-0.479096 -0.320962 0.050000
-0.474463 -0.308999 0.050000
-0.468169 -0.296644 0.050000
-0.459541 -0.283812 0.050000
-0.448180 -0.269193 0.050000
-0.447426 -0.253082 0.050000
-0.446673 -0.236971 0.050000
-0.445919 -0.220859 0.050000
-0.445165 -0.204748 0.050000
-0.444412 -0.188636 0.050000
-0.443658 -0.172525 0.050000
-0.442904 -0.156413 0.050000
-0.442276 -0.140457 0.050000
-0.441635 -0.124345 0.050000
-0.440925 -0.108252 0.050000
-0.440164 -0.092157 0.050000
-0.439395 -0.076057 0.050000
-0.438549 -0.059864 0.050000
-0.437629 -0.043634 0.050000
-0.436875 -0.027523 0.050000
-0.436122 -0.011411 0.050000
-0.435368 0.004700 0.050000
-0.434614 0.020812 0.050000
-0.433861 0.036923 0.050000
-0.430320 0.053164 0.050000
-0.427999 0.069190 0.050000
-0.426636 0.085140 0.050000
-0.425794 0.101168 0.050000
-0.425545 0.117185 0.050000
-0.425642 0.133490 0.050000
-0.426274 0.149717 0.050000
-0.427832 0.165812 0.050000
-0.427078 0.181923 0.050000
-0.426324 0.198034 0.050000
-0.425570 0.214146 0.050000
-0.424816 0.230257 0.050000
-0.424063 0.246369 0.050000
-0.423309 0.262480 0.050000
-0.426909 0.278191 0.050000
-0.429355 0.291955 0.050000
-0.430600 0.305390 0.050000
-0.430728 0.318528 0.050000
-0.430039 0.331587 0.050000
-0.428296 0.344716 0.050000
-0.425647 0.357958 0.050000
-0.421900 0.371437 0.050000
-0.417049 0.385221 0.050000
-0.445500 -0.484130 0.050000
-0.460674 -0.470497 0.050000
-0.472508 -0.457911 0.050000
-0.481702 -0.445799 0.050000
-0.488987 -0.433994 0.050000
-0.494818 -0.422409 0.050000
-0.499444 -0.410977 0.050000
-0.502982 -0.399663 0.050000
-0.505504 -0.388404 0.050000
-0.507003 -0.377216 0.050000
-0.507533 -0.365946 0.050000
-0.506998 -0.354797 0.050000
-0.505434 -0.343320 0.050000
-0.502774 -0.331946 0.050000
-0.498865 -0.320204 0.050000
-0.493567 -0.308248 0.050000
-0.486470 -0.295897 0.050000
-0.476804 -0.283025 0.050000
-0.464292 -0.268440 0.050000
-0.463538 -0.252328 0.050000
-0.462784 -0.236217 0.050000
-0.462031 -0.220105 0.050000
-0.461277 -0.203994 0.050000
-0.460523 -0.187883 0.050000
-0.459769 -0.171771 0.050000
-0.459016 -0.155660 0.050000
-0.458461 -0.139693 0.050000
-0.457896 -0.123578 0.050000
-0.457197 -0.107473 0.050000
-0.456439 -0.091387 0.050000
-0.455612 -0.075260 0.050000
-0.454714 -0.059115 0.050000
-0.453740 -0.042881 0.050000
-0.452987 -0.026769 0.050000
-0.452233 -0.010658 0.050000
-0.451480 0.005454 0.050000
-0.450726 0.021565 0.050000
-0.449972 0.037677 0.050000
-0.446772 0.053943 0.050000
-0.444678 0.070017 0.050000
-0.443299 0.086032 0.050000
-0.442514 0.102005 0.050000
-0.442095 0.118131 0.050000
-0.442121 0.134249 0.050000
-0.442582 0.150586 0.050000
-0.443943 0.166565 0.050000
-0.443189 0.182677 0.050000
-0.442436 0.198788 0.050000
-0.441682 0.214900 0.050000
-0.440928 0.231011 0.050000
-0.440174 0.247122 0.050000
-0.439420 0.263234 0.050000
-0.443908 0.278879 0.050000
-0.447057 0.292800 0.050000
-0.448587 0.306095 0.050000
-0.448991 0.319129 0.050000
-0.448212 0.332121 0.050000
-0.446433 0.345076 0.050000
-0.443445 0.358198 0.050000
-0.439330 0.371552 0.050000
-0.433891 0.385245 0.050000
-0.462621 -0.484157 0.050000
-0.478745 -0.470411 0.050000
-0.491422 -0.457721 0.050000
-0.501301 -0.445511 0.050000
-0.509122 -0.433616 0.050000
-0.515367 -0.421947 0.050000
-0.520298 -0.410447 0.050000
-0.524055 -0.399059 0.050000
-0.526685 -0.387771 0.050000
-0.528238 -0.376492 0.050000
-0.528651 -0.365305 0.050000
-0.527999 -0.353903 0.050000
-0.526146 -0.342719 0.050000
-0.523050 -0.331088 0.050000
-0.518660 -0.319470 0.050000
-0.512672 -0.307478 0.050000
-0.504733 -0.295121 0.050000
-0.494077 -0.282276 0.050000
-0.480403 -0.267686 0.050000
-0.479649 -0.251574 0.050000
-0.478896 -0.235463 0.050000
-0.478142 -0.219352 0.050000
-0.477388 -0.203240 0.050000
-0.476635 -0.187129 0.050000
-0.475881 -0.171017 0.050000
-0.475127 -0.154906 0.050000
-0.474654 -0.138938 0.050000
-0.474143 -0.122810 0.050000
-0.473471 -0.106716 0.050000
-0.472695 -0.090608 0.050000
-0.471840 -0.074504 0.050000
-0.470880 -0.058336 0.050000
-0.469852 -0.042127 0.050000
-0.469098 -0.026016 0.050000
-0.468345 -0.009904 0.050000
-0.467591 0.006207 0.050000
-0.466837 0.022319 0.050000
-0.466084 0.038430 0.050000
-0.463201 0.054709 0.050000
-0.461257 0.070834 0.050000
-0.459988 0.086843 0.050000
-0.459138 0.102890 0.050000
-0.458702 0.118923 0.050000
-0.458590 0.135118 0.050000
-0.458905 0.151313 0.050000
-0.460055 0.167319 0.050000
-0.459301 0.183431 0.050000
-0.458547 0.199542 0.050000
-0.457793 0.215653 0.050000
-0.457039 0.231765 0.050000
-0.456286 0.247876 0.050000
-0.455532 0.263988 0.050000
-0.461003 0.279734 0.050000
-0.464814 0.293546 0.050000
-0.466798 0.306780 0.050000
-0.467355 0.319794 0.050000
-0.466698 0.332561 0.050000
-0.464699 0.345445 0.050000
-0.461495 0.358418 0.050000
-0.456891 0.371656 0.050000
-0.450841 0.385260 0.050000
-0.479707 -0.484179 0.050000
-0.496764 -0.470317 0.050000
-0.510284 -0.457511 0.050000
-0.520857 -0.445193 0.050000
-0.529228 -0.433196 0.050000
-0.535897 -0.421435 0.050000
-0.541151 -0.409847 0.050000
-0.545124 -0.398400 0.050000
-0.547899 -0.387026 0.050000
-0.549462 -0.375751 0.050000
-0.549870 -0.364416 0.050000
-0.548981 -0.353262 0.050000
-0.546879 -0.341688 0.050000
-0.543432 -0.330398 0.050000
-0.538443 -0.318625 0.050000
-0.531809 -0.306698 0.050000
-0.523006 -0.294351 0.050000
-0.511333 -0.281508 0.050000
-0.496514 -0.266932 0.050000
-0.495761 -0.250821 0.050000
-0.495007 -0.234709 0.050000
-0.494253 -0.218598 0.050000
-0.493500 -0.202487 0.050000
-0.492746 -0.186375 0.050000
-0.491992 -0.170264 0.050000
-0.491238 -0.154152 0.050000
-0.490850 -0.138164 0.050000
-0.490393 -0.122056 0.050000
-0.489735 -0.105944 0.050000
-0.488952 -0.089854 0.050000
-0.488061 -0.073728 0.050000
-0.487048 -0.057585 0.050000
-0.485963 -0.041373 0.050000
-0.485209 -0.025262 0.050000
-0.484456 -0.009151 0.050000
-0.483702 0.006961 0.050000
-0.482949 0.023072 0.050000
-0.482195 0.039184 0.050000
-0.479588 0.055489 0.050000
-0.477830 0.071609 0.050000
-0.476601 0.087672 0.050000
-0.475786 0.103679 0.050000
-0.475270 0.119770 0.050000
-0.475082 0.135879 0.050000
-0.475241 0.152122 0.050000
-0.476166 0.168073 0.050000
-0.475412 0.184184 0.050000
-0.474658 0.200296 0.050000
-0.473905 0.216407 0.050000
-0.473151 0.232518 0.050000
-0.472397 0.248630 0.050000
-0.471643 0.264741 0.050000
-0.478154 0.280507 0.050000
-0.482705 0.294311 0.050000
-0.485164 0.307549 0.050000
-0.485995 0.320292 0.050000
-0.485307 0.333104 0.050000
-0.483276 0.345762 0.050000
-0.479693 0.358626 0.050000
-0.474639 0.371753 0.050000
-0.467872 0.385272 0.050000
-0.496757 -0.484193 0.050000
-0.514724 -0.470213 0.050000
-0.529083 -0.457283 0.050000
-0.540359 -0.444847 0.050000
-0.549291 -0.432738 0.050000
-0.556401 -0.420871 0.050000
-0.561984 -0.409195 0.050000
-0.566204 -0.397651 0.050000
-0.569108 -0.386239 0.050000
-0.570749 -0.374860 0.050000
-0.571048 -0.363602 0.050000
-0.570107 -0.352144 0.050000
-0.567686 -0.341059 0.050000
-0.563793 -0.329336 0.050000
-0.558354 -0.317835 0.050000
-0.550964 -0.305873 0.050000
-0.541310 -0.293570 0.050000
-0.528595 -0.280748 0.050000
-0.512626 -0.266178 0.050000
-0.511872 -0.250067 0.050000
-0.511119 -0.233956 0.050000
-0.510365 -0.217844 0.050000
-0.509611 -0.201733 0.050000
-0.508857 -0.185621 0.050000
-0.508104 -0.169510 0.050000
-0.507350 -0.153399 0.050000
-0.507048 -0.137413 0.050000
-0.506643 -0.121283 0.050000
-0.505999 -0.105192 0.050000
-0.505201 -0.089081 0.050000
-0.504280 -0.072976 0.050000
-0.503212 -0.056814 0.050000
-0.502075 -0.040620 0.050000
-0.501321 -0.024508 0.050000
-0.500567 -0.008397 0.050000
-0.499814 0.007714 0.050000
-0.499060 0.023826 0.050000
-0.498307 0.039937 0.050000
-0.495968 0.056239 0.050000
-0.494356 0.072402 0.050000
-0.493220 0.088441 0.050000
-0.492389 0.104493 0.050000
-0.491852 0.120537 0.050000
-0.491561 0.136684 0.050000
-0.491577 0.152866 0.050000
-0.492277 0.168827 0.050000
-0.491524 0.184938 0.050000
-0.490770 0.201049 0.050000
-0.490016 0.217161 0.050000
-0.489262 0.233272 0.050000
-0.488508 0.249384 0.050000
-0.487755 0.265495 0.050000
-0.495379 0.281320 0.050000
-0.500767 0.295120 0.050000
-0.503708 0.308134 0.050000
-0.504808 0.321040 0.050000
-0.504272 0.333462 0.050000
-0.501992 0.346109 0.050000
-0.498153 0.358822 0.050000
-0.492523 0.371838 0.050000
-0.485009 0.385279 0.050000
-0.513770 -0.484201 0.050000
-0.532621 -0.470102 0.050000
-0.547813 -0.457039 0.050000
-0.559797 -0.444478 0.050000
-0.569303 -0.432246 0.050000
-0.576862 -0.420266 0.050000
-0.582797 -0.408476 0.050000
-0.587257 -0.396853 0.050000
-0.590338 -0.385321 0.050000
-0.592023 -0.373930 0.050000
-0.592359 -0.362526 0.050000
-0.591159 -0.351344 0.050000
-0.588591 -0.339680 0.050000
-0.584356 -0.328622 0.050000
-0.578260 -0.316828 0.050000
-0.570234 -0.305035 0.050000
-0.559646 -0.292769 0.050000
-0.545874 -0.279980 0.050000
-0.528737 -0.265425 0.050000
-0.527984 -0.249313 0.050000
-0.527230 -0.233202 0.050000
-0.526476 -0.217091 0.050000
-0.525722 -0.200979 0.050000
-0.524969 -0.184868 0.050000
-0.524215 -0.168756 0.050000
-0.523461 -0.152645 0.050000
-0.523245 -0.136640 0.050000
-0.522893 -0.120532 0.050000
-0.522259 -0.104420 0.050000
-0.521448 -0.088332 0.050000
-0.520493 -0.072204 0.050000
-0.519375 -0.056065 0.050000
-0.518186 -0.039866 0.050000
-0.517432 -0.023755 0.050000
-0.516679 -0.007643 0.050000
-0.515925 0.008468 0.050000
-0.515172 0.024579 0.050000
-0.514418 0.040691 0.050000
-0.512329 0.057018 0.050000
-0.510884 0.073153 0.050000
-0.509800 0.089230 0.050000
-0.509001 0.105249 0.050000
-0.508405 0.121324 0.050000
-0.508041 0.137438 0.050000
-0.507909 0.153639 0.050000
-0.508389 0.169581 0.050000
-0.507635 0.185692 0.050000
-0.506881 0.201803 0.050000
-0.506127 0.217915 0.050000
-0.505374 0.234026 0.050000
-0.504620 0.250138 0.050000
-0.503866 0.266249 0.050000
-0.512714 0.282136 0.050000
-0.518931 0.295837 0.050000
-0.522527 0.309003 0.050000
-0.523934 0.321372 0.050000
-0.523354 0.334029 0.050000
-0.521061 0.346386 0.050000
-0.516777 0.358994 0.050000
-0.510598 0.371914 0.050000
-0.502230 0.385279 0.050000
-0.530747 -0.484200 0.050000
-0.550452 -0.469984 0.050000
-0.566465 -0.456784 0.050000
-0.579161 -0.444091 0.050000
-0.589247 -0.431731 0.050000
-0.597272 -0.419625 0.050000
-0.603554 -0.407724 0.050000
-0.608287 -0.395959 0.050000
-0.611525 -0.384359 0.050000
-0.613325 -0.372808 0.050000
-0.613607 -0.361424 0.050000
-0.612457 -0.349943 0.050000
-0.609509 -0.338968 0.050000
-0.604912 -0.327110 0.050000
-0.598424 -0.315943 0.050000
-0.589557 -0.304090 0.050000
-0.578077 -0.291948 0.050000
-0.563176 -0.279205 0.050000
-0.544849 -0.264671 0.050000
-0.544095 -0.248560 0.050000
-0.543341 -0.232448 0.050000
-0.542588 -0.216337 0.050000
-0.541834 -0.200225 0.050000
-0.541080 -0.184114 0.050000
-0.540327 -0.168003 0.050000
-0.539573 -0.151891 0.050000
-0.539444 -0.135892 0.050000
-0.539143 -0.119762 0.050000
-0.538518 -0.103676 0.050000
-0.537689 -0.087564 0.050000
-0.536700 -0.071458 0.050000
-0.535532 -0.055294 0.050000
-0.534297 -0.039113 0.050000
-0.533544 -0.023001 0.050000
-0.532790 -0.006890 0.050000
-0.532037 0.009222 0.050000
-0.531283 0.025333 0.050000
-0.530530 0.041444 0.050000
-0.528695 0.057761 0.050000
-0.527387 0.073937 0.050000
-0.526397 0.089976 0.050000
-0.525584 0.106020 0.050000
-0.524968 0.122069 0.050000
-0.524499 0.138197 0.050000
-0.524232 0.154389 0.050000
-0.524500 0.170334 0.050000
-0.523746 0.186446 0.050000
-0.522993 0.202557 0.050000
-0.522239 0.218669 0.050000
-0.521485 0.234780 0.050000
-0.520731 0.250891 0.050000
-0.519977 0.267003 0.050000
-0.530118 0.282936 0.050000
-0.537379 0.296690 0.050000
-0.541509 0.309405 0.050000
-0.543261 0.322250 0.050000
-0.542909 0.334257 0.050000
-0.540277 0.346655 0.050000
-0.535673 0.359141 0.050000
-0.528814 0.371964 0.050000
-0.519554 0.385272 0.050000
-0.547687 -0.484192 0.050000
-0.568216 -0.469862 0.050000
-0.585036 -0.456525 0.050000
-0.598442 -0.443701 0.050000
-0.609116 -0.431213 0.050000
-0.617597 -0.418982 0.050000
-0.624242 -0.406932 0.050000
-0.629218 -0.395056 0.050000
-0.632647 -0.383249 0.050000
-0.634527 -0.371620 0.050000
-0.634892 -0.360020 0.050000
-0.633548 -0.348669 0.050000
-0.630692 -0.336994 0.050000
-0.625729 -0.326352 0.050000
-0.618570 -0.314490 0.050000
-0.609117 -0.303097 0.050000
-0.596596 -0.291066 0.050000
-0.580541 -0.278421 0.050000
-0.560960 -0.263917 0.050000
-0.560206 -0.247806 0.050000
-0.559453 -0.231695 0.050000
-0.558699 -0.215583 0.050000
-0.557945 -0.199472 0.050000
-0.557192 -0.183360 0.050000
-0.556438 -0.167249 0.050000
-0.555684 -0.151137 0.050000
-0.555644 -0.135122 0.050000
-0.555395 -0.119021 0.050000
-0.554774 -0.102913 0.050000
-0.553924 -0.086827 0.050000
-0.552898 -0.070691 0.050000
-0.551683 -0.054551 0.050000
-0.550409 -0.038359 0.050000
-0.549655 -0.022248 0.050000
-0.548902 -0.006136 0.050000
-0.548148 0.009975 0.050000
-0.547394 0.026086 0.050000
-0.546641 0.042198 0.050000
-0.545045 0.058554 0.050000
-0.543911 0.074683 0.050000
-0.542964 0.090759 0.050000
-0.542201 0.106765 0.050000
-0.541507 0.122812 0.050000
-0.540958 0.138935 0.050000
-0.540539 0.155127 0.050000
-0.540612 0.171088 0.050000
-0.539858 0.187200 0.050000
-0.539104 0.203311 0.050000
-0.538350 0.219422 0.050000
-0.537596 0.235534 0.050000
-0.536843 0.251645 0.050000
-0.536089 0.267757 0.050000
-0.547693 0.283769 0.050000
-0.555928 0.297322 0.050000
-0.560928 0.310414 0.050000
-0.563050 0.322210 0.050000
-0.562513 0.334726 0.050000
-0.559885 0.346834 0.050000
-0.554749 0.359216 0.050000
-0.547216 0.371985 0.050000
-0.536957 0.385251 0.050000
-0.564592 -0.484176 0.050000
-0.585914 -0.469739 0.050000
-0.603523 -0.456274 0.050000
-0.617637 -0.443333 0.050000
-0.628887 -0.430733 0.050000
-0.637825 -0.418376 0.050000
-0.644784 -0.406206 0.050000
-0.649999 -0.394106 0.050000
-0.653563 -0.382150 0.050000
-0.655566 -0.370198 0.050000
-0.655954 -0.358461 0.050000
-0.654753 -0.346781 0.050000
-0.651539 -0.335633 0.050000
-0.646612 -0.323678 0.050000
-0.639200 -0.313387 0.050000
-0.628793 -0.301777 0.050000
-0.615335 -0.290113 0.050000
-0.597982 -0.277612 0.050000
-0.577072 -0.263164 0.050000
-0.576318 -0.247052 0.050000
-0.575564 -0.230941 0.050000
-0.574811 -0.214829 0.050000
-0.574057 -0.198718 0.050000
-0.573303 -0.182607 0.050000
-0.572549 -0.166495 0.050000
-0.571796 -0.150384 0.050000
-0.571848 -0.134380 0.050000
-0.571651 -0.118258 0.050000
-0.571029 -0.102184 0.050000
-0.570152 -0.086070 0.050000
-0.569086 -0.069960 0.050000
-0.567822 -0.053782 0.050000
-0.566520 -0.037606 0.050000
-0.565767 -0.021494 0.050000
-0.565013 -0.005383 0.050000
-0.564260 0.010729 0.050000
-0.563506 0.026840 0.050000
-0.562752 0.042951 0.050000
-0.561404 0.059287 0.050000
-0.560391 0.075507 0.050000
-0.559590 0.091530 0.050000
-0.558788 0.107542 0.050000
-0.558093 0.123571 0.050000
-0.557405 0.139661 0.050000
-0.556832 0.155872 0.050000
-0.556723 0.171842 0.050000
-0.555969 0.187953 0.050000
-0.555215 0.204065 0.050000
-0.554462 0.220176 0.050000
-0.553708 0.236287 0.050000
-0.552954 0.252399 0.050000
-0.552200 0.268510 0.050000
-0.565381 0.284553 0.050000
-0.574960 0.298170 0.050000
-0.580540 0.310287 0.050000
-0.582945 0.323168 0.050000
-0.582785 0.334728 0.050000
-0.579673 0.346839 0.050000
-0.574080 0.359195 0.050000
-0.565738 0.371941 0.050000
-0.554441 0.385213 0.050000
-0.581466 -0.484155 0.050000
-0.603550 -0.469624 0.050000
-0.621932 -0.456054 0.050000
-0.636740 -0.443031 0.050000
-0.648559 -0.430357 0.050000
-0.657899 -0.417924 0.050000
-0.665141 -0.405586 0.050000
-0.670491 -0.393349 0.050000
-0.674136 -0.381022 0.050000
-0.676149 -0.368779 0.050000
-0.676639 -0.356496 0.050000
-0.675451 -0.344549 0.050000
-0.672624 -0.332748 0.050000
-0.667350 -0.322233 0.050000
-0.659692 -0.310232 0.050000
-0.649004 -0.300243 0.050000
-0.634314 -0.288943 0.050000
-0.615582 -0.276775 0.050000
-0.593183 -0.262410 0.050000
-0.592429 -0.246299 0.050000
-0.591676 -0.230187 0.050000
-0.590922 -0.214076 0.050000
-0.590168 -0.197964 0.050000
-0.589414 -0.181853 0.050000
-0.588661 -0.165741 0.050000
-0.587907 -0.149630 0.050000
-0.588059 -0.133611 0.050000
-0.587911 -0.117531 0.050000
-0.587284 -0.101433 0.050000
-0.586369 -0.085353 0.050000
-0.585258 -0.069200 0.050000
-0.583950 -0.053051 0.050000
-0.582632 -0.036852 0.050000
-0.581878 -0.020741 0.050000
-0.581124 -0.004629 0.050000
-0.580371 0.011482 0.050000
-0.579617 0.027594 0.050000
-0.578864 0.043705 0.050000
-0.577682 0.060171 0.050000
-0.576967 0.076289 0.050000
-0.576141 0.092359 0.050000
-0.575414 0.108402 0.050000
-0.574628 0.124458 0.050000
-0.573930 0.140551 0.050000
-0.573189 0.156644 0.050000
-0.572834 0.172596 0.050000
-0.572081 0.188707 0.050000
-0.571327 0.204818 0.050000
-0.570573 0.220930 0.050000
-0.569819 0.237041 0.050000
-0.569065 0.253153 0.050000
-0.568312 0.269264 0.050000
-0.583365 0.285356 0.050000
-0.594163 0.298506 0.050000
-0.600860 0.311540 0.050000
-0.603749 0.322319 0.050000
-0.603042 0.334559 0.050000
-0.599783 0.346627 0.050000
-0.593540 0.358994 0.050000
-0.584384 0.371814 0.050000
-0.571964 0.385146 0.050000
-0.598317 -0.484129 0.050000
-0.621137 -0.469528 0.050000
-0.640274 -0.455901 0.050000
-0.655769 -0.442867 0.050000
-0.668111 -0.430206 0.050000
-0.677810 -0.417733 0.050000
-0.685196 -0.405353 0.050000
-0.690583 -0.392804 0.050000
-0.694151 -0.380209 0.050000
-0.696103 -0.367380 0.050000
-0.696444 -0.354587 0.050000
-0.695390 -0.341715 0.050000
-0.692553 -0.329431 0.050000
-0.688083 -0.317362 0.050000
-0.680677 -0.308184 0.050000
-0.669258 -0.296982 0.050000
-0.653831 -0.287318 0.050000
-0.633373 -0.275828 0.050000
-0.609294 -0.261656 0.050000
-0.608541 -0.245545 0.050000
-0.607787 -0.229433 0.050000
-0.607033 -0.213322 0.050000
-0.606279 -0.197211 0.050000
-0.605526 -0.181099 0.050000
-0.604772 -0.164988 0.050000
-0.604018 -0.148876 0.050000
-0.604279 -0.132875 0.050000
-0.604180 -0.116774 0.050000
-0.603532 -0.100718 0.050000
-0.602580 -0.084601 0.050000
-0.601411 -0.068485 0.050000
-0.600057 -0.052278 0.050000
-0.598743 -0.036099 0.050000
-0.597989 -0.019987 0.050000
-0.597236 -0.003876 0.050000
-0.596482 0.012236 0.050000
-0.595729 0.028347 0.050000
-0.594975 0.044458 0.050000
-0.594221 0.060570 0.050000
-0.593468 0.076681 0.050000
-0.592714 0.092793 0.050000
-0.591960 0.108904 0.050000
-0.591207 0.125015 0.050000
-0.590453 0.141127 0.050000
-0.589699 0.157238 0.050000
-0.588946 0.173350 0.050000
-0.588192 0.189461 0.050000
-0.587438 0.205572 0.050000
-0.586684 0.221684 0.050000
-0.585931 0.237795 0.050000
-0.585177 0.253907 0.050000
-0.584423 0.270018 0.050000
-0.601642 0.286072 0.050000
-0.614406 0.299223 0.050000
-0.621621 0.309582 0.050000
-0.624169 0.322472 0.050000
-0.623906 0.333968 0.050000
-0.620054 0.345976 0.050000
-0.613139 0.358515 0.050000
-0.603041 0.371539 0.050000
-0.589497 0.385042 0.050000
-0.615159 -0.484104 0.050000
-0.638698 -0.469475 0.050000
-0.658584 -0.455877 0.050000
-0.674739 -0.442960 0.050000
-0.687567 -0.430440 0.050000
-0.697472 -0.418094 0.050000
-0.704891 -0.405562 0.050000
-0.710121 -0.392878 0.050000
-0.713490 -0.379747 0.050000
-0.715150 -0.366410 0.050000
-0.715387 -0.352773 0.050000
-0.713939 -0.339203 0.050000
-0.711308 -0.325477 0.050000
-0.706494 -0.312733 0.050000
-0.700265 -0.299991 0.050000
-0.690604 -0.293167 0.050000
-0.673811 -0.284235 0.050000
-0.651569 -0.274592 0.050000
-0.625406 -0.260902 0.050000
-0.624652 -0.244791 0.050000
-0.623898 -0.228680 0.050000
-0.623145 -0.212568 0.050000
-0.622391 -0.196457 0.050000
-0.621637 -0.180345 0.050000
-0.620884 -0.164234 0.050000
-0.620130 -0.148123 0.050000
-0.620511 -0.132104 0.050000
-0.620448 -0.116044 0.050000
-0.619779 -0.099955 0.050000
-0.618766 -0.083870 0.050000
-0.617562 -0.067705 0.050000
-0.616153 -0.051563 0.050000
-0.614855 -0.035345 0.050000
-0.614101 -0.019234 0.050000
-0.613347 -0.003122 0.050000
-0.612594 0.012989 0.050000
-0.611840 0.029101 0.050000
-0.611087 0.045212 0.050000
-0.610333 0.061324 0.050000
-0.609579 0.077435 0.050000
-0.608826 0.093546 0.050000
-0.608072 0.109658 0.050000
-0.607318 0.125769 0.050000
-0.606565 0.141880 0.050000
-0.605811 0.157992 0.050000
-0.605057 0.174103 0.050000
-0.604303 0.190215 0.050000
-0.603550 0.206326 0.050000
-0.602796 0.222438 0.050000
-0.602042 0.238549 0.050000
-0.601288 0.254660 0.050000
-0.600535 0.270772 0.050000
-0.620574 0.286597 0.050000
-0.635083 0.297776 0.050000
-0.643066 0.310861 0.050000
-0.646276 0.320476 0.050000
-0.645036 0.332012 0.050000
-0.640401 0.344504 0.050000
-0.632609 0.357605 0.050000
-0.621617 0.371082 0.050000
-0.606953 0.384889 0.050000
-0.632013 -0.484086 0.050000
-0.656273 -0.469503 0.050000
-0.676905 -0.456085 0.050000
-0.693705 -0.443499 0.050000
-0.706881 -0.431355 0.050000
-0.716868 -0.419139 0.050000
-0.724059 -0.406684 0.050000
-0.728981 -0.393528 0.050000
-0.731986 -0.379952 0.050000
-0.733411 -0.365874 0.050000
-0.733157 -0.351554 0.050000
-0.731680 -0.336951 0.050000
-0.728147 -0.322440 0.050000
-0.723790 -0.307652 0.050000
-0.715838 -0.294364 0.050000
-0.707454 -0.280161 0.050000
-0.694756 -0.277952 0.050000
-0.670123 -0.272413 0.050000
-0.641517 -0.260149 0.050000
-0.640764 -0.244037 0.050000
-0.640010 -0.227926 0.050000
-0.639256 -0.211815 0.050000
-0.638502 -0.195703 0.050000
-0.637749 -0.179592 0.050000
-0.636995 -0.163480 0.050000
-0.636241 -0.147369 0.050000
-0.636750 -0.131366 0.050000
-0.636694 -0.115262 0.050000
-0.635976 -0.099158 0.050000
-0.634965 -0.083027 0.050000
-0.633698 -0.066938 0.050000
-0.632259 -0.050749 0.050000
-0.630966 -0.034591 0.050000
-0.630212 -0.018480 0.050000
-0.629459 -0.002368 0.050000
-0.628705 0.013743 0.050000
-0.627952 0.029854 0.050000
-0.627198 0.045966 0.050000
-0.626444 0.062077 0.050000
-0.625691 0.078189 0.050000
-0.624937 0.094300 0.050000
-0.624183 0.110411 0.050000
-0.623430 0.126523 0.050000
-0.622676 0.142634 0.050000
-0.621922 0.158746 0.050000
-0.621169 0.174857 0.050000
-0.620415 0.190968 0.050000
-0.619661 0.207080 0.050000
-0.618907 0.223191 0.050000
-0.618154 0.239303 0.050000
-0.617400 0.255414 0.050000
-0.616646 0.271526 0.050000
-0.640350 0.286252 0.050000
-0.658778 0.297390 0.050000
-0.665437 0.303175 0.050000
-0.667399 0.315025 0.050000
-0.665373 0.328269 0.050000
-0.660047 0.342223 0.050000
-0.651665 0.356271 0.050000
-0.639865 0.370447 0.050000
-0.624261 0.384691 0.050000
-0.648917 -0.484090 0.050000
-0.673919 -0.469680 0.050000
-0.695320 -0.456710 0.050000
-0.712677 -0.444802 0.050000
-0.726054 -0.433229 0.050000
-0.735755 -0.421407 0.050000
-0.742536 -0.408561 0.050000
-0.747025 -0.395032 0.050000
-0.749713 -0.380728 0.050000
-0.750707 -0.365988 0.050000
-0.750319 -0.350877 0.050000
-0.748092 -0.335505 0.050000
-0.744742 -0.319988 0.050000
-0.738661 -0.304402 0.050000
-0.731892 -0.288815 0.050000
-0.719198 -0.274868 0.050000
-0.707275 -0.259304 0.050000
-0.689281 -0.266648 0.050000
-0.657629 -0.259395 0.050000
-0.656875 -0.243284 0.050000
-0.656121 -0.227172 0.050000
-0.655367 -0.211061 0.050000
-0.654614 -0.194949 0.050000
-0.653860 -0.178838 0.050000
-0.653106 -0.162727 0.050000
-0.652353 -0.146615 0.050000
-0.652980 -0.130573 0.050000
-0.652851 -0.114438 0.050000
-0.652087 -0.098203 0.050000
-0.651097 -0.082000 0.050000
-0.649969 -0.065953 0.050000
-0.648420 -0.050028 0.050000
-0.647077 -0.033838 0.050000
-0.646324 -0.017726 0.050000
-0.645570 -0.001615 0.050000
-0.644816 0.014496 0.050000
-0.644063 0.030608 0.050000
-0.643309 0.046719 0.050000
-0.642556 0.062831 0.050000
-0.641802 0.078942 0.050000
-0.641048 0.095054 0.050000
-0.640295 0.111165 0.050000
-0.639541 0.127276 0.050000
-0.638787 0.143388 0.050000
-0.638034 0.159499 0.050000
-0.637280 0.175611 0.050000
-0.636526 0.191722 0.050000
-0.635772 0.207834 0.050000
-0.635019 0.223945 0.050000
-0.634265 0.240056 0.050000
-0.633511 0.256168 0.050000
-0.632757 0.272279 0.050000
-0.662021 0.282890 0.050000
-0.675646 0.279638 0.050000
-0.682115 0.293546 0.050000
-0.685412 0.308425 0.050000
-0.683587 0.324219 0.050000
-0.678505 0.339553 0.050000
-0.669837 0.354780 0.050000
-0.657637 0.369712 0.050000
-0.641306 0.384469 0.050000
-0.665926 -0.484142 0.050000
-0.691732 -0.470144 0.050000
-0.713898 -0.458086 0.050000
-0.731662 -0.447334 0.050000
-0.744750 -0.436672 0.050000
-0.753917 -0.424651 0.050000
-0.760115 -0.411514 0.050000
-0.764212 -0.397134 0.050000
-0.766576 -0.382153 0.050000
-0.767395 -0.366667 0.050000
-0.766536 -0.350809 0.050000
-0.764292 -0.334790 0.050000
-0.760037 -0.318456 0.050000
-0.754302 -0.302321 0.050000
-0.745645 -0.285807 0.050000
-0.734595 -0.270580 0.050000
-0.719038 -0.255984 0.050000
-0.698873 -0.245569 0.050000
-0.673740 -0.258641 0.050000
-0.672986 -0.242530 0.050000
-0.672233 -0.226419 0.050000
-0.671479 -0.210307 0.050000
-0.670725 -0.194196 0.050000
-0.669972 -0.178084 0.050000
-0.669218 -0.161973 0.050000
-0.668464 -0.145861 0.050000
-0.669080 -0.129729 0.050000
-0.668806 -0.113332 0.050000
-0.668087 -0.096941 0.050000
-0.667211 -0.080726 0.050000
-0.666180 -0.064596 0.050000
-0.664960 -0.048843 0.050000
-0.663189 -0.033084 0.050000
-0.662435 -0.016973 0.050000
-0.661682 -0.000861 0.050000
-0.660928 0.015250 0.050000
-0.660174 0.031361 0.050000
-0.659421 0.047473 0.050000
-0.658667 0.063584 0.050000
-0.657914 0.079696 0.050000
-0.657160 0.095807 0.050000
-0.656406 0.111919 0.050000
-0.655653 0.128030 0.050000
-0.654899 0.144142 0.050000
-0.654145 0.160253 0.050000
-0.653391 0.176365 0.050000
-0.652638 0.192476 0.050000
-0.651884 0.208587 0.050000
-0.651130 0.224699 0.050000
-0.650376 0.240810 0.050000
-0.649623 0.256922 0.050000
-0.648869 0.273033 0.050000
-0.672610 0.261193 0.050000
-0.686840 0.272107 0.050000
-0.697571 0.287944 0.050000
-0.700609 0.304503 0.050000
-0.700234 0.321084 0.050000
-0.695427 0.337504 0.050000
-0.687143 0.353402 0.050000
-0.674749 0.369027 0.050000
-0.658073 0.384243 0.050000
-0.683126 -0.484304 0.050000
-0.709822 -0.471186 0.050000
-0.732681 -0.460832 0.050000
-0.750291 -0.451835 0.050000
-0.762680 -0.441505 0.050000
-0.770919 -0.429306 0.050000
-0.776630 -0.414993 0.050000
-0.780538 -0.399888 0.050000
-0.782718 -0.384068 0.050000
-0.783310 -0.367817 0.050000
-0.782369 -0.351322 0.050000
-0.779737 -0.334561 0.050000
-0.775478 -0.317883 0.050000
-0.769227 -0.300989 0.050000
-0.760717 -0.284650 0.050000
-0.749826 -0.268385 0.050000
-0.735410 -0.254319 0.050000
-0.718886 -0.241373 0.050000
-0.693140 -0.236760 0.050000
-0.691063 -0.228395 0.050000
-0.688886 -0.217834 0.050000
-0.687783 -0.204564 0.050000
-0.686801 -0.190252 0.050000
-0.685965 -0.175209 0.050000
-0.685153 -0.159722 0.050000
-0.684687 -0.144183 0.050000
-0.685003 -0.128034 0.050000
-0.684659 -0.111610 0.050000
-0.684081 -0.095320 0.050000
-0.683295 -0.079113 0.050000
-0.682391 -0.063077 0.050000
-0.681289 -0.046959 0.050000
-0.679574 -0.031285 0.050000
-0.678585 -0.015826 0.050000
-0.677860 -0.000082 0.050000
-0.677075 0.015702 0.050000
-0.676343 0.031525 0.050000
-0.675576 0.047367 0.050000
-0.674829 0.063234 0.050000
-0.674065 0.079120 0.050000
-0.673310 0.095019 0.050000
-0.672552 0.110921 0.050000
-0.671805 0.126798 0.050000
-0.671073 0.142614 0.050000
-0.670372 0.158305 0.050000
-0.669715 0.173784 0.050000
-0.669135 0.188924 0.050000
-0.668660 0.203545 0.050000
-0.668405 0.217391 0.050000
-0.668324 0.230178 0.050000
-0.669098 0.240930 0.050000
-0.669304 0.251008 0.050000
-0.692666 0.257004 0.050000
-0.703530 0.271049 0.050000
-0.712130 0.286161 0.050000
-0.715962 0.303131 0.050000
-0.715647 0.319917 0.050000
-0.711652 0.336321 0.050000
-0.703497 0.352606 0.050000
-0.691350 0.368497 0.050000
-0.674515 0.384059 0.050000
-0.700638 -0.484732 0.050000
-0.728312 -0.473438 0.050000
-0.751374 -0.465947 0.050000
-0.768091 -0.458532 0.050000
-0.778887 -0.448295 0.050000
-0.786500 -0.434252 0.050000
-0.792225 -0.419145 0.050000
-0.795961 -0.403001 0.050000
-0.798138 -0.386346 0.050000
-0.798655 -0.369344 0.050000
-0.797617 -0.352111 0.050000
-0.794941 -0.334884 0.050000
-0.790587 -0.317608 0.050000
-0.784352 -0.300659 0.050000
-0.776190 -0.283913 0.050000
-0.765756 -0.268060 0.050000
-0.753333 -0.252994 0.050000
-0.738533 -0.240283 0.050000
-0.720470 -0.230305 0.050000
-0.714207 -0.219923 0.050000
-0.709720 -0.209544 0.050000
-0.706578 -0.198303 0.050000
-0.704567 -0.185209 0.050000
-0.703039 -0.171069 0.050000
-0.702000 -0.156306 0.050000
-0.701417 -0.140991 0.050000
-0.701034 -0.125293 0.050000
-0.700729 -0.109310 0.050000
-0.700175 -0.093265 0.050000
-0.699501 -0.077309 0.050000
-0.698662 -0.061374 0.050000
-0.697557 -0.045626 0.050000
-0.696439 -0.030053 0.050000
-0.695343 -0.014630 0.050000
-0.694476 0.000733 0.050000
-0.693705 0.016213 0.050000
-0.692922 0.031718 0.050000
-0.692165 0.047269 0.050000
-0.691392 0.062840 0.050000
-0.690635 0.078436 0.050000
-0.689880 0.094040 0.050000
-0.689156 0.109634 0.050000
-0.688473 0.125180 0.050000
-0.687870 0.140623 0.050000
-0.687379 0.155876 0.050000
-0.687064 0.170819 0.050000
-0.686990 0.185299 0.050000
-0.687309 0.199104 0.050000
-0.688113 0.212059 0.050000
-0.689895 0.223725 0.050000
-0.692421 0.235005 0.050000
-0.696292 0.245230 0.050000
-0.711280 0.256774 0.050000
-0.721241 0.271016 0.050000
-0.727790 0.287061 0.050000
-0.731341 0.303618 0.050000
-0.731054 0.320129 0.050000
-0.727276 0.336655 0.050000
-0.719570 0.352427 0.050000
-0.707452 0.368310 0.050000
-0.690769 0.383929 0.050000
-0.718661 -0.485852 0.050000
-0.747101 -0.478185 0.050000
-0.769162 -0.474499 0.050000
-0.783170 -0.468105 0.050000
-0.793100 -0.454786 0.050000
-0.801111 -0.439867 0.050000
-0.806688 -0.423461 0.050000
-0.810671 -0.406392 0.050000
-0.812811 -0.388839 0.050000
-0.813438 -0.371022 0.050000
-0.812389 -0.353147 0.050000
-0.809787 -0.335282 0.050000
-0.805477 -0.317680 0.050000
-0.799506 -0.300349 0.050000
-0.791688 -0.283656 0.050000
-0.782146 -0.267577 0.050000
-0.770769 -0.252656 0.050000
-0.758161 -0.238808 0.050000
-0.743889 -0.227701 0.050000
-0.736711 -0.217250 0.050000
-0.731045 -0.205342 0.050000
-0.726410 -0.193144 0.050000
-0.723066 -0.180446 0.050000
-0.720814 -0.166779 0.050000
-0.719280 -0.152361 0.050000
-0.718270 -0.137437 0.050000
-0.717631 -0.122125 0.050000
-0.717099 -0.106584 0.050000
-0.716580 -0.090952 0.050000
-0.715941 -0.075301 0.050000
-0.715158 -0.059738 0.050000
-0.714274 -0.044262 0.050000
-0.713286 -0.028913 0.050000
-0.712351 -0.013671 0.050000
-0.711457 0.001557 0.050000
-0.710628 0.016759 0.050000
-0.709842 0.032018 0.050000
-0.709055 0.047288 0.050000
-0.708287 0.062589 0.050000
-0.707524 0.077895 0.050000
-0.706796 0.093203 0.050000
-0.706116 0.108485 0.050000
-0.705531 0.123709 0.050000
-0.705088 0.138814 0.050000
-0.704866 0.153716 0.050000
-0.704949 0.168306 0.050000
-0.705476 0.182441 0.050000
-0.706566 0.196019 0.050000
-0.708508 0.208872 0.050000
-0.711292 0.221403 0.050000
-0.715071 0.233293 0.050000
-0.720004 0.244778 0.050000
-0.730616 0.257599 0.050000
-0.738494 0.272846 0.050000
-0.744146 0.288860 0.050000
-0.746787 0.305400 0.050000
-0.746744 0.322004 0.050000
-0.742914 0.337562 0.050000
-0.735369 0.353488 0.050000
-0.723518 0.368533 0.050000
-0.706876 0.383925 0.050000
-0.737415 -0.488863 0.050000
-0.765257 -0.487626 0.050000
-0.782838 -0.487515 0.050000
-0.795509 -0.476198 0.050000
-0.806414 -0.461859 0.050000
-0.814316 -0.445447 0.050000
-0.820453 -0.427979 0.050000
-0.824476 -0.409863 0.050000
-0.826919 -0.391368 0.050000
-0.827584 -0.372748 0.050000
-0.826723 -0.354109 0.050000
-0.824189 -0.335686 0.050000
-0.820115 -0.317551 0.050000
-0.814387 -0.299973 0.050000
-0.807124 -0.283009 0.050000
-0.798283 -0.266985 0.050000
-0.788137 -0.251882 0.050000
-0.777064 -0.238103 0.050000
-0.765706 -0.225540 0.050000
-0.757437 -0.213570 0.050000
-0.750839 -0.202005 0.050000
-0.745765 -0.189327 0.050000
-0.741712 -0.176193 0.050000
-0.738787 -0.162570 0.050000
-0.736789 -0.148400 0.050000
-0.735468 -0.133771 0.050000
-0.734577 -0.118838 0.050000
-0.733936 -0.103719 0.050000
-0.733353 -0.088496 0.050000
-0.732738 -0.073260 0.050000
-0.732039 -0.058035 0.050000
-0.731237 -0.042868 0.050000
-0.730390 -0.027764 0.050000
-0.729509 -0.012700 0.050000
-0.728656 0.002313 0.050000
-0.727827 0.017342 0.050000
-0.727019 0.032356 0.050000
-0.726238 0.047394 0.050000
-0.725467 0.062426 0.050000
-0.724728 0.077461 0.050000
-0.724028 0.092475 0.050000
-0.723411 0.107458 0.050000
-0.722921 0.122376 0.050000
-0.722639 0.137187 0.050000
-0.722655 0.151829 0.050000
-0.723099 0.166213 0.050000
-0.724095 0.180268 0.050000
-0.725827 0.193901 0.050000
-0.728354 0.207236 0.050000
-0.731767 0.220127 0.050000
-0.736251 0.232743 0.050000
-0.741795 0.245639 0.050000
-0.749352 0.259762 0.050000
-0.755813 0.274987 0.050000
-0.760267 0.291267 0.050000
-0.762637 0.307899 0.050000
-0.761924 0.324442 0.050000
-0.758854 0.340854 0.050000
-0.751485 0.354790 0.050000
-0.739630 0.369691 0.050000
-0.723163 0.384087 0.050000
-0.756897 -0.497065 0.050000
-0.778080 -0.504328 0.050000
-0.792806 -0.497729 0.050000
-0.806954 -0.484687 0.050000
-0.818009 -0.468874 0.050000
-0.826819 -0.451092 0.050000
-0.833189 -0.432480 0.050000
-0.837708 -0.413250 0.050000
-0.840288 -0.393819 0.050000
-0.841243 -0.374280 0.050000
-0.840478 -0.354896 0.050000
-0.838178 -0.335747 0.050000
-0.834272 -0.317087 0.050000
-0.828909 -0.299007 0.050000
-0.822089 -0.281784 0.050000
-0.814004 -0.265481 0.050000
-0.804835 -0.250355 0.050000
-0.795011 -0.236223 0.050000
-0.785177 -0.223324 0.050000
-0.777104 -0.210833 0.050000
-0.770090 -0.198002 0.050000
-0.764367 -0.185457 0.050000
-0.760056 -0.172177 0.050000
-0.756798 -0.158528 0.050000
-0.754514 -0.144497 0.050000
-0.752979 -0.130168 0.050000
-0.751953 -0.115615 0.050000
-0.751203 -0.100908 0.050000
-0.750570 -0.086112 0.050000
-0.749941 -0.071250 0.050000
-0.749256 -0.056369 0.050000
-0.748510 -0.041482 0.050000
-0.747703 -0.026601 0.050000
-0.746878 -0.011747 0.050000
-0.746047 0.003110 0.050000
-0.745232 0.017939 0.050000
-0.744440 0.032777 0.050000
-0.743667 0.047590 0.050000
-0.742927 0.062397 0.050000
-0.742220 0.077170 0.050000
-0.741575 0.091912 0.050000
-0.741024 0.106601 0.050000
-0.740630 0.121225 0.050000
-0.740471 0.135760 0.050000
-0.740666 0.150170 0.050000
-0.741342 0.164420 0.050000
-0.742655 0.178451 0.050000
-0.744709 0.192283 0.050000
-0.747593 0.205855 0.050000
-0.751430 0.219266 0.050000
-0.756065 0.232875 0.050000
-0.761290 0.246716 0.050000
-0.767387 0.261221 0.050000
-0.772541 0.277006 0.050000
-0.776360 0.293427 0.050000
-0.777806 0.310530 0.050000
-0.777365 0.327691 0.050000
-0.773469 0.344152 0.050000
-0.767617 0.360212 0.050000
-0.756563 0.371326 0.050000
-0.739830 0.384789 0.050000
-0.770475 -0.519134 0.050000
-0.780563 -0.518581 0.050000
-0.800056 -0.508049 0.050000
-0.816155 -0.493642 0.050000
-0.828621 -0.475731 0.050000
-0.838244 -0.456726 0.050000
-0.845297 -0.436740 0.050000
-0.850184 -0.416463 0.050000
-0.853141 -0.395955 0.050000
-0.854274 -0.375524 0.050000
-0.853747 -0.355236 0.050000
-0.851580 -0.335341 0.050000
-0.847911 -0.315931 0.050000
-0.842787 -0.297270 0.050000
-0.836387 -0.279459 0.050000
-0.828875 -0.262772 0.050000
-0.820530 -0.247221 0.050000
-0.811722 -0.232946 0.050000
-0.803046 -0.219557 0.050000
-0.795203 -0.206660 0.050000
-0.788437 -0.194059 0.050000
-0.782733 -0.180929 0.050000
-0.778248 -0.167902 0.050000
-0.774912 -0.154433 0.050000
-0.772561 -0.140722 0.050000
-0.770936 -0.126796 0.050000
-0.769800 -0.112684 0.050000
-0.768943 -0.098413 0.050000
-0.768213 -0.083992 0.050000
-0.767513 -0.069465 0.050000
-0.766790 -0.054851 0.050000
-0.766026 -0.040182 0.050000
-0.765230 -0.025490 0.050000
-0.764414 -0.010774 0.050000
-0.763604 0.003925 0.050000
-0.762811 0.018632 0.050000
-0.762045 0.033303 0.050000
-0.761313 0.047959 0.050000
-0.760620 0.062565 0.050000
-0.759980 0.077126 0.050000
-0.759413 0.091616 0.050000
-0.758957 0.106030 0.050000
-0.758664 0.120354 0.050000
-0.758618 0.134579 0.050000
-0.758922 0.148705 0.050000
-0.759717 0.162721 0.050000
-0.761133 0.176649 0.050000
-0.763309 0.190454 0.050000
-0.766300 0.204194 0.050000
-0.770055 0.218065 0.050000
-0.774449 0.232030 0.050000
-0.779351 0.246412 0.050000
-0.784290 0.261689 0.050000
-0.788694 0.277722 0.050000
-0.791523 0.294970 0.050000
-0.792859 0.312660 0.050000
-0.791442 0.330817 0.050000
-0.788270 0.348576 0.050000
-0.780964 0.364983 0.050000
-0.772543 0.380291 0.050000
-0.757782 0.386618 0.050000
0.767965 0.421376 -0.050000
0.786185 -0.552709 -0.050000
0.773717 0.404732 -0.050000
0.779119 0.389844 -0.050000
0.785035 0.373865 -0.050000
0.790185 0.357420 -0.050000
0.794046 0.340430 -0.050000
0.796531 0.323244 -0.050000
0.797607 0.306146 -0.050000
0.797519 0.289388 -0.050000
0.796501 0.273125 -0.050000
0.794960 0.257488 -0.050000
0.793168 0.242314 -0.050000
0.791451 0.227692 -0.050000
0.789988 0.213280 -0.050000
0.788860 0.199150 -0.050000
0.788157 0.185086 -0.050000
0.787839 0.171046 -0.050000
0.787890 0.156981 -0.050000
0.788254 0.142828 -0.050000
0.788872 0.128584 -0.050000
0.789694 0.114226 -0.050000
0.790669 0.099758 -0.050000
0.791759 0.085183 -0.050000
0.792932 0.070510 -0.050000
0.794164 0.055752 -0.050000
0.795438 0.040919 -0.050000
0.796738 0.026027 -0.050000
0.798056 0.011087 -0.050000
0.799386 -0.003887 -0.050000
0.800725 -0.018880 -0.050000
0.802073 -0.033879 -0.050000
0.803434 -0.048868 -0.050000
0.804815 -0.063833 -0.050000
0.806234 -0.078754 -0.050000
0.807715 -0.093617 -0.050000
0.809290 -0.108407 -0.050000
0.811013 -0.123111 -0.050000
0.812935 -0.137741 -0.050000
0.815138 -0.152281 -0.050000
0.817669 -0.166823 -0.050000
0.820601 -0.181326 -0.050000
0.823944 -0.196007 -0.050000
0.827653 -0.210822 -0.050000
0.831681 -0.226030 -0.050000
0.835816 -0.241653 -0.050000
0.839907 -0.257851 -0.050000
0.843689 -0.274631 -0.050000
0.846967 -0.292002 -0.050000
0.849531 -0.309903 -0.050000
0.851224 -0.328245 -0.050000
0.851920 -0.346914 -0.050000
0.851526 -0.365782 -0.050000
0.849984 -0.384714 -0.050000
0.847263 -0.403568 -0.050000
0.843366 -0.422202 -0.050000
0.838326 -0.440473 -0.050000
0.832231 -0.458236 -0.050000
0.825208 -0.475385 -0.050000
0.817476 -0.491795 -0.050000
0.809339 -0.507582 -0.050000
0.801120 -0.522404 -0.050000
0.793808 -0.537417 -0.050000
-0.792752 -0.551617 -0.050000
0.771804 -0.545768 -0.050000
0.757843 -0.539561 -0.050000
0.744380 -0.534098 -0.050000
0.730432 -0.529820 -0.050000
0.716080 -0.526420 -0.050000
0.701204 -0.523792 -0.050000
0.685868 -0.521761 -0.050000
0.670072 -0.520226 -0.050000
0.653867 -0.519098 -0.050000
0.637291 -0.518300 -0.050000
0.620388 -0.517771 -0.050000
0.603195 -0.517454 -0.050000
0.585750 -0.517303 -0.050000
0.568087 -0.517275 -0.050000
0.550241 -0.517335 -0.050000
0.532245 -0.517449 -0.050000
0.514134 -0.517588 -0.050000
0.495940 -0.517727 -0.050000
0.477701 -0.517843 -0.050000
0.459453 -0.517915 -0.050000
0.441235 -0.517929 -0.050000
0.423087 -0.517871 -0.050000
0.405045 -0.517733 -0.050000
0.387146 -0.517514 -0.050000
0.369423 -0.517216 -0.050000
0.351901 -0.516842 -0.050000
0.334606 -0.516407 -0.050000
0.317547 -0.515934 -0.050000
0.300730 -0.515443 -0.050000
0.284149 -0.514958 -0.050000
0.267792 -0.514506 -0.050000
0.251638 -0.514101 -0.050000
0.235665 -0.513764 -0.050000
0.219836 -0.513527 -0.050000
0.204116 -0.513410 -0.050000
0.188466 -0.513423 -0.050000
0.172844 -0.513572 -0.050000
0.157210 -0.513860 -0.050000
0.141519 -0.514282 -0.050000
0.125735 -0.514826 -0.050000
0.109819 -0.515484 -0.050000
0.093735 -0.516220 -0.050000
0.077454 -0.517006 -0.050000
0.060956 -0.517836 -0.050000
0.044225 -0.518685 -0.050000
0.027253 -0.519530 -0.050000
0.010040 -0.520349 -0.050000
-0.007408 -0.521122 -0.050000
-0.025077 -0.521834 -0.050000
-0.042948 -0.522471 -0.050000
-0.060997 -0.523027 -0.050000
-0.079198 -0.523498 -0.050000
-0.097525 -0.523882 -0.050000
-0.115952 -0.524184 -0.050000
-0.134457 -0.524409 -0.050000
-0.153017 -0.524563 -0.050000
-0.171615 -0.524654 -0.050000
-0.190237 -0.524691 -0.050000
-0.208873 -0.524681 -0.050000
-0.227514 -0.524631 -0.050000
-0.246156 -0.524547 -0.050000
-0.264797 -0.524433 -0.050000
-0.283434 -0.524292 -0.050000
-0.302068 -0.524126 -0.050000
-0.320696 -0.523934 -0.050000
-0.339318 -0.523716 -0.050000
-0.357931 -0.523470 -0.050000
-0.376528 -0.523198 -0.050000
-0.395108 -0.522885 -0.050000
-0.413653 -0.522528 -0.050000
-0.432157 -0.522149 -0.050000
-0.450608 -0.521752 -0.050000
-0.468994 -0.521340 -0.050000
-0.487302 -0.520923 -0.050000
-0.505516 -0.520509 -0.050000
-0.523620 -0.520110 -0.050000
-0.541593 -0.519741 -0.050000
-0.559416 -0.519418 -0.050000
-0.577064 -0.519164 -0.050000
-0.594513 -0.519006 -0.050000
-0.611734 -0.518973 -0.050000
-0.628698 -0.519105 -0.050000
-0.645371 -0.519446 -0.050000
-0.661719 -0.520047 -0.050000
-0.677702 -0.520972 -0.050000
-0.693284 -0.522289 -0.050000
-0.708430 -0.524085 -0.050000
-0.723132 -0.526474 -0.050000
-0.737326 -0.529614 -0.050000
-0.751131 -0.533630 -0.050000
-0.764516 -0.538834 -0.050000
-0.778341 -0.544787 -0.050000
-0.769670 0.418366 -0.050000
-0.800253 -0.536137 -0.050000
-0.807515 -0.520819 -0.050000
-0.815848 -0.505677 -0.050000
-0.824064 -0.489328 -0.050000
-0.831788 -0.472249 -0.050000
-0.838697 -0.454313 -0.050000
-0.844510 -0.435687 -0.050000
-0.849072 -0.416513 -0.050000
-0.852271 -0.396988 -0.050000
-0.854072 -0.377300 -0.050000
-0.854485 -0.357644 -0.050000
-0.853566 -0.338201 -0.050000
-0.851415 -0.319145 -0.050000
-0.848167 -0.300625 -0.050000
-0.843998 -0.282770 -0.050000
-0.839123 -0.265669 -0.050000
-0.833769 -0.249358 -0.050000
-0.828217 -0.233845 -0.050000
-0.822689 -0.219017 -0.050000
-0.817468 -0.204786 -0.050000
-0.812662 -0.190891 -0.050000
-0.808425 -0.177318 -0.050000
-0.804764 -0.163774 -0.050000
-0.801669 -0.150303 -0.050000
-0.799102 -0.136732 -0.050000
-0.796973 -0.123071 -0.050000
-0.795211 -0.109270 -0.050000
-0.793728 -0.095332 -0.050000
-0.792455 -0.081260 -0.050000
-0.791336 -0.067068 -0.050000
-0.790326 -0.052778 -0.050000
-0.789402 -0.038411 -0.050000
-0.788543 -0.023987 -0.050000
-0.787745 -0.009529 -0.050000
-0.787005 0.004953 -0.050000
-0.786325 0.019434 -0.050000
-0.785710 0.033911 -0.050000
-0.785168 0.048364 -0.050000
-0.784711 0.062787 -0.050000
-0.784350 0.077169 -0.050000
-0.784106 0.091504 -0.050000
-0.784003 0.105786 -0.050000
-0.784071 0.120017 -0.050000
-0.784342 0.134204 -0.050000
-0.784853 0.148366 -0.050000
-0.785639 0.162525 -0.050000
-0.786714 0.176741 -0.050000
-0.788105 0.191031 -0.050000
-0.789757 0.205557 -0.050000
-0.791632 0.220279 -0.050000
-0.793600 0.235464 -0.050000
-0.795466 0.251045 -0.050000
-0.797010 0.267233 -0.050000
-0.797917 0.283932 -0.050000
-0.797912 0.301122 -0.050000
-0.796756 0.318592 -0.050000
-0.794264 0.336124 -0.050000
-0.790484 0.353432 -0.050000
-0.785524 0.370183 -0.050000
-0.779928 0.386448 -0.050000
-0.774837 0.401645 -0.050000
-0.754495 0.413368 -0.050000
-0.739576 0.410509 -0.050000
-0.724637 0.408023 -0.050000
-0.709304 0.406722 -0.050000
-0.693570 0.405845 -0.050000
-0.677490 0.405421 -0.050000
-0.661107 0.405226 -0.050000
-0.644482 0.405219 -0.050000
-0.627641 0.405299 -0.050000
-0.610637 0.405431 -0.050000
-0.593500 0.405566 -0.050000
-0.576280 0.405690 -0.050000
-0.559003 0.405787 -0.050000
-0.541708 0.405859 -0.050000
-0.524411 0.405905 -0.050000
-0.507140 0.405932 -0.050000
-0.489899 0.405941 -0.050000
-0.472706 0.405939 -0.050000
-0.455557 0.405926 -0.050000
-0.438468 0.405907 -0.050000
-0.421427 0.405884 -0.050000
-0.404447 0.405860 -0.050000
-0.387510 0.405838 -0.050000
-0.370624 0.405823 -0.050000
-0.353768 0.405821 -0.050000
-0.336940 0.405837 -0.050000
-0.320114 0.405877 -0.050000
-0.303281 0.405941 -0.050000
-0.286417 0.406028 -0.050000
-0.269512 0.406127 -0.050000
-0.252556 0.406230 -0.050000
-0.235551 0.406321 -0.050000
-0.218505 0.406390 -0.050000
-0.201430 0.406430 -0.050000
-0.184346 0.406438 -0.050000
-0.167267 0.406415 -0.050000
-0.150212 0.406364 -0.050000
-0.133191 0.406287 -0.050000
-0.116220 0.406187 -0.050000
-0.099305 0.406066 -0.050000
-0.082460 0.405923 -0.050000
-0.065693 0.405757 -0.050000
-0.049014 0.405565 -0.050000
-0.032437 0.405351 -0.050000
-0.015964 0.405109 -0.050000
0.000379 0.404854 -0.050000
0.016617 0.404578 -0.050000
0.032688 0.404306 -0.050000
0.048702 0.404060 -0.050000
0.064595 0.403704 -0.050000
0.080279 0.403550 -0.050000
0.096158 0.403311 -0.050000
0.111683 0.403062 -0.050000
0.127319 0.402982 -0.050000
0.142930 0.402901 -0.050000
0.158534 0.402852 -0.050000
0.174147 0.402811 -0.050000
0.189761 0.402779 -0.050000
0.205389 0.402752 -0.050000
0.221021 0.402747 -0.050000
0.236688 0.402750 -0.050000
0.252301 0.402855 -0.050000
0.268161 0.402967 -0.050000
0.283885 0.403043 -0.050000
0.299829 0.403283 -0.050000
0.315870 0.403409 -0.050000
0.331964 0.403573 -0.050000
0.348240 0.403761 -0.050000
0.364625 0.403938 -0.050000
0.381164 0.404119 -0.050000
0.397828 0.404285 -0.050000
0.414629 0.404444 -0.050000
0.431553 0.404589 -0.050000
0.448598 0.404726 -0.050000
0.465756 0.404854 -0.050000
0.483020 0.404975 -0.050000
0.500383 0.405090 -0.050000
0.517833 0.405197 -0.050000
0.535358 0.405298 -0.050000
0.552939 0.405389 -0.050000
0.570553 0.405470 -0.050000
0.588166 0.405541 -0.050000
0.605744 0.405611 -0.050000
0.623232 0.405691 -0.050000
0.640582 0.405822 -0.050000
0.657724 0.406038 -0.050000
0.674600 0.406444 -0.050000
0.691132 0.407087 -0.050000
0.707243 0.408214 -0.050000
0.722857 0.409787 -0.050000
0.737913 0.412651 -0.050000
0.752913 0.415841 -0.050000
0.758174 0.400007 -0.050000
0.764182 0.384483 -0.050000
0.770171 0.369479 -0.050000
0.775147 0.353805 -0.050000
0.778860 0.337875 -0.050000
0.781052 0.321716 -0.050000
0.781851 0.305593 -0.050000
0.781392 0.289692 -0.050000
0.780021 0.274136 -0.050000
0.778039 0.258886 -0.050000
0.775879 0.244029 -0.050000
0.773811 0.229262 -0.050000
0.772051 0.214755 -0.050000
0.770762 0.200245 -0.050000
0.769949 0.185794 -0.050000
0.769622 0.171359 -0.050000
0.769724 0.156897 -0.050000
0.770179 0.142421 -0.050000
0.770917 0.127896 -0.050000
0.771864 0.113321 -0.050000
0.772964 0.098684 -0.050000
0.774170 0.083982 -0.050000
0.775447 0.069216 -0.050000
0.776769 0.054389 -0.050000
0.778116 0.039507 -0.050000
0.779477 0.024577 -0.050000
0.780841 0.009608 -0.050000
0.782203 -0.005391 -0.050000
0.783560 -0.020411 -0.050000
0.784913 -0.035441 -0.050000
0.786266 -0.050473 -0.050000
0.787629 -0.065494 -0.050000
0.789020 -0.080499 -0.050000
0.790466 -0.095477 -0.050000
0.792012 -0.110426 -0.050000
0.793712 -0.125343 -0.050000
0.795650 -0.140223 -0.050000
0.797901 -0.155091 -0.050000
0.800568 -0.169911 -0.050000
0.803692 -0.184792 -0.050000
0.807309 -0.199627 -0.050000
0.811384 -0.214647 -0.050000
0.815758 -0.229776 -0.050000
0.820299 -0.245234 -0.050000
0.824716 -0.261063 -0.050000
0.828802 -0.277365 -0.050000
0.832312 -0.294154 -0.050000
0.835070 -0.311396 -0.050000
0.836918 -0.329031 -0.050000
0.837747 -0.346948 -0.050000
0.837478 -0.365038 -0.050000
0.836058 -0.383167 -0.050000
0.833464 -0.401204 -0.050000
0.829696 -0.419010 -0.050000
0.824786 -0.436452 -0.050000
0.818802 -0.453402 -0.050000
0.811856 -0.469765 -0.050000
0.804156 -0.485492 -0.050000
0.795878 -0.500618 -0.050000
0.787686 -0.515324 -0.050000
0.779675 -0.529968 -0.050000
0.742557 0.395467 -0.050000
0.748426 0.380786 -0.050000
0.754211 0.365800 -0.050000
0.759148 0.350926 -0.050000
0.762659 0.335676 -0.050000
0.764694 0.320319 -0.050000
0.765249 0.304948 -0.050000
0.764568 0.289684 -0.050000
0.762911 0.274626 -0.050000
0.760750 0.259798 -0.050000
0.758375 0.245027 -0.050000
0.756160 0.230475 -0.050000
0.754350 0.215826 -0.050000
0.752977 0.201199 -0.050000
0.752150 0.186542 -0.050000
0.751823 0.171826 -0.050000
0.751943 0.157099 -0.050000
0.752444 0.142338 -0.050000
0.753240 0.127560 -0.050000
0.754258 0.112757 -0.050000
0.755434 0.097925 -0.050000
0.756716 0.083061 -0.050000
0.758065 0.068162 -0.050000
0.759452 0.053226 -0.050000
0.760858 0.038255 -0.050000
0.762267 0.023251 -0.050000
0.763672 0.008218 -0.050000
0.765065 -0.006840 -0.050000
0.766445 -0.021918 -0.050000
0.767812 -0.037010 -0.050000
0.769174 -0.052112 -0.050000
0.770540 -0.067219 -0.050000
0.771933 -0.082326 -0.050000
0.773383 -0.097433 -0.050000
0.774936 -0.112532 -0.050000
0.776664 -0.127622 -0.050000
0.778636 -0.142701 -0.050000
0.780963 -0.157748 -0.050000
0.783703 -0.172788 -0.050000
0.786971 -0.187753 -0.050000
0.790732 -0.202786 -0.050000
0.794979 -0.217739 -0.050000
0.799622 -0.232867 -0.050000
0.804373 -0.248141 -0.050000
0.809076 -0.263699 -0.050000
0.813392 -0.279622 -0.050000
0.817120 -0.295926 -0.050000
0.820051 -0.312619 -0.050000
0.822042 -0.329625 -0.050000
0.822994 -0.346869 -0.050000
0.822831 -0.364238 -0.050000
0.821513 -0.381619 -0.050000
0.819019 -0.398883 -0.050000
0.815352 -0.415907 -0.050000
0.810540 -0.432568 -0.050000
0.804638 -0.448762 -0.050000
0.797772 -0.464411 -0.050000
0.790081 -0.479510 -0.050000
0.781944 -0.494130 -0.050000
0.773626 -0.508495 -0.050000
0.765633 -0.522985 -0.050000
0.726447 0.393112 -0.050000
0.731845 0.377936 -0.050000
0.737505 0.363389 -0.050000
0.742252 0.348687 -0.050000
0.745682 0.334003 -0.050000
0.747567 0.319180 -0.050000
0.747987 0.304328 -0.050000
0.747130 0.289595 -0.050000
0.745381 0.274907 -0.050000
0.743035 0.260346 -0.050000
0.740651 0.245887 -0.050000
0.738478 0.231316 -0.050000
0.736648 0.216719 -0.050000
0.735361 0.202046 -0.050000
0.734580 0.187228 -0.050000
0.734294 0.172352 -0.050000
0.734459 0.157403 -0.050000
0.734991 0.142419 -0.050000
0.735826 0.127417 -0.050000
0.736883 0.112397 -0.050000
0.738101 0.097371 -0.050000
0.739427 0.082333 -0.050000
0.740820 0.067283 -0.050000
0.742251 0.052217 -0.050000
0.743697 0.037133 -0.050000
0.745143 0.022032 -0.050000
0.746580 0.006911 -0.050000
0.748001 -0.008228 -0.050000
0.749406 -0.023385 -0.050000
0.750796 -0.038558 -0.050000
0.752177 -0.053748 -0.050000
0.753563 -0.068950 -0.050000
0.754976 -0.084167 -0.050000
0.756450 -0.099391 -0.050000
0.758034 -0.114626 -0.050000
0.759785 -0.129854 -0.050000
0.761810 -0.145067 -0.050000
0.764158 -0.160255 -0.050000
0.766967 -0.175386 -0.050000
0.770245 -0.190464 -0.050000
0.774118 -0.205438 -0.050000
0.778465 -0.220477 -0.050000
0.783177 -0.235461 -0.050000
0.788173 -0.250574 -0.050000
0.793017 -0.265924 -0.050000
0.797543 -0.281500 -0.050000
0.801436 -0.297421 -0.050000
0.804509 -0.313616 -0.050000
0.806620 -0.330078 -0.050000
0.807664 -0.346708 -0.050000
0.807583 -0.363424 -0.050000
0.806336 -0.380112 -0.050000
0.803910 -0.396668 -0.050000
0.800306 -0.412974 -0.050000
0.795549 -0.428929 -0.050000
0.789707 -0.444450 -0.050000
0.782867 -0.459498 -0.050000
0.775257 -0.474112 -0.050000
0.767124 -0.488359 -0.050000
0.758888 -0.502540 -0.050000
0.751160 -0.517337 -0.050000
0.709965 0.391462 -0.050000
0.714880 0.376450 -0.050000
0.720178 0.361731 -0.050000
0.724785 0.347307 -0.050000
0.728068 0.332844 -0.050000
0.729860 0.318399 -0.050000
0.730202 0.303981 -0.050000
0.729275 0.289497 -0.050000
0.727412 0.275244 -0.050000
0.725166 0.260843 -0.050000
0.722780 0.246520 -0.050000
0.720635 0.232014 -0.050000
0.718971 0.217531 -0.050000
0.717811 0.202759 -0.050000
0.717153 0.187863 -0.050000
0.716969 0.172836 -0.050000
0.717193 0.157713 -0.050000
0.717779 0.142552 -0.050000
0.718645 0.127345 -0.050000
0.719727 0.112139 -0.050000
0.720966 0.096928 -0.050000
0.722314 0.081722 -0.050000
0.723729 0.066518 -0.050000
0.725183 0.051315 -0.050000
0.726653 0.036110 -0.050000
0.728124 0.020898 -0.050000
0.729585 0.005677 -0.050000
0.731031 -0.009556 -0.050000
0.732460 -0.024803 -0.050000
0.733875 -0.040067 -0.050000
0.735283 -0.055347 -0.050000
0.736697 -0.070647 -0.050000
0.738141 -0.085964 -0.050000
0.739645 -0.101299 -0.050000
0.741259 -0.116636 -0.050000
0.743050 -0.131985 -0.050000
0.745063 -0.147301 -0.050000
0.747454 -0.162572 -0.050000
0.750234 -0.177780 -0.050000
0.753534 -0.192918 -0.050000
0.757337 -0.207894 -0.050000
0.761767 -0.222805 -0.050000
0.766639 -0.237725 -0.050000
0.771617 -0.252769 -0.050000
0.776669 -0.267808 -0.050000
0.781300 -0.283179 -0.050000
0.785306 -0.298704 -0.050000
0.788486 -0.314491 -0.050000
0.790669 -0.330445 -0.050000
0.791776 -0.346529 -0.050000
0.791737 -0.362647 -0.050000
0.790528 -0.378714 -0.050000
0.788130 -0.394626 -0.050000
0.784551 -0.410295 -0.050000
0.779819 -0.425642 -0.050000
0.773987 -0.440615 -0.050000
0.767186 -0.455216 -0.050000
0.759596 -0.469473 -0.050000
0.751526 -0.483566 -0.050000
0.743519 -0.497782 -0.050000
0.736231 -0.512752 -0.050000
0.693275 0.390671 -0.050000
0.697611 0.375570 -0.050000
0.702551 0.360939 -0.050000
0.706885 0.346511 -0.050000
0.710027 0.332259 -0.050000
0.711726 0.318051 -0.050000
0.711994 0.303836 -0.050000
0.711100 0.289857 -0.050000
0.709337 0.275369 -0.050000
0.707004 0.261597 -0.050000
0.704767 0.246876 -0.050000
0.702797 0.232803 -0.050000
0.701340 0.218161 -0.050000
0.700352 0.203350 -0.050000
0.699856 0.188387 -0.050000
0.699788 0.173200 -0.050000
0.700117 0.157983 -0.050000
0.700763 0.142625 -0.050000
0.701664 0.127269 -0.050000
0.702765 0.111891 -0.050000
0.704015 0.096522 -0.050000
0.705369 0.081162 -0.050000
0.706791 0.065815 -0.050000
0.708253 0.050479 -0.050000
0.709734 0.035152 -0.050000
0.711218 0.019828 -0.050000
0.712695 0.004503 -0.050000
0.714161 -0.010827 -0.050000
0.715612 -0.026168 -0.050000
0.717052 -0.041521 -0.050000
0.718487 -0.056893 -0.050000
0.719933 -0.072282 -0.050000
0.721407 -0.087691 -0.050000
0.722944 -0.103112 -0.050000
0.724584 -0.118547 -0.050000
0.726385 -0.133964 -0.050000
0.728444 -0.149386 -0.050000
0.730749 -0.164739 -0.050000
0.733516 -0.180006 -0.050000
0.736775 -0.195131 -0.050000
0.740568 -0.210252 -0.050000
0.744883 -0.224981 -0.050000
0.749731 -0.239965 -0.050000
0.755005 -0.254566 -0.050000
0.760009 -0.269700 -0.050000
0.764704 -0.284658 -0.050000
0.768783 -0.299923 -0.050000
0.771998 -0.315293 -0.050000
0.774223 -0.330812 -0.050000
0.775341 -0.346391 -0.050000
0.775313 -0.361976 -0.050000
0.774099 -0.377482 -0.050000
0.771697 -0.392835 -0.050000
0.768112 -0.407964 -0.050000
0.763372 -0.422816 -0.050000
0.757549 -0.437373 -0.050000
0.750761 -0.451646 -0.050000
0.743223 -0.465738 -0.050000
0.735321 -0.479801 -0.050000
0.727585 -0.494103 -0.050000
0.720867 -0.509301 -0.050000
0.676318 0.390201 -0.050000
0.680188 0.375245 -0.050000
0.684689 0.360596 -0.050000
0.688735 0.346262 -0.050000
0.691683 0.332103 -0.050000
0.693279 0.318048 -0.050000
0.693534 0.304100 -0.050000
0.692631 0.290057 -0.050000
0.690963 0.276590 -0.050000
0.688984 0.261215 -0.050000
0.686784 0.247743 -0.050000
0.685115 0.233249 -0.050000
0.683911 0.218665 -0.050000
0.683140 0.203758 -0.050000
0.682715 0.188540 -0.050000
0.682752 0.173523 -0.050000
0.683193 0.158058 -0.050000
0.683908 0.142612 -0.050000
0.684850 0.127104 -0.050000
0.685970 0.111599 -0.050000
0.687225 0.096092 -0.050000
0.688577 0.080601 -0.050000
0.689996 0.065127 -0.050000
0.691455 0.049671 -0.050000
0.692936 0.034230 -0.050000
0.694424 0.018800 -0.050000
0.695911 0.003375 -0.050000
0.697389 -0.012050 -0.050000
0.698859 -0.027480 -0.050000
0.700321 -0.042920 -0.050000
0.701783 -0.058373 -0.050000
0.703255 -0.073844 -0.050000
0.704760 -0.089328 -0.050000
0.706320 -0.104827 -0.050000
0.707980 -0.120325 -0.050000
0.709792 -0.135826 -0.050000
0.711822 -0.151268 -0.050000
0.714242 -0.166688 -0.050000
0.716998 -0.181922 -0.050000
0.720229 -0.197138 -0.050000
0.724000 -0.212089 -0.050000
0.728307 -0.227032 -0.050000
0.733262 -0.241152 -0.050000
0.738079 -0.256877 -0.050000
0.743104 -0.271284 -0.050000
0.747805 -0.286193 -0.050000
0.751870 -0.301078 -0.050000
0.755096 -0.316125 -0.050000
0.757291 -0.331223 -0.050000
0.758392 -0.346360 -0.050000
0.758327 -0.361466 -0.050000
0.757083 -0.376487 -0.050000
0.754648 -0.391363 -0.050000
0.751035 -0.406047 -0.050000
0.746282 -0.420514 -0.050000
0.740462 -0.434763 -0.050000
0.733715 -0.448852 -0.050000
0.726299 -0.462873 -0.050000
0.718598 -0.476971 -0.050000
0.711250 -0.491419 -0.050000
0.705149 -0.506714 -0.050000
0.659150 0.390024 -0.050000
0.662585 0.375148 -0.050000
0.666683 0.360594 -0.050000
0.670397 0.346312 -0.050000
0.673133 0.332245 -0.050000
0.674633 0.318334 -0.050000
0.674863 0.304437 -0.050000
0.674075 0.290707 -0.050000
0.672383 0.276944 -0.050000
0.670488 0.262093 -0.050000
0.668771 0.247933 -0.050000
0.667290 0.233780 -0.050000
0.666282 0.218945 -0.050000
0.665738 0.203927 -0.050000
0.665643 0.188571 -0.050000
0.665871 0.173520 -0.050000
0.666388 0.158004 -0.050000
0.667187 0.142416 -0.050000
0.668170 0.126823 -0.050000
0.669312 0.111206 -0.050000
0.670570 0.095597 -0.050000
0.671917 0.079998 -0.050000
0.673325 0.064419 -0.050000
0.674776 0.048860 -0.050000
0.676250 0.033319 -0.050000
0.677736 0.017793 -0.050000
0.679225 0.002278 -0.050000
0.680712 -0.013233 -0.050000
0.682194 -0.028745 -0.050000
0.683674 -0.044263 -0.050000
0.685156 -0.059790 -0.050000
0.686654 -0.075329 -0.050000
0.688178 -0.090879 -0.050000
0.689760 -0.106435 -0.050000
0.691427 -0.121994 -0.050000
0.693237 -0.137536 -0.050000
0.695259 -0.153043 -0.050000
0.697534 -0.168441 -0.050000
0.700230 -0.183833 -0.050000
0.703358 -0.199031 -0.050000
0.707020 -0.214142 -0.050000
0.711231 -0.228874 -0.050000
0.715869 -0.243582 -0.050000
0.720909 -0.258632 -0.050000
0.725995 -0.273090 -0.050000
0.730590 -0.287612 -0.050000
0.734628 -0.302304 -0.050000
0.737773 -0.316994 -0.050000
0.739920 -0.331739 -0.050000
0.740947 -0.346471 -0.050000
0.740825 -0.361164 -0.050000
0.739520 -0.375769 -0.050000
0.737037 -0.390249 -0.050000
0.733392 -0.404579 -0.050000
0.728628 -0.418753 -0.050000
0.722836 -0.432801 -0.050000
0.716180 -0.446781 -0.050000
0.708924 -0.460790 -0.050000
0.701513 -0.474969 -0.050000
0.694600 -0.489508 -0.050000
0.689090 -0.504829 -0.050000
0.641784 0.389965 -0.050000
0.644846 0.375208 -0.050000
0.648542 0.360720 -0.050000
0.651933 0.346515 -0.050000
0.654454 0.332532 -0.050000
0.655839 0.318667 -0.050000
0.656112 0.304912 -0.050000
0.655307 0.291142 -0.050000
0.653917 0.277294 -0.050000
0.652345 0.262341 -0.050000
0.650710 0.248429 -0.050000
0.649607 0.233791 -0.050000
0.648872 0.219018 -0.050000
0.648569 0.203858 -0.050000
0.648641 0.188460 -0.050000
0.649046 0.173269 -0.050000
0.649703 0.157710 -0.050000
0.650559 0.142058 -0.050000
0.651597 0.126382 -0.050000
0.652757 0.110696 -0.050000
0.654021 0.095006 -0.050000
0.655361 0.079327 -0.050000
0.656759 0.063664 -0.050000
0.658196 0.048022 -0.050000
0.659660 0.032398 -0.050000
0.661139 0.016791 -0.050000
0.662626 0.001197 -0.050000
0.664116 -0.014390 -0.050000
0.665606 -0.029973 -0.050000
0.667098 -0.045558 -0.050000
0.668597 -0.061148 -0.050000
0.670109 -0.076744 -0.050000
0.671652 -0.092347 -0.050000
0.673242 -0.107953 -0.050000
0.674917 -0.123555 -0.050000
0.676715 -0.139139 -0.050000
0.678691 -0.154691 -0.050000
0.680950 -0.170125 -0.050000
0.683538 -0.185536 -0.050000
0.686583 -0.200825 -0.050000
0.690126 -0.215885 -0.050000
0.694173 -0.230809 -0.050000
0.698844 -0.245265 -0.050000
0.703626 -0.260364 -0.050000
0.708564 -0.274766 -0.050000
0.713159 -0.289113 -0.050000
0.717030 -0.303522 -0.050000
0.720092 -0.317954 -0.050000
0.722118 -0.332365 -0.050000
0.723057 -0.346756 -0.050000
0.722841 -0.361091 -0.050000
0.721466 -0.375348 -0.050000
0.718928 -0.389507 -0.050000
0.715256 -0.403560 -0.050000
0.710504 -0.417523 -0.050000
0.704778 -0.431433 -0.050000
0.698251 -0.445357 -0.050000
0.691225 -0.459387 -0.050000
0.684150 -0.473621 -0.050000
0.677688 -0.488203 -0.050000
0.672723 -0.503480 -0.050000
0.624274 0.389981 -0.050000
0.626989 0.375296 -0.050000
0.630313 0.360882 -0.050000
0.633387 0.346736 -0.050000
0.635691 0.332789 -0.050000
0.637011 0.318986 -0.050000
0.637257 0.305211 -0.050000
0.636712 0.291374 -0.050000
0.635496 0.277532 -0.050000
0.634159 0.262511 -0.050000
0.632949 0.248376 -0.050000
0.632033 0.233772 -0.050000
0.631576 0.218760 -0.050000
0.631491 0.203572 -0.050000
0.631765 0.188069 -0.050000
0.632297 0.172837 -0.050000
0.633070 0.157197 -0.050000
0.634016 0.141514 -0.050000
0.635092 0.125789 -0.050000
0.636282 0.110052 -0.050000
0.637551 0.094310 -0.050000
0.638888 0.078573 -0.050000
0.640274 0.062849 -0.050000
0.641699 0.047142 -0.050000
0.643151 0.031453 -0.050000
0.644621 0.015780 -0.050000
0.646102 0.000121 -0.050000
0.647591 -0.015529 -0.050000
0.649084 -0.031172 -0.050000
0.650584 -0.046814 -0.050000
0.652091 -0.062456 -0.050000
0.653616 -0.078100 -0.050000
0.655166 -0.093746 -0.050000
0.656765 -0.109392 -0.050000
0.658434 -0.125028 -0.050000
0.660218 -0.140652 -0.050000
0.662174 -0.156239 -0.050000
0.664364 -0.171696 -0.050000
0.666897 -0.187161 -0.050000
0.669830 -0.202462 -0.050000
0.673245 -0.217612 -0.050000
0.677185 -0.232484 -0.050000
0.681606 -0.247026 -0.050000
0.686303 -0.262044 -0.050000
0.691042 -0.276295 -0.050000
0.695399 -0.290603 -0.050000
0.699176 -0.304785 -0.050000
0.702046 -0.318971 -0.050000
0.703948 -0.333114 -0.050000
0.704751 -0.347209 -0.050000
0.704436 -0.361249 -0.050000
0.702978 -0.375222 -0.050000
0.700392 -0.389124 -0.050000
0.696710 -0.402966 -0.050000
0.691999 -0.416772 -0.050000
0.686374 -0.430589 -0.050000
0.680031 -0.444483 -0.050000
0.673274 -0.458525 -0.050000
0.666564 -0.472787 -0.050000
0.660546 -0.487357 -0.050000
0.656059 -0.502540 -0.050000
0.606653 0.390000 -0.050000
0.609060 0.375369 -0.050000
0.612032 0.360995 -0.050000
0.614806 0.346876 -0.050000
0.616925 0.332954 -0.050000
0.618148 0.319130 -0.050000
0.618525 0.305308 -0.050000
0.618080 0.291489 -0.050000
0.617177 0.277416 -0.050000
0.616205 0.262411 -0.050000
0.615206 0.248153 -0.050000
0.614633 0.233389 -0.050000
0.614381 0.218336 -0.050000
0.614516 0.203020 -0.050000
0.614950 0.187488 -0.050000
0.615626 0.172180 -0.050000
0.616496 0.156522 -0.050000
0.617516 0.140795 -0.050000
0.618645 0.125050 -0.050000
0.619857 0.109281 -0.050000
0.621138 0.093506 -0.050000
0.622472 0.077732 -0.050000
0.623852 0.061965 -0.050000
0.625264 0.046212 -0.050000
0.626705 0.030474 -0.050000
0.628164 0.014751 -0.050000
0.629639 -0.000959 -0.050000
0.631123 -0.016659 -0.050000
0.632617 -0.032351 -0.050000
0.634118 -0.048039 -0.050000
0.635632 -0.063724 -0.050000
0.637160 -0.079407 -0.050000
0.638717 -0.095090 -0.050000
0.640313 -0.110766 -0.050000
0.641978 -0.126436 -0.050000
0.643746 -0.142085 -0.050000
0.645667 -0.157707 -0.050000
0.647815 -0.173184 -0.050000
0.650261 -0.188681 -0.050000
0.653093 -0.204031 -0.050000
0.656379 -0.219191 -0.050000
0.660125 -0.234117 -0.050000
0.664397 -0.248625 -0.050000
0.668812 -0.263620 -0.050000
0.673342 -0.277876 -0.050000
0.677493 -0.291980 -0.050000
0.681007 -0.306081 -0.050000
0.683722 -0.320044 -0.050000
0.685430 -0.333966 -0.050000
0.686097 -0.347822 -0.050000
0.685660 -0.361621 -0.050000
0.684124 -0.375365 -0.050000
0.681499 -0.389066 -0.050000
0.677828 -0.402744 -0.050000
0.673187 -0.416434 -0.050000
0.667703 -0.430182 -0.050000
0.661578 -0.444046 -0.050000
0.655122 -0.458084 -0.050000
0.648786 -0.472337 -0.050000
0.643187 -0.486857 -0.050000
0.639118 -0.501920 -0.050000
0.588971 0.390001 -0.050000
0.591095 0.375384 -0.050000
0.593742 0.361022 -0.050000
0.596246 0.346903 -0.050000
0.598180 0.332952 -0.050000
0.599391 0.319084 -0.050000
0.599798 0.305237 -0.050000
0.599616 0.291228 -0.050000
0.598976 0.277190 -0.050000
0.598286 0.261991 -0.050000
0.597652 0.247681 -0.050000
0.597298 0.232817 -0.050000
0.597307 0.217664 -0.050000
0.597610 0.202306 -0.050000
0.598210 0.186707 -0.050000
0.598995 0.171371 -0.050000
0.599967 0.155676 -0.050000
0.601052 0.139942 -0.050000
0.602227 0.124177 -0.050000
0.603468 0.108397 -0.050000
0.604760 0.092603 -0.050000
0.606098 0.076807 -0.050000
0.607471 0.061015 -0.050000
0.608876 0.045231 -0.050000
0.610306 0.029459 -0.050000
0.611756 0.013699 -0.050000
0.613223 -0.002049 -0.050000
0.614702 -0.017788 -0.050000
0.616192 -0.033518 -0.050000
0.617694 -0.049242 -0.050000
0.619207 -0.064961 -0.050000
0.620738 -0.080677 -0.050000
0.622293 -0.096387 -0.050000
0.623887 -0.112092 -0.050000
0.625541 -0.127784 -0.050000
0.627291 -0.143463 -0.050000
0.629179 -0.159106 -0.050000
0.631270 -0.174603 -0.050000
0.633641 -0.190132 -0.050000
0.636363 -0.205506 -0.050000
0.639493 -0.220699 -0.050000
0.643066 -0.235637 -0.050000
0.647077 -0.250143 -0.050000
0.651269 -0.265149 -0.050000
0.655497 -0.279309 -0.050000
0.659372 -0.293412 -0.050000
0.662656 -0.307319 -0.050000
0.665110 -0.321172 -0.050000
0.666640 -0.334901 -0.050000
0.667133 -0.348569 -0.050000
0.666579 -0.362175 -0.050000
0.664963 -0.375740 -0.050000
0.662313 -0.389283 -0.050000
0.658674 -0.402834 -0.050000
0.654133 -0.416430 -0.050000
0.648819 -0.430118 -0.050000
0.642940 -0.443946 -0.050000
0.636799 -0.457957 -0.050000
0.630834 -0.472172 -0.050000
0.625626 -0.486615 -0.050000
0.621921 -0.501547 -0.050000
0.571266 0.389964 -0.050000
0.573134 0.375336 -0.050000
0.575487 0.360954 -0.050000
0.577736 0.346797 -0.050000
0.579536 0.332793 -0.050000
0.580692 0.318867 -0.050000
0.581243 0.304884 -0.050000
0.581232 0.290874 -0.050000
0.580887 0.276616 -0.050000
0.580538 0.261425 -0.050000
0.580158 0.246978 -0.050000
0.580097 0.232056 -0.050000
0.580293 0.216835 -0.050000
0.580788 0.201420 -0.050000
0.581514 0.185793 -0.050000
0.582415 0.170418 -0.050000
0.583462 0.154714 -0.050000
0.584612 0.138965 -0.050000
0.585829 0.123199 -0.050000
0.587097 0.107412 -0.050000
0.588405 0.091613 -0.050000
0.589747 0.075807 -0.050000
0.591120 0.060001 -0.050000
0.592518 0.044200 -0.050000
0.593941 0.028406 -0.050000
0.595383 0.012622 -0.050000
0.596842 -0.003154 -0.050000
0.598316 -0.018920 -0.050000
0.599802 -0.034678 -0.050000
0.601300 -0.050429 -0.050000
0.602813 -0.066176 -0.050000
0.604341 -0.081915 -0.050000
0.605893 -0.097650 -0.050000
0.607480 -0.113375 -0.050000
0.609123 -0.129091 -0.050000
0.610850 -0.144787 -0.050000
0.612703 -0.160456 -0.050000
0.614740 -0.175963 -0.050000
0.617026 -0.191519 -0.050000
0.619629 -0.206914 -0.050000
0.622606 -0.222129 -0.050000
0.625962 -0.237075 -0.050000
0.629735 -0.251587 -0.050000
0.633617 -0.266567 -0.050000
0.637548 -0.280741 -0.050000
0.641110 -0.294725 -0.050000
0.644092 -0.308602 -0.050000
0.646305 -0.322293 -0.050000
0.647598 -0.335906 -0.050000
0.647925 -0.349418 -0.050000
0.647240 -0.362877 -0.050000
0.645554 -0.376299 -0.050000
0.642890 -0.389717 -0.050000
0.639305 -0.403164 -0.050000
0.634884 -0.416681 -0.050000
0.629765 -0.430309 -0.050000
0.624147 -0.444089 -0.050000
0.618328 -0.458055 -0.050000
0.612723 -0.472212 -0.050000
0.607879 -0.486565 -0.050000
0.604492 -0.501363 -0.050000
0.553573 0.389893 -0.050000
0.555212 0.375224 -0.050000
0.557294 0.360795 -0.050000
0.559327 0.346575 -0.050000
0.560984 0.332497 -0.050000
0.562154 0.318459 -0.050000
0.562784 0.304424 -0.050000
0.563005 0.290236 -0.050000
0.562935 0.275954 -0.050000
0.562862 0.260624 -0.050000
0.562795 0.246146 -0.050000
0.562952 0.231133 -0.050000
0.563369 0.215873 -0.050000
0.564008 0.200414 -0.050000
0.564869 0.184761 -0.050000
0.565855 0.169364 -0.050000
0.566983 0.153648 -0.050000
0.568184 0.137899 -0.050000
0.569441 0.122132 -0.050000
0.570735 0.106348 -0.050000
0.572059 0.090549 -0.050000
0.573410 0.074743 -0.050000
0.574783 0.058933 -0.050000
0.576180 0.043123 -0.050000
0.577597 0.027318 -0.050000
0.579033 0.011519 -0.050000
0.580486 -0.004272 -0.050000
0.581954 -0.020057 -0.050000
0.583436 -0.035834 -0.050000
0.584930 -0.051606 -0.050000
0.586439 -0.067370 -0.050000
0.587964 -0.083130 -0.050000
0.589510 -0.098881 -0.050000
0.591089 -0.114626 -0.050000
0.592717 -0.130355 -0.050000
0.594422 -0.146072 -0.050000
0.596236 -0.161755 -0.050000
0.598213 -0.177275 -0.050000
0.600413 -0.192847 -0.050000
0.602893 -0.208264 -0.050000
0.605696 -0.223486 -0.050000
0.608839 -0.238450 -0.050000
0.612327 -0.252941 -0.050000
0.615911 -0.267944 -0.050000
0.619489 -0.282065 -0.050000
0.622719 -0.296050 -0.050000
0.625387 -0.309810 -0.050000
0.627307 -0.323450 -0.050000
0.628373 -0.336934 -0.050000
0.628507 -0.350341 -0.050000
0.627697 -0.363679 -0.050000
0.625943 -0.376990 -0.050000
0.623279 -0.390306 -0.050000
0.619761 -0.403666 -0.050000
0.615480 -0.417109 -0.050000
0.610568 -0.430675 -0.050000
0.605222 -0.444399 -0.050000
0.599723 -0.458305 -0.050000
0.594466 -0.472392 -0.050000
0.589961 -0.486652 -0.050000
0.586857 -0.501319 -0.050000
0.535921 0.389786 -0.050000
0.537353 0.375059 -0.050000
0.539196 0.360562 -0.050000
0.541024 0.346259 -0.050000
0.542586 0.332076 -0.050000
0.543738 0.317952 -0.050000
0.544498 0.303768 -0.050000
0.544906 0.289531 -0.050000
0.545099 0.275087 -0.050000
0.545317 0.259741 -0.050000
0.545498 0.245158 -0.050000
0.545900 0.230115 -0.050000
0.546488 0.214798 -0.050000
0.547284 0.199318 -0.050000
0.548248 0.183641 -0.050000
0.549327 0.168231 -0.050000
0.550513 0.152508 -0.050000
0.551766 0.136760 -0.050000
0.553056 0.120997 -0.050000
0.554376 0.105219 -0.050000
0.555716 0.089427 -0.050000
0.557076 0.073626 -0.050000
0.558454 0.057818 -0.050000
0.559850 0.042009 -0.050000
0.561265 0.026200 -0.050000
0.562696 0.010396 -0.050000
0.564145 -0.005405 -0.050000
0.565608 -0.021199 -0.050000
0.567085 -0.036989 -0.050000
0.568576 -0.052772 -0.050000
0.570080 -0.068550 -0.050000
0.571600 -0.084321 -0.050000
0.573140 -0.100087 -0.050000
0.574709 -0.115841 -0.050000
0.576322 -0.131587 -0.050000
0.578000 -0.147313 -0.050000
0.579774 -0.163014 -0.050000
0.581690 -0.178532 -0.050000
0.583797 -0.194126 -0.050000
0.586145 -0.209548 -0.050000
0.588772 -0.224788 -0.050000
0.591680 -0.239745 -0.050000
0.594880 -0.254245 -0.050000
0.598130 -0.269225 -0.050000
0.601353 -0.283363 -0.050000
0.604218 -0.297278 -0.050000
0.606547 -0.311023 -0.050000
0.608171 -0.324562 -0.050000
0.608980 -0.337986 -0.050000
0.608927 -0.351291 -0.050000
0.607985 -0.364540 -0.050000
0.606171 -0.377759 -0.050000
0.603515 -0.390990 -0.050000
0.600078 -0.404272 -0.050000
0.595948 -0.417645 -0.050000
0.591254 -0.431146 -0.050000
0.586183 -0.444808 -0.050000
0.581001 -0.458648 -0.050000
0.576078 -0.472660 -0.050000
0.571893 -0.486828 -0.050000
0.569042 -0.501374 -0.050000
0.518333 0.389654 -0.050000
0.519582 0.374850 -0.050000
0.521206 0.360270 -0.050000
0.522863 0.345864 -0.050000
0.524321 0.331579 -0.050000
0.525494 0.317320 -0.050000
0.526348 0.303053 -0.050000
0.526954 0.288669 -0.050000
0.527392 0.274169 -0.050000
0.527854 0.258724 -0.050000
0.528297 0.244106 -0.050000
0.528898 0.228994 -0.050000
0.529668 0.213658 -0.050000
0.530589 0.198144 -0.050000
0.531661 0.182461 -0.050000
0.532809 0.167033 -0.050000
0.534056 0.151313 -0.050000
0.535348 0.135566 -0.050000
0.536671 0.119812 -0.050000
0.538013 0.104042 -0.050000
0.539370 0.088261 -0.050000
0.540740 0.072468 -0.050000
0.542123 0.056668 -0.050000
0.543522 0.040863 -0.050000
0.544936 0.025058 -0.050000
0.546366 0.009254 -0.050000
0.547811 -0.006548 -0.050000
0.549270 -0.022346 -0.050000
0.550743 -0.038139 -0.050000
0.552230 -0.053929 -0.050000
0.553729 -0.069712 -0.050000
0.555244 -0.085492 -0.050000
0.556777 -0.101262 -0.050000
0.558335 -0.117027 -0.050000
0.559930 -0.132776 -0.050000
0.561581 -0.148515 -0.050000
0.563313 -0.164219 -0.050000
0.565162 -0.179744 -0.050000
0.567173 -0.195342 -0.050000
0.569384 -0.210780 -0.050000
0.571824 -0.226014 -0.050000
0.574489 -0.240985 -0.050000
0.577384 -0.255456 -0.050000
0.580294 -0.270460 -0.050000
0.583134 -0.284562 -0.050000
0.585626 -0.298478 -0.050000
0.587597 -0.312150 -0.050000
0.588906 -0.325660 -0.050000
0.589459 -0.338999 -0.050000
0.589206 -0.352242 -0.050000
0.588138 -0.365409 -0.050000
0.586267 -0.378552 -0.050000
0.583629 -0.391708 -0.050000
0.580282 -0.404920 -0.050000
0.576312 -0.418225 -0.050000
0.571842 -0.431662 -0.050000
0.567047 -0.445258 -0.050000
0.562178 -0.459031 -0.050000
0.557580 -0.472971 -0.050000
0.553695 -0.487056 -0.050000
0.551073 -0.501493 -0.050000
0.500825 0.389497 -0.050000
0.501910 0.374609 -0.050000
0.503344 0.359930 -0.050000
0.504840 0.345418 -0.050000
0.506224 0.331003 -0.050000
0.507398 0.316638 -0.050000
0.508361 0.302228 -0.050000
0.509136 0.287768 -0.050000
0.509799 0.273141 -0.050000
0.510498 0.257665 -0.050000
0.511161 0.242965 -0.050000
0.511962 0.227828 -0.050000
0.512882 0.212448 -0.050000
0.513931 0.196927 -0.050000
0.515088 0.181226 -0.050000
0.516308 0.165798 -0.050000
0.517600 0.150072 -0.050000
0.518931 0.134336 -0.050000
0.520281 0.118588 -0.050000
0.521644 0.102832 -0.050000
0.523016 0.087060 -0.050000
0.524396 0.071281 -0.050000
0.525787 0.055491 -0.050000
0.527189 0.039697 -0.050000
0.528604 0.023899 -0.050000
0.530033 0.008101 -0.050000
0.531477 -0.007697 -0.050000
0.532933 -0.023492 -0.050000
0.534403 -0.039285 -0.050000
0.535885 -0.055072 -0.050000
0.537380 -0.070857 -0.050000
0.538889 -0.086635 -0.050000
0.540413 -0.102409 -0.050000
0.541961 -0.118171 -0.050000
0.543537 -0.133927 -0.050000
0.545160 -0.149663 -0.050000
0.546845 -0.165378 -0.050000
0.548626 -0.180887 -0.050000
0.550535 -0.196501 -0.050000
0.552604 -0.211931 -0.050000
0.554847 -0.227179 -0.050000
0.557262 -0.242130 -0.050000
0.559837 -0.256610 -0.050000
0.562394 -0.271586 -0.050000
0.564844 -0.285706 -0.050000
0.566942 -0.299567 -0.050000
0.568549 -0.313227 -0.050000
0.569534 -0.326667 -0.050000
0.569820 -0.339966 -0.050000
0.569371 -0.353136 -0.050000
0.568177 -0.366241 -0.050000
0.566257 -0.379315 -0.050000
0.563645 -0.392404 -0.050000
0.560397 -0.405550 -0.050000
0.556594 -0.418793 -0.050000
0.552352 -0.432167 -0.050000
0.547835 -0.445701 -0.050000
0.543275 -0.459411 -0.050000
0.538991 -0.473286 -0.050000
0.535392 -0.487300 -0.050000
0.532980 -0.501645 -0.050000
0.483413 0.389323 -0.050000
0.484353 0.374338 -0.050000
0.485614 0.359556 -0.050000
0.486973 0.344920 -0.050000
0.488281 0.330388 -0.050000
0.489471 0.315883 -0.050000
0.490521 0.301373 -0.050000
0.491457 0.286782 -0.050000
0.492321 0.272088 -0.050000
0.493225 0.256530 -0.050000
0.494101 0.241792 -0.050000
0.495071 0.226600 -0.050000
0.496138 0.211208 -0.050000
0.497292 0.195661 -0.050000
0.498535 0.179965 -0.050000
0.499810 0.164524 -0.050000
0.501148 0.148810 -0.050000
0.502509 0.133076 -0.050000
0.503883 0.117343 -0.050000
0.505265 0.101596 -0.050000
0.506650 0.085841 -0.050000
0.508042 0.070073 -0.050000
0.509439 0.054298 -0.050000
0.510847 0.038516 -0.050000
0.512264 0.022730 -0.050000
0.513694 0.006942 -0.050000
0.515136 -0.008846 -0.050000
0.516590 -0.024633 -0.050000
0.518057 -0.040417 -0.050000
0.519535 -0.056199 -0.050000
0.521026 -0.071976 -0.050000
0.522528 -0.087749 -0.050000
0.524045 -0.103514 -0.050000
0.525577 -0.119275 -0.050000
0.527136 -0.135020 -0.050000
0.528727 -0.150759 -0.050000
0.530365 -0.166462 -0.050000
0.532074 -0.181968 -0.050000
0.533878 -0.197572 -0.050000
0.535795 -0.213012 -0.050000
0.537840 -0.228239 -0.050000
0.539988 -0.243201 -0.050000
0.542245 -0.257636 -0.050000
0.544430 -0.272638 -0.050000
0.546475 -0.286716 -0.050000
0.548176 -0.300574 -0.050000
0.549403 -0.314173 -0.050000
0.550062 -0.327586 -0.050000
0.550080 -0.340819 -0.050000
0.549435 -0.353940 -0.050000
0.548123 -0.366979 -0.050000
0.546161 -0.379993 -0.050000
0.543584 -0.393021 -0.050000
0.540444 -0.406108 -0.050000
0.536817 -0.419293 -0.050000
0.532808 -0.432612 -0.050000
0.528569 -0.446092 -0.050000
0.524314 -0.459748 -0.050000
0.520336 -0.473570 -0.050000
0.517011 -0.487531 -0.050000
0.514792 -0.501802 -0.050000
0.466104 0.389133 -0.050000
0.466917 0.374047 -0.050000
0.468025 0.359149 -0.050000
0.469259 0.344393 -0.050000
0.470504 0.329722 -0.050000
0.471701 0.315099 -0.050000
0.472834 0.300451 -0.050000
0.473907 0.285774 -0.050000
0.474952 0.270968 -0.050000
0.476043 0.255374 -0.050000
0.477102 0.240564 -0.050000
0.478230 0.225351 -0.050000
0.479420 0.209925 -0.050000
0.480676 0.194378 -0.050000
0.481985 0.178670 -0.050000
0.483318 0.163238 -0.050000
0.484689 0.147523 -0.050000
0.486079 0.131807 -0.050000
0.487475 0.116081 -0.050000
0.488872 0.100352 -0.050000
0.490272 0.084609 -0.050000
0.491672 0.068859 -0.050000
0.493079 0.053098 -0.050000
0.494490 0.037332 -0.050000
0.495911 0.021560 -0.050000
0.497341 0.005788 -0.050000
0.498782 -0.009987 -0.050000
0.500234 -0.025759 -0.050000
0.501697 -0.041530 -0.050000
0.503172 -0.057298 -0.050000
0.504656 -0.073062 -0.050000
0.506152 -0.088820 -0.050000
0.507658 -0.104574 -0.050000
0.509179 -0.120316 -0.050000
0.510713 -0.136055 -0.050000
0.512274 -0.151773 -0.050000
0.513860 -0.167474 -0.050000
0.515496 -0.182946 -0.050000
0.517190 -0.198555 -0.050000
0.518956 -0.213970 -0.050000
0.520785 -0.229204 -0.050000
0.522674 -0.244126 -0.050000
0.524581 -0.258568 -0.050000
0.526396 -0.273525 -0.050000
0.528029 -0.287617 -0.050000
0.529315 -0.301410 -0.050000
0.530168 -0.314990 -0.050000
0.530490 -0.328337 -0.050000
0.530248 -0.341529 -0.050000
0.529412 -0.354586 -0.050000
0.527990 -0.367573 -0.050000
0.525998 -0.380528 -0.050000
0.523468 -0.393502 -0.050000
0.520447 -0.406538 -0.050000
0.517003 -0.419675 -0.050000
0.513233 -0.432949 -0.050000
0.509274 -0.446388 -0.050000
0.505321 -0.460005 -0.050000
0.501642 -0.473792 -0.050000
0.498581 -0.487720 -0.050000
0.496541 -0.501939 -0.050000
0.448909 0.388927 -0.050000
0.449609 0.373733 -0.050000
0.450583 0.358718 -0.050000
0.451704 0.343827 -0.050000
0.452890 0.329028 -0.050000
0.454092 0.314262 -0.050000
0.455293 0.299508 -0.050000
0.456487 0.284704 -0.050000
0.457688 0.269832 -0.050000
0.458943 0.254163 -0.050000
0.460163 0.239318 -0.050000
0.461429 0.224058 -0.050000
0.462732 0.208626 -0.050000
0.464069 0.193063 -0.050000
0.465447 0.177370 -0.050000
0.466819 0.161928 -0.050000
0.468226 0.146236 -0.050000
0.469639 0.130525 -0.050000
0.471052 0.114821 -0.050000
0.472466 0.099104 -0.050000
0.473876 0.083381 -0.050000
0.475288 0.067646 -0.050000
0.476699 0.051905 -0.050000
0.478117 0.036155 -0.050000
0.479539 0.020403 -0.050000
0.480970 0.004648 -0.050000
0.482409 -0.011106 -0.050000
0.483858 -0.026859 -0.050000
0.485317 -0.042609 -0.050000
0.486785 -0.058357 -0.050000
0.488264 -0.074098 -0.050000
0.489749 -0.089835 -0.050000
0.491246 -0.105564 -0.050000
0.492747 -0.121286 -0.050000
0.494264 -0.136995 -0.050000
0.495786 -0.152699 -0.050000
0.497321 -0.168367 -0.050000
0.498882 -0.183815 -0.050000
0.500464 -0.199396 -0.050000
0.502065 -0.214806 -0.050000
0.503689 -0.229997 -0.050000
0.505286 -0.244923 -0.050000
0.506869 -0.259290 -0.050000
0.508281 -0.274275 -0.050000
0.509490 -0.288298 -0.050000
0.510368 -0.302077 -0.050000
0.510829 -0.315582 -0.050000
0.510831 -0.328893 -0.050000
0.510327 -0.342018 -0.050000
0.509316 -0.355026 -0.050000
0.507798 -0.367955 -0.050000
0.505791 -0.380862 -0.050000
0.503322 -0.393791 -0.050000
0.500433 -0.406787 -0.050000
0.497184 -0.419890 -0.050000
0.493659 -0.433137 -0.050000
0.489983 -0.446553 -0.050000
0.486330 -0.460152 -0.050000
0.482943 -0.473925 -0.050000
0.480134 -0.487842 -0.050000
0.478261 -0.502035 -0.050000
0.431833 0.388706 -0.050000
0.432436 0.373399 -0.050000
0.433289 0.358256 -0.050000
0.434312 0.343233 -0.050000
0.435439 0.328288 -0.050000
0.436644 0.313399 -0.050000
0.437896 0.298505 -0.050000
0.439193 0.283615 -0.050000
0.440527 0.268636 -0.050000
0.441918 0.252935 -0.050000
0.443282 0.238022 -0.050000
0.444662 0.222749 -0.050000
0.446064 0.207294 -0.050000
0.447475 0.191737 -0.050000
0.448898 0.176047 -0.050000
0.450320 0.160622 -0.050000
0.451750 0.144935 -0.050000
0.453181 0.129251 -0.050000
0.454614 0.113561 -0.050000
0.456038 0.097868 -0.050000
0.457462 0.082162 -0.050000
0.458880 0.066450 -0.050000
0.460300 0.050727 -0.050000
0.461718 0.035001 -0.050000
0.463143 0.019271 -0.050000
0.464571 0.003542 -0.050000
0.466008 -0.012187 -0.050000
0.467452 -0.027913 -0.050000
0.468904 -0.043636 -0.050000
0.470365 -0.059353 -0.050000
0.471833 -0.075064 -0.050000
0.473309 -0.090768 -0.050000
0.474788 -0.106464 -0.050000
0.476276 -0.122149 -0.050000
0.477760 -0.137823 -0.050000
0.479252 -0.153484 -0.050000
0.480732 -0.169125 -0.050000
0.482213 -0.184517 -0.050000
0.483677 -0.200076 -0.050000
0.485128 -0.215440 -0.050000
0.486513 -0.230620 -0.050000
0.487848 -0.245472 -0.050000
0.489054 -0.259840 -0.050000
0.490079 -0.274746 -0.050000
0.490862 -0.288769 -0.050000
0.491311 -0.302454 -0.050000
0.491401 -0.315924 -0.050000
0.491074 -0.329157 -0.050000
0.490333 -0.342232 -0.050000
0.489159 -0.355180 -0.050000
0.487566 -0.368064 -0.050000
0.485564 -0.380930 -0.050000
0.483177 -0.393828 -0.050000
0.480436 -0.406801 -0.050000
0.477393 -0.419892 -0.050000
0.474121 -0.433133 -0.050000
0.470728 -0.446550 -0.050000
0.467373 -0.460157 -0.050000
0.464272 -0.473942 -0.050000
0.461704 -0.487874 -0.050000
0.459988 -0.502069 -0.050000
0.414884 0.388468 -0.050000
0.415402 0.373043 -0.050000
0.416152 0.357768 -0.050000
0.417081 0.342601 -0.050000
0.418160 0.327518 -0.050000
0.419350 0.312478 -0.050000
0.420648 0.297477 -0.050000
0.422019 0.282456 -0.050000
0.423460 0.267420 -0.050000
0.424974 0.251642 -0.050000
0.426444 0.236706 -0.050000
0.427931 0.221392 -0.050000
0.429404 0.205943 -0.050000
0.430886 0.190397 -0.050000
0.432365 0.174720 -0.050000
0.433803 0.159301 -0.050000
0.435259 0.143638 -0.050000
0.436708 0.127981 -0.050000
0.438152 0.112321 -0.050000
0.439594 0.096648 -0.050000
0.441023 0.080970 -0.050000
0.442451 0.065279 -0.050000
0.443871 0.049585 -0.050000
0.445293 0.033885 -0.050000
0.446714 0.018186 -0.050000
0.448140 0.002488 -0.050000
0.449569 -0.013207 -0.050000
0.451006 -0.028897 -0.050000
0.452449 -0.044581 -0.050000
0.453898 -0.060258 -0.050000
0.455355 -0.075926 -0.050000
0.456814 -0.091585 -0.050000
0.458279 -0.107234 -0.050000
0.459738 -0.122870 -0.050000
0.461199 -0.138494 -0.050000
0.462645 -0.154093 -0.050000
0.464070 -0.169691 -0.050000
0.465487 -0.185005 -0.050000
0.466834 -0.200530 -0.050000
0.468093 -0.215850 -0.050000
0.469280 -0.230950 -0.050000
0.470297 -0.245789 -0.050000
0.471186 -0.260033 -0.050000
0.471773 -0.274966 -0.050000
0.472119 -0.288867 -0.050000
0.472163 -0.302519 -0.050000
0.471865 -0.315890 -0.050000
0.471245 -0.329070 -0.050000
0.470274 -0.342077 -0.050000
0.468968 -0.354979 -0.050000
0.467325 -0.367824 -0.050000
0.465354 -0.380667 -0.050000
0.463069 -0.393555 -0.050000
0.460495 -0.406532 -0.050000
0.457671 -0.419636 -0.050000
0.454658 -0.432902 -0.050000
0.451551 -0.446352 -0.050000
0.448489 -0.459996 -0.050000
0.445666 -0.473823 -0.050000
0.443329 -0.487800 -0.050000
0.441757 -0.502027 -0.050000
0.398066 0.388215 -0.050000
0.398513 0.372662 -0.050000
0.399172 0.357251 -0.050000
0.400026 0.341935 -0.050000
0.401042 0.326697 -0.050000
0.402228 0.311524 -0.050000
0.403535 0.296372 -0.050000
0.404970 0.281271 -0.050000
0.406492 0.266121 -0.050000
0.408087 0.250324 -0.050000
0.409663 0.235321 -0.050000
0.411213 0.220012 -0.050000
0.412760 0.204549 -0.050000
0.414275 0.189030 -0.050000
0.415822 0.173448 -0.050000
0.417334 0.157944 -0.050000
0.418777 0.142351 -0.050000
0.420236 0.126730 -0.050000
0.421694 0.111102 -0.050000
0.423139 0.095464 -0.050000
0.424580 0.079814 -0.050000
0.426007 0.064158 -0.050000
0.427431 0.048497 -0.050000
0.428847 0.032835 -0.050000
0.430264 0.017175 -0.050000
0.431680 0.001520 -0.050000
0.433101 -0.014129 -0.050000
0.434526 -0.029770 -0.050000
0.435958 -0.045401 -0.050000
0.437395 -0.061022 -0.050000
0.438836 -0.076631 -0.050000
0.440283 -0.092229 -0.050000
0.441726 -0.107811 -0.050000
0.443170 -0.123380 -0.050000
0.444599 -0.138924 -0.050000
0.446017 -0.154456 -0.050000
0.447410 -0.169921 -0.050000
0.448697 -0.185292 -0.050000
0.449864 -0.200685 -0.050000
0.450989 -0.215915 -0.050000
0.451918 -0.230972 -0.050000
0.452685 -0.245684 -0.050000
0.453171 -0.259911 -0.050000
0.453360 -0.274708 -0.050000
0.453281 -0.288591 -0.050000
0.452895 -0.302105 -0.050000
0.452257 -0.315417 -0.050000
0.451342 -0.328513 -0.050000
0.450186 -0.341470 -0.050000
0.448775 -0.354334 -0.050000
0.447115 -0.367164 -0.050000
0.445204 -0.380010 -0.050000
0.443048 -0.392919 -0.050000
0.440659 -0.405933 -0.050000
0.438065 -0.419088 -0.050000
0.435317 -0.432415 -0.050000
0.432496 -0.445933 -0.050000
0.429721 -0.459650 -0.050000
0.427164 -0.473552 -0.050000
0.425045 -0.487604 -0.050000
0.423606 -0.501895 -0.050000
0.381382 0.387943 -0.050000
0.381774 0.372264 -0.050000
0.382359 0.356702 -0.050000
0.383136 0.341233 -0.050000
0.384114 0.325835 -0.050000
0.385252 0.310501 -0.050000
0.386585 0.295237 -0.050000
0.388035 0.279987 -0.050000
0.389611 0.264798 -0.050000
0.391290 0.248909 -0.050000
0.392899 0.233904 -0.050000
0.394526 0.218562 -0.050000
0.396098 0.203130 -0.050000
0.397661 0.187630 -0.050000
0.399178 0.172139 -0.050000
0.400683 0.156589 -0.050000
0.402190 0.141062 -0.050000
0.403671 0.125491 -0.050000
0.405143 0.109914 -0.050000
0.406608 0.094314 -0.050000
0.408049 0.078710 -0.050000
0.409484 0.063095 -0.050000
0.410900 0.047481 -0.050000
0.412313 0.031868 -0.050000
0.413717 0.016262 -0.050000
0.415121 0.000665 -0.050000
0.416525 -0.014922 -0.050000
0.417933 -0.030496 -0.050000
0.419345 -0.046056 -0.050000
0.420760 -0.061603 -0.050000
0.422179 -0.077135 -0.050000
0.423597 -0.092651 -0.050000
0.425013 -0.108150 -0.050000
0.426417 -0.123627 -0.050000
0.427805 -0.139084 -0.050000
0.429164 -0.154503 -0.050000
0.430457 -0.169883 -0.050000
0.431681 -0.185213 -0.050000
0.432804 -0.200446 -0.050000
0.433721 -0.215578 -0.050000
0.434476 -0.230504 -0.050000
0.434904 -0.245159 -0.050000
0.435109 -0.259194 -0.050000
0.434829 -0.274008 -0.050000
0.434315 -0.287699 -0.050000
0.433560 -0.301155 -0.050000
0.432568 -0.314355 -0.050000
0.431421 -0.327393 -0.050000
0.430104 -0.340309 -0.050000
0.428633 -0.353164 -0.050000
0.426992 -0.366012 -0.050000
0.425173 -0.378902 -0.050000
0.423169 -0.391876 -0.050000
0.420982 -0.404972 -0.050000
0.418628 -0.418222 -0.050000
0.416147 -0.431653 -0.050000
0.413605 -0.445280 -0.050000
0.411108 -0.459108 -0.050000
0.408805 -0.473120 -0.050000
0.406889 -0.487280 -0.050000
0.405571 -0.501665 -0.050000
0.364843 0.387662 -0.050000
0.365186 0.371841 -0.050000
0.365713 0.356136 -0.050000
0.366436 0.340493 -0.050000
0.367348 0.324936 -0.050000
0.368481 0.309439 -0.050000
0.369755 0.294008 -0.050000
0.371240 0.278683 -0.050000
0.372827 0.263351 -0.050000
0.374511 0.247462 -0.050000
0.376198 0.232389 -0.050000
0.377816 0.217075 -0.050000
0.379437 0.201650 -0.050000
0.380993 0.186211 -0.050000
0.382530 0.170741 -0.050000
0.384055 0.155287 -0.050000
0.385565 0.139786 -0.050000
0.387071 0.124297 -0.050000
0.388564 0.108765 -0.050000
0.390030 0.093231 -0.050000
0.391484 0.077677 -0.050000
0.392908 0.062124 -0.050000
0.394320 0.046570 -0.050000
0.395714 0.031025 -0.050000
0.397102 0.015492 -0.050000
0.398484 -0.000027 -0.050000
0.399866 -0.015529 -0.050000
0.401248 -0.031013 -0.050000
0.402633 -0.046479 -0.050000
0.404022 -0.061927 -0.050000
0.405410 -0.077355 -0.050000
0.406798 -0.092763 -0.050000
0.408178 -0.108149 -0.050000
0.409544 -0.123513 -0.050000
0.410885 -0.138845 -0.050000
0.412180 -0.154145 -0.050000
0.413417 -0.169398 -0.050000
0.414548 -0.184599 -0.050000
0.415534 -0.199695 -0.050000
0.416343 -0.214694 -0.050000
0.416828 -0.229487 -0.050000
0.417051 -0.243959 -0.050000
0.416849 -0.257930 -0.050000
0.416182 -0.272534 -0.050000
0.415291 -0.286172 -0.050000
0.414137 -0.299472 -0.050000
0.412880 -0.312603 -0.050000
0.411518 -0.325596 -0.050000
0.410101 -0.338507 -0.050000
0.408608 -0.351399 -0.050000
0.407027 -0.364317 -0.050000
0.405330 -0.377305 -0.050000
0.403499 -0.390399 -0.050000
0.401526 -0.403631 -0.050000
0.399416 -0.417028 -0.050000
0.397197 -0.430611 -0.050000
0.394925 -0.444391 -0.050000
0.392690 -0.458369 -0.050000
0.390624 -0.472526 -0.050000
0.388896 -0.486824 -0.050000
0.387686 -0.501335 -0.050000
0.348435 0.387366 -0.050000
0.348760 0.371418 -0.050000
0.349242 0.355545 -0.050000
0.349914 0.339748 -0.050000
0.350792 0.323994 -0.050000
0.351843 0.308344 -0.050000
0.353148 0.292757 -0.050000
0.354531 0.277256 -0.050000
0.356135 0.261912 -0.050000
0.357864 0.245890 -0.050000
0.359456 0.230836 -0.050000
0.361138 0.215514 -0.050000
0.362718 0.200127 -0.050000
0.364283 0.184736 -0.050000
0.365828 0.169353 -0.050000
0.367350 0.153942 -0.050000
0.368882 0.138559 -0.050000
0.370406 0.123116 -0.050000
0.371906 0.107684 -0.050000
0.373394 0.092213 -0.050000
0.374835 0.076740 -0.050000
0.376257 0.061264 -0.050000
0.377646 0.045793 -0.050000
0.379019 0.030340 -0.050000
0.380377 0.014904 -0.050000
0.381729 -0.000509 -0.050000
0.383077 -0.015898 -0.050000
0.384426 -0.031262 -0.050000
0.385776 -0.046603 -0.050000
0.387129 -0.061919 -0.050000
0.388481 -0.077211 -0.050000
0.389829 -0.092478 -0.050000
0.391169 -0.107720 -0.050000
0.392488 -0.122933 -0.050000
0.393776 -0.138114 -0.050000
0.395013 -0.153255 -0.050000
0.396170 -0.168348 -0.050000
0.397219 -0.183370 -0.050000
0.398081 -0.198339 -0.050000
0.398715 -0.213094 -0.050000
0.399067 -0.227752 -0.050000
0.398961 -0.242026 -0.050000
0.398562 -0.255783 -0.050000
0.397445 -0.270326 -0.050000
0.396170 -0.283748 -0.050000
0.394748 -0.296969 -0.050000
0.393224 -0.310052 -0.050000
0.391732 -0.323034 -0.050000
0.390257 -0.336008 -0.050000
0.388792 -0.348999 -0.050000
0.387302 -0.362056 -0.050000
0.385751 -0.375210 -0.050000
0.384108 -0.388489 -0.050000
0.382352 -0.401918 -0.050000
0.380482 -0.415516 -0.050000
0.378514 -0.429300 -0.050000
0.376495 -0.443276 -0.050000
0.374503 -0.457444 -0.050000
0.372654 -0.471779 -0.050000
0.371094 -0.486246 -0.050000
0.369980 -0.500908 -0.050000
0.332186 0.387081 -0.050000
0.332477 0.370985 -0.050000
0.332950 0.354973 -0.050000
0.333587 0.338983 -0.050000
0.334407 0.323077 -0.050000
0.335440 0.307208 -0.050000
0.336602 0.291501 -0.050000
0.338078 0.275859 -0.050000
0.339496 0.260323 -0.050000
0.341123 0.244334 -0.050000
0.342834 0.229220 -0.050000
0.344366 0.213886 -0.050000
0.345953 0.198576 -0.050000
0.347497 0.183235 -0.050000
0.349008 0.167914 -0.050000
0.350554 0.152636 -0.050000
0.352087 0.137299 -0.050000
0.353626 0.122005 -0.050000
0.355161 0.106641 -0.050000
0.356636 0.091282 -0.050000
0.358089 0.075909 -0.050000
0.359484 0.060533 -0.050000
0.360849 0.045179 -0.050000
0.362184 0.029844 -0.050000
0.363503 0.014539 -0.050000
0.364810 -0.000735 -0.050000
0.366114 -0.015976 -0.050000
0.367417 -0.031184 -0.050000
0.368722 -0.046360 -0.050000
0.370029 -0.061506 -0.050000
0.371335 -0.076622 -0.050000
0.372637 -0.091708 -0.050000
0.373927 -0.106763 -0.050000
0.375194 -0.121786 -0.050000
0.376423 -0.136773 -0.050000
0.377593 -0.151716 -0.050000
0.378676 -0.166604 -0.050000
0.379623 -0.181429 -0.050000
0.380400 -0.196141 -0.050000
0.380860 -0.210815 -0.050000
0.381006 -0.225057 -0.050000
0.380778 -0.239203 -0.050000
0.380064 -0.252691 -0.050000
0.378621 -0.267124 -0.050000
0.377109 -0.280420 -0.050000
0.375383 -0.293593 -0.050000
0.373730 -0.306623 -0.050000
0.372151 -0.319705 -0.050000
0.370679 -0.332803 -0.050000
0.369278 -0.345981 -0.050000
0.367906 -0.359254 -0.050000
0.366514 -0.372648 -0.050000
0.365061 -0.386179 -0.050000
0.363518 -0.399865 -0.050000
0.361874 -0.413718 -0.050000
0.360139 -0.427749 -0.050000
0.358350 -0.441963 -0.050000
0.356577 -0.456353 -0.050000
0.354920 -0.470896 -0.050000
0.353509 -0.485556 -0.050000
0.352477 -0.500395 -0.050000
0.316032 0.386799 -0.050000
0.316379 0.370589 -0.050000
0.316814 0.354409 -0.050000
0.317449 0.338283 -0.050000
0.318245 0.322160 -0.050000
0.319172 0.306159 -0.050000
0.320316 0.290196 -0.050000
0.321496 0.274531 -0.050000
0.323154 0.258862 -0.050000
0.324707 0.242738 -0.050000
0.326007 0.227508 -0.050000
0.327582 0.212324 -0.050000
0.329068 0.196963 -0.050000
0.330532 0.181710 -0.050000
0.332046 0.166493 -0.050000
0.333542 0.151265 -0.050000
0.335122 0.136127 -0.050000
0.336704 0.120878 -0.050000
0.338231 0.105674 -0.050000
0.339752 0.090435 -0.050000
0.341177 0.075177 -0.050000
0.342549 0.059952 -0.050000
0.343871 0.044738 -0.050000
0.345157 0.029562 -0.050000
0.346419 0.014423 -0.050000
0.347670 -0.000671 -0.050000
0.348914 -0.015723 -0.050000
0.350160 -0.030733 -0.050000
0.351408 -0.045702 -0.050000
0.352658 -0.060633 -0.050000
0.353909 -0.075526 -0.050000
0.355155 -0.090384 -0.050000
0.356388 -0.105206 -0.050000
0.357596 -0.119993 -0.050000
0.358763 -0.134737 -0.050000
0.359864 -0.149435 -0.050000
0.360866 -0.164076 -0.050000
0.361730 -0.178641 -0.050000
0.362385 -0.193122 -0.050000
0.362792 -0.207424 -0.050000
0.362728 -0.221743 -0.050000
0.362305 -0.235248 -0.050000
0.361457 -0.248704 -0.050000
0.359712 -0.262942 -0.050000
0.357962 -0.276220 -0.050000
0.356199 -0.289223 -0.050000
0.354466 -0.302434 -0.050000
0.352890 -0.315645 -0.050000
0.351459 -0.328980 -0.050000
0.350153 -0.342422 -0.050000
0.348912 -0.355992 -0.050000
0.347683 -0.369694 -0.050000
0.346412 -0.383539 -0.050000
0.345067 -0.397535 -0.050000
0.343628 -0.411689 -0.050000
0.342100 -0.426007 -0.050000
0.340515 -0.440491 -0.050000
0.338931 -0.455131 -0.050000
0.337440 -0.469905 -0.050000
0.336156 -0.484777 -0.050000
0.335196 -0.499814 -0.050000
0.300093 0.386559 -0.050000
0.300357 0.370222 -0.050000
0.300905 0.353933 -0.050000
0.301506 0.337603 -0.050000
0.302226 0.321364 -0.050000
0.303145 0.305167 -0.050000
0.304133 0.289099 -0.050000
0.305335 0.273099 -0.050000
0.306333 0.257611 -0.050000
0.307806 0.240983 -0.050000
0.309303 0.226076 -0.050000
0.310586 0.210591 -0.050000
0.311873 0.195351 -0.050000
0.313213 0.180124 -0.050000
0.314616 0.165024 -0.050000
0.316217 0.150009 -0.050000
0.317832 0.134867 -0.050000
0.319484 0.119877 -0.050000
0.321145 0.104745 -0.050000
0.322627 0.089608 -0.050000
0.324034 0.074551 -0.050000
0.325370 0.059478 -0.050000
0.326634 0.044453 -0.050000
0.327855 0.029468 -0.050000
0.329047 0.014536 -0.050000
0.330224 -0.000341 -0.050000
0.331397 -0.015163 -0.050000
0.332570 -0.029931 -0.050000
0.333749 -0.044648 -0.050000
0.334933 -0.059316 -0.050000
0.336118 -0.073940 -0.050000
0.337301 -0.088517 -0.050000
0.338471 -0.103056 -0.050000
0.339618 -0.117548 -0.050000
0.340719 -0.132000 -0.050000
0.341752 -0.146398 -0.050000
0.342679 -0.160741 -0.050000
0.343459 -0.175009 -0.050000
0.344033 -0.189175 -0.050000
0.344330 -0.203236 -0.050000
0.344312 -0.216987 -0.050000
0.343755 -0.230676 -0.050000
0.342837 -0.243531 -0.050000
0.340606 -0.258429 -0.050000
0.339129 -0.270851 -0.050000
0.337245 -0.284253 -0.050000
0.335551 -0.297568 -0.050000
0.334013 -0.311068 -0.050000
0.332672 -0.324694 -0.050000
0.331476 -0.338475 -0.050000
0.330374 -0.352399 -0.050000
0.329298 -0.366464 -0.050000
0.328196 -0.380668 -0.050000
0.327026 -0.395014 -0.050000
0.325766 -0.409502 -0.050000
0.324416 -0.424136 -0.050000
0.323002 -0.438912 -0.050000
0.321576 -0.453822 -0.050000
0.320223 -0.468841 -0.050000
0.319044 -0.483937 -0.050000
0.318145 -0.499182 -0.050000
0.284116 0.386437 -0.050000
0.284696 0.369947 -0.050000
0.285089 0.353456 -0.050000
0.285658 0.337053 -0.050000
0.286409 0.320685 -0.050000
0.287197 0.304365 -0.050000
0.288170 0.288098 -0.050000
0.289163 0.272160 -0.050000
0.290302 0.255898 -0.050000
0.291431 0.240202 -0.050000
0.292727 0.224471 -0.050000
0.294004 0.209174 -0.050000
0.295278 0.193847 -0.050000
0.296585 0.178742 -0.050000
0.297989 0.163700 -0.050000
0.299413 0.148892 -0.050000
0.300992 0.133740 -0.050000
0.302579 0.119011 -0.050000
0.304033 0.103711 -0.050000
0.305468 0.088945 -0.050000
0.306847 0.073998 -0.050000
0.308115 0.059154 -0.050000
0.309309 0.044337 -0.050000
0.310443 0.029587 -0.050000
0.311541 0.014896 -0.050000
0.312621 0.000273 -0.050000
0.313692 -0.014285 -0.050000
0.314764 -0.028778 -0.050000
0.315841 -0.043212 -0.050000
0.316924 -0.057588 -0.050000
0.318010 -0.071910 -0.050000
0.319095 -0.086183 -0.050000
0.320170 -0.100404 -0.050000
0.321221 -0.114580 -0.050000
0.322232 -0.128705 -0.050000
0.323175 -0.142780 -0.050000
0.324019 -0.156792 -0.050000
0.324717 -0.170730 -0.050000
0.325221 -0.184580 -0.050000
0.325444 -0.198287 -0.050000
0.325312 -0.211863 -0.050000
0.324692 -0.225148 -0.050000
0.323322 -0.239128 -0.050000
0.321958 -0.252079 -0.050000
0.320290 -0.265470 -0.050000
0.318624 -0.278779 -0.050000
0.316977 -0.292419 -0.050000
0.315562 -0.306197 -0.050000
0.314334 -0.320180 -0.050000
0.313271 -0.334331 -0.050000
0.312304 -0.348645 -0.050000
0.311375 -0.363100 -0.050000
0.310422 -0.377689 -0.050000
0.309404 -0.392405 -0.050000
0.308294 -0.407246 -0.050000
0.307089 -0.422209 -0.050000
0.305812 -0.437289 -0.050000
0.304513 -0.452475 -0.050000
0.303267 -0.467745 -0.050000
0.302172 -0.483071 -0.050000
0.301323 -0.498525 -0.050000
0.268262 0.386186 -0.050000
0.268313 0.369682 -0.050000
0.268857 0.353014 -0.050000
0.269494 0.336642 -0.050000
0.270168 0.320095 -0.050000
0.270963 0.303712 -0.050000
0.271778 0.287377 -0.050000
0.272696 0.271157 -0.050000
0.273747 0.255059 -0.050000
0.275015 0.239142 -0.050000
0.276260 0.223522 -0.050000
0.277534 0.208014 -0.050000
0.278771 0.192702 -0.050000
0.280005 0.177508 -0.050000
0.281197 0.162521 -0.050000
0.282488 0.147438 -0.050000
0.283925 0.133150 -0.050000
0.285302 0.117334 -0.050000
0.286621 0.102979 -0.050000
0.288013 0.088162 -0.050000
0.289299 0.073509 -0.050000
0.290492 0.058863 -0.050000
0.291591 0.044298 -0.050000
0.292626 0.029795 -0.050000
0.293620 0.015372 -0.050000
0.294594 0.001023 -0.050000
0.295560 -0.013249 -0.050000
0.296529 -0.027446 -0.050000
0.297504 -0.041572 -0.050000
0.298489 -0.055629 -0.050000
0.299480 -0.069624 -0.050000
0.300475 -0.083557 -0.050000
0.301463 -0.097435 -0.050000
0.302432 -0.111258 -0.050000
0.303362 -0.125031 -0.050000
0.304230 -0.138752 -0.050000
0.305000 -0.152420 -0.050000
0.305633 -0.166031 -0.050000
0.306070 -0.179564 -0.050000
0.306250 -0.193047 -0.050000
0.306099 -0.206340 -0.050000
0.305498 -0.219830 -0.050000
0.304604 -0.232986 -0.050000
0.303279 -0.246348 -0.050000
0.301712 -0.259696 -0.050000
0.300162 -0.273395 -0.050000
0.298748 -0.287229 -0.050000
0.297487 -0.301347 -0.050000
0.296427 -0.315675 -0.050000
0.295510 -0.330208 -0.050000
0.294689 -0.344908 -0.050000
0.293896 -0.359756 -0.050000
0.293077 -0.374730 -0.050000
0.292186 -0.389818 -0.050000
0.291199 -0.405011 -0.050000
0.290108 -0.420303 -0.050000
0.288936 -0.435685 -0.050000
0.287729 -0.451146 -0.050000
0.286563 -0.466663 -0.050000
0.285531 -0.482213 -0.050000
0.284725 -0.497872 -0.050000
0.252495 0.386002 -0.050000
0.252951 0.369361 -0.050000
0.253415 0.352884 -0.050000
0.254051 0.336264 -0.050000
0.254726 0.319771 -0.050000
0.255413 0.303255 -0.050000
0.256151 0.286865 -0.050000
0.256927 0.270569 -0.050000
0.257774 0.254439 -0.050000
0.258641 0.238484 -0.050000
0.259581 0.222707 -0.050000
0.260523 0.207118 -0.050000
0.261521 0.191680 -0.050000
0.262547 0.176421 -0.050000
0.263700 0.161248 -0.050000
0.264917 0.146470 -0.050000
0.266065 0.131525 -0.050000
0.267487 0.116590 -0.050000
0.269008 0.101957 -0.050000
0.270284 0.087526 -0.050000
0.271485 0.073021 -0.050000
0.272565 0.058632 -0.050000
0.273554 0.044307 -0.050000
0.274472 0.030070 -0.050000
0.275345 0.015914 -0.050000
0.276196 0.001846 -0.050000
0.277039 -0.012139 -0.050000
0.277886 -0.026041 -0.050000
0.278741 -0.039863 -0.050000
0.279608 -0.053609 -0.050000
0.280487 -0.067283 -0.050000
0.281373 -0.080890 -0.050000
0.282260 -0.094434 -0.050000
0.283135 -0.107921 -0.050000
0.283984 -0.121353 -0.050000
0.284780 -0.134738 -0.050000
0.285497 -0.148077 -0.050000
0.286092 -0.161370 -0.050000
0.286525 -0.174636 -0.050000
0.286733 -0.187822 -0.050000
0.286654 -0.201071 -0.050000
0.286269 -0.214222 -0.050000
0.285482 -0.227466 -0.050000
0.284365 -0.240911 -0.050000
0.283202 -0.254433 -0.050000
0.281926 -0.268208 -0.050000
0.280752 -0.282366 -0.050000
0.279749 -0.296754 -0.050000
0.278885 -0.311419 -0.050000
0.278150 -0.326299 -0.050000
0.277480 -0.341366 -0.050000
0.276824 -0.356581 -0.050000
0.276126 -0.371920 -0.050000
0.275344 -0.387362 -0.050000
0.274453 -0.402891 -0.050000
0.273449 -0.418497 -0.050000
0.272351 -0.434167 -0.050000
0.271207 -0.449888 -0.050000
0.270094 -0.465640 -0.050000
0.269105 -0.481402 -0.050000
0.268335 -0.497252 -0.050000
0.236845 0.385888 -0.050000
0.237234 0.369269 -0.050000
0.237848 0.352659 -0.050000
0.238450 0.336084 -0.050000
0.239091 0.319477 -0.050000
0.239729 0.302963 -0.050000
0.240359 0.286492 -0.050000
0.241003 0.270165 -0.050000
0.241657 0.253963 -0.050000
0.242344 0.237937 -0.050000
0.243050 0.222070 -0.050000
0.243806 0.206388 -0.050000
0.244593 0.190882 -0.050000
0.245480 0.175524 -0.050000
0.246434 0.160413 -0.050000
0.247458 0.145368 -0.050000
0.248713 0.130593 -0.050000
0.249918 0.115810 -0.050000
0.251108 0.101284 -0.050000
0.252342 0.086871 -0.050000
0.253395 0.072618 -0.050000
0.254350 0.058425 -0.050000
0.255205 0.044342 -0.050000
0.255992 0.030348 -0.050000
0.256733 0.016450 -0.050000
0.257451 0.002642 -0.050000
0.258160 -0.011073 -0.050000
0.258873 -0.024702 -0.050000
0.259596 -0.038243 -0.050000
0.260334 -0.051701 -0.050000
0.261087 -0.065082 -0.050000
0.261855 -0.078388 -0.050000
0.262630 -0.091629 -0.050000
0.263407 -0.104808 -0.050000
0.264168 -0.117937 -0.050000
0.264896 -0.131021 -0.050000
0.265565 -0.144070 -0.050000
0.266145 -0.157099 -0.050000
0.266592 -0.170104 -0.050000
0.266866 -0.183142 -0.050000
0.266927 -0.196182 -0.050000
0.266709 -0.209302 -0.050000
0.266229 -0.222587 -0.050000
0.265541 -0.235934 -0.050000
0.264632 -0.249675 -0.050000
0.263793 -0.263675 -0.050000
0.262969 -0.277984 -0.050000
0.262250 -0.292655 -0.050000
0.261647 -0.307590 -0.050000
0.261114 -0.322778 -0.050000
0.260618 -0.338162 -0.050000
0.260102 -0.353706 -0.050000
0.259520 -0.369372 -0.050000
0.258834 -0.385134 -0.050000
0.258020 -0.400969 -0.050000
0.257077 -0.416862 -0.050000
0.256027 -0.432796 -0.050000
0.254919 -0.448755 -0.050000
0.253834 -0.464720 -0.050000
0.252871 -0.480675 -0.050000
0.252132 -0.496700 -0.050000
0.221172 0.385820 -0.050000
0.221616 0.369227 -0.050000
0.222195 0.352560 -0.050000
0.222834 0.335918 -0.050000
0.223439 0.319318 -0.050000
0.224013 0.302736 -0.050000
0.224556 0.286266 -0.050000
0.225073 0.269871 -0.050000
0.225578 0.253636 -0.050000
0.226094 0.237535 -0.050000
0.226625 0.221619 -0.050000
0.227187 0.205865 -0.050000
0.227813 0.190283 -0.050000
0.228493 0.174900 -0.050000
0.229265 0.159666 -0.050000
0.230169 0.144659 -0.050000
0.231095 0.129875 -0.050000
0.232158 0.115066 -0.050000
0.233216 0.100702 -0.050000
0.234162 0.086402 -0.050000
0.235071 0.072268 -0.050000
0.235859 0.058272 -0.050000
0.236565 0.044383 -0.050000
0.237207 0.030604 -0.050000
0.237806 0.016924 -0.050000
0.238383 0.003342 -0.050000
0.238952 -0.010145 -0.050000
0.239524 -0.023539 -0.050000
0.240107 -0.036843 -0.050000
0.240708 -0.050059 -0.050000
0.241329 -0.063191 -0.050000
0.241969 -0.076248 -0.050000
0.242630 -0.089232 -0.050000
0.243302 -0.102157 -0.050000
0.243979 -0.115028 -0.050000
0.244643 -0.127863 -0.050000
0.245279 -0.140674 -0.050000
0.245859 -0.153475 -0.050000
0.246356 -0.166298 -0.050000
0.246737 -0.179158 -0.050000
0.246962 -0.192091 -0.050000
0.247017 -0.205176 -0.050000
0.246874 -0.218368 -0.050000
0.246544 -0.231920 -0.050000
0.246170 -0.245658 -0.050000
0.245701 -0.259819 -0.050000
0.245307 -0.274326 -0.050000
0.244943 -0.289167 -0.050000
0.244629 -0.304340 -0.050000
0.244341 -0.319768 -0.050000
0.244035 -0.335419 -0.050000
0.243670 -0.351236 -0.050000
0.243204 -0.367181 -0.050000
0.242605 -0.383218 -0.050000
0.241853 -0.399319 -0.050000
0.240952 -0.415462 -0.050000
0.239927 -0.431626 -0.050000
0.238832 -0.447793 -0.050000
0.237754 -0.463944 -0.050000
0.236802 -0.480067 -0.050000
0.236091 -0.496246 -0.050000
0.205530 0.385794 -0.050000
0.205980 0.369216 -0.050000
0.206583 0.352496 -0.050000
0.207221 0.335844 -0.050000
0.207815 0.319200 -0.050000
0.208339 0.302622 -0.050000
0.208788 0.286080 -0.050000
0.209187 0.269691 -0.050000
0.209553 0.253388 -0.050000
0.209873 0.237268 -0.050000
0.210232 0.221305 -0.050000
0.210627 0.205507 -0.050000
0.211055 0.189894 -0.050000
0.211560 0.174445 -0.050000
0.212150 0.159194 -0.050000
0.212804 0.144154 -0.050000
0.213565 0.129314 -0.050000
0.214328 0.114658 -0.050000
0.215108 0.100216 -0.050000
0.215870 0.086070 -0.050000
0.216532 0.072037 -0.050000
0.217142 0.058173 -0.050000
0.217678 0.044439 -0.050000
0.218164 0.030821 -0.050000
0.218615 0.017310 -0.050000
0.219045 0.003900 -0.050000
0.219469 -0.009411 -0.050000
0.219896 -0.022629 -0.050000
0.220335 -0.035751 -0.050000
0.220793 -0.048783 -0.050000
0.221276 -0.061730 -0.050000
0.221787 -0.074594 -0.050000
0.222328 -0.087388 -0.050000
0.222897 -0.100115 -0.050000
0.223490 -0.112796 -0.050000
0.224098 -0.125438 -0.050000
0.224709 -0.138065 -0.050000
0.225309 -0.150699 -0.050000
0.225877 -0.163367 -0.050000
0.226392 -0.176098 -0.050000
0.226835 -0.188961 -0.050000
0.227177 -0.201942 -0.050000
0.227415 -0.215220 -0.050000
0.227568 -0.228684 -0.050000
0.227625 -0.242590 -0.050000
0.227694 -0.256799 -0.050000
0.227717 -0.271428 -0.050000
0.227760 -0.286423 -0.050000
0.227779 -0.301748 -0.050000
0.227761 -0.317368 -0.050000
0.227669 -0.333219 -0.050000
0.227466 -0.349254 -0.050000
0.227119 -0.365422 -0.050000
0.226601 -0.381682 -0.050000
0.225902 -0.398001 -0.050000
0.225028 -0.414350 -0.050000
0.224009 -0.430704 -0.050000
0.222908 -0.447043 -0.050000
0.221820 -0.463346 -0.050000
0.220867 -0.479607 -0.050000
0.220179 -0.495908 -0.050000
0.189905 0.385787 -0.050000
0.190371 0.369226 -0.050000
0.190987 0.352469 -0.050000
0.191614 0.335796 -0.050000
0.192246 0.319196 -0.050000
0.192803 0.302558 -0.050000
0.193192 0.285985 -0.050000
0.193383 0.269480 -0.050000
0.193519 0.253250 -0.050000
0.193716 0.237083 -0.050000
0.193815 0.221035 -0.050000
0.193930 0.205269 -0.050000
0.194215 0.189696 -0.050000
0.194618 0.174249 -0.050000
0.195042 0.158936 -0.050000
0.195479 0.143832 -0.050000
0.195938 0.129067 -0.050000
0.196443 0.114327 -0.050000
0.196945 0.100034 -0.050000
0.197416 0.085859 -0.050000
0.197863 0.071940 -0.050000
0.198255 0.058153 -0.050000
0.198612 0.044516 -0.050000
0.198934 0.031002 -0.050000
0.199231 0.017598 -0.050000
0.199513 0.004298 -0.050000
0.199789 -0.008905 -0.050000
0.200069 -0.022009 -0.050000
0.200361 -0.035019 -0.050000
0.200674 -0.047936 -0.050000
0.201016 -0.060763 -0.050000
0.201394 -0.073509 -0.050000
0.201815 -0.086176 -0.050000
0.202279 -0.098783 -0.050000
0.202791 -0.111332 -0.050000
0.203346 -0.123852 -0.050000
0.203941 -0.136355 -0.050000
0.204571 -0.148871 -0.050000
0.205227 -0.161426 -0.050000
0.205899 -0.174077 -0.050000
0.206576 -0.186829 -0.050000
0.207247 -0.199818 -0.050000
0.207897 -0.212984 -0.050000
0.208517 -0.226547 -0.050000
0.209121 -0.240392 -0.050000
0.209670 -0.254697 -0.050000
0.210202 -0.269372 -0.050000
0.210658 -0.284454 -0.050000
0.211047 -0.299890 -0.050000
0.211323 -0.315632 -0.050000
0.211462 -0.331628 -0.050000
0.211432 -0.347818 -0.050000
0.211207 -0.364151 -0.050000
0.210769 -0.380579 -0.050000
0.210113 -0.397062 -0.050000
0.209254 -0.413568 -0.050000
0.208229 -0.430068 -0.050000
0.207107 -0.446537 -0.050000
0.205995 -0.462956 -0.050000
0.205032 -0.479318 -0.050000
0.204364 -0.495706 -0.050000
0.174288 0.385797 -0.050000
0.174776 0.369243 -0.050000
0.175401 0.352469 -0.050000
0.176044 0.335774 -0.050000
0.176595 0.319230 -0.050000
0.176972 0.302483 -0.050000
0.177255 0.285961 -0.050000
0.177460 0.269319 -0.050000
0.177534 0.253163 -0.050000
0.177540 0.237013 -0.050000
0.177542 0.220808 -0.050000
0.177615 0.205267 -0.050000
0.177685 0.189561 -0.050000
0.177769 0.174285 -0.050000
0.177934 0.158828 -0.050000
0.178121 0.143789 -0.050000
0.178317 0.128950 -0.050000
0.178512 0.114335 -0.050000
0.178714 0.099952 -0.050000
0.178908 0.085892 -0.050000
0.179098 0.071959 -0.050000
0.179279 0.058228 -0.050000
0.179446 0.044627 -0.050000
0.179601 0.031153 -0.050000
0.179744 0.017790 -0.050000
0.179877 0.004528 -0.050000
0.180006 -0.008633 -0.050000
0.180139 -0.021699 -0.050000
0.180282 -0.034668 -0.050000
0.180450 -0.047543 -0.050000
0.180649 -0.060329 -0.050000
0.180894 -0.073025 -0.050000
0.181192 -0.085649 -0.050000
0.181553 -0.098197 -0.050000
0.181982 -0.110699 -0.050000
0.182485 -0.123156 -0.050000
0.183068 -0.135599 -0.050000
0.183732 -0.148049 -0.050000
0.184481 -0.160545 -0.050000
0.185319 -0.173109 -0.050000
0.186243 -0.185837 -0.050000
0.187252 -0.198703 -0.050000
0.188332 -0.211900 -0.050000
0.189455 -0.225342 -0.050000
0.190585 -0.239236 -0.050000
0.191688 -0.253491 -0.050000
0.192707 -0.268203 -0.050000
0.193627 -0.283308 -0.050000
0.194392 -0.298795 -0.050000
0.194984 -0.314606 -0.050000
0.195364 -0.330684 -0.050000
0.195514 -0.346971 -0.050000
0.195412 -0.363407 -0.050000
0.195051 -0.379944 -0.050000
0.194434 -0.396536 -0.050000
0.193582 -0.413146 -0.050000
0.192539 -0.429743 -0.050000
0.191386 -0.446300 -0.050000
0.190240 -0.462795 -0.050000
0.189261 -0.479220 -0.050000
0.188609 -0.495657 -0.050000
0.158682 0.385819 -0.050000
0.159182 0.369273 -0.050000
0.159831 0.352483 -0.050000
0.160472 0.335801 -0.050000
0.160982 0.319221 -0.050000
0.161346 0.302487 -0.050000
0.161548 0.285948 -0.050000
0.161579 0.269309 -0.050000
0.161527 0.253144 -0.050000
0.161376 0.236980 -0.050000
0.161237 0.220856 -0.050000
0.161058 0.205280 -0.050000
0.160943 0.189662 -0.050000
0.160890 0.174333 -0.050000
0.160809 0.158986 -0.050000
0.160743 0.143893 -0.050000
0.160674 0.129164 -0.050000
0.160566 0.114448 -0.050000
0.160458 0.100187 -0.050000
0.160382 0.086049 -0.050000
0.160317 0.072156 -0.050000
0.160286 0.058396 -0.050000
0.160271 0.044781 -0.050000
0.160261 0.031283 -0.050000
0.160253 0.017891 -0.050000
0.160240 0.004600 -0.050000
0.160224 -0.008597 -0.050000
0.160210 -0.021695 -0.050000
0.160208 -0.034701 -0.050000
0.160227 -0.047610 -0.050000
0.160286 -0.060428 -0.050000
0.160395 -0.073161 -0.050000
0.160572 -0.085806 -0.050000
0.160827 -0.098389 -0.050000
0.161173 -0.110901 -0.050000
0.161625 -0.123375 -0.050000
0.162188 -0.135819 -0.050000
0.162883 -0.148261 -0.050000
0.163722 -0.160728 -0.050000
0.164718 -0.173275 -0.050000
0.165891 -0.185909 -0.050000
0.167236 -0.198776 -0.050000
0.168745 -0.211817 -0.050000
0.170387 -0.225261 -0.050000
0.172062 -0.239029 -0.050000
0.173713 -0.253267 -0.050000
0.175257 -0.267920 -0.050000
0.176631 -0.283012 -0.050000
0.177796 -0.298491 -0.050000
0.178702 -0.314312 -0.050000
0.179332 -0.330416 -0.050000
0.179660 -0.346736 -0.050000
0.179681 -0.363217 -0.050000
0.179393 -0.379801 -0.050000
0.178810 -0.396444 -0.050000
0.177959 -0.413104 -0.050000
0.176893 -0.429747 -0.050000
0.175702 -0.446346 -0.050000
0.174518 -0.462873 -0.050000
0.173517 -0.479322 -0.050000
0.172881 -0.495768 -0.050000
0.143066 0.385862 -0.050000
0.143597 0.369314 -0.050000
0.144257 0.352536 -0.050000
0.144905 0.335845 -0.050000
0.145419 0.319269 -0.050000
0.145715 0.302528 -0.050000
0.145820 0.285997 -0.050000
0.145747 0.269355 -0.050000
0.145500 0.253208 -0.050000
0.145201 0.237088 -0.050000
0.144814 0.220966 -0.050000
0.144485 0.205475 -0.050000
0.144185 0.189878 -0.050000
0.143897 0.174635 -0.050000
0.143647 0.159296 -0.050000
0.143355 0.144292 -0.050000
0.142985 0.129518 -0.050000
0.142610 0.114913 -0.050000
0.142238 0.100545 -0.050000
0.141869 0.086455 -0.050000
0.141593 0.072488 -0.050000
0.141358 0.058672 -0.050000
0.141170 0.044980 -0.050000
0.141009 0.031395 -0.050000
0.140857 0.017910 -0.050000
0.140704 0.004517 -0.050000
0.140547 -0.008780 -0.050000
0.140390 -0.021988 -0.050000
0.140243 -0.035099 -0.050000
0.140120 -0.048120 -0.050000
0.140035 -0.061049 -0.050000
0.140013 -0.073886 -0.050000
0.140066 -0.086647 -0.050000
0.140216 -0.099320 -0.050000
0.140479 -0.111939 -0.050000
0.140867 -0.124493 -0.050000
0.141409 -0.137007 -0.050000
0.142120 -0.149503 -0.050000
0.143031 -0.161998 -0.050000
0.144175 -0.174528 -0.050000
0.145568 -0.187165 -0.050000
0.147241 -0.199894 -0.050000
0.149184 -0.212927 -0.050000
0.151320 -0.226182 -0.050000
0.153569 -0.239885 -0.050000
0.155765 -0.253992 -0.050000
0.157831 -0.268564 -0.050000
0.159673 -0.283577 -0.050000
0.161223 -0.298994 -0.050000
0.162450 -0.314769 -0.050000
0.163318 -0.330834 -0.050000
0.163824 -0.347129 -0.050000
0.163961 -0.363590 -0.050000
0.163742 -0.380161 -0.050000
0.163187 -0.396795 -0.050000
0.162333 -0.413449 -0.050000
0.161242 -0.430087 -0.050000
0.160011 -0.446678 -0.050000
0.158786 -0.463195 -0.050000
0.157764 -0.479627 -0.050000
0.157140 -0.496043 -0.050000
0.127461 0.385930 -0.050000
0.127986 0.369382 -0.050000
0.128687 0.352628 -0.050000
0.129345 0.335944 -0.050000
0.129830 0.319383 -0.050000
0.130083 0.302633 -0.050000
0.130092 0.286128 -0.050000
0.129865 0.269481 -0.050000
0.129473 0.253383 -0.050000
0.128941 0.237308 -0.050000
0.128406 0.221236 -0.050000
0.127844 0.205825 -0.050000
0.127334 0.190296 -0.050000
0.126915 0.175161 -0.050000
0.126423 0.159844 -0.050000
0.125891 0.144904 -0.050000
0.125351 0.130212 -0.050000
0.124687 0.115490 -0.050000
0.124022 0.101210 -0.050000
0.123481 0.087024 -0.050000
0.122973 0.072967 -0.050000
0.122568 0.059047 -0.050000
0.122230 0.045223 -0.050000
0.121929 0.031493 -0.050000
0.121644 0.017852 -0.050000
0.121360 0.004300 -0.050000
0.121069 -0.009169 -0.050000
0.120775 -0.022545 -0.050000
0.120489 -0.035837 -0.050000
0.120225 -0.049035 -0.050000
0.120007 -0.062147 -0.050000
0.119851 -0.075172 -0.050000
0.119788 -0.088106 -0.050000
0.119831 -0.100973 -0.050000
0.120002 -0.113750 -0.050000
0.120329 -0.126468 -0.050000
0.120828 -0.139127 -0.050000
0.121541 -0.151729 -0.050000
0.122503 -0.164315 -0.050000
0.123755 -0.176888 -0.050000
0.125355 -0.189490 -0.050000
0.127316 -0.202228 -0.050000
0.129655 -0.215053 -0.050000
0.132324 -0.228245 -0.050000
0.135096 -0.241751 -0.050000
0.137858 -0.255707 -0.050000
0.140435 -0.270139 -0.050000
0.142723 -0.285011 -0.050000
0.144660 -0.300314 -0.050000
0.146182 -0.315977 -0.050000
0.147284 -0.331946 -0.050000
0.147950 -0.348149 -0.050000
0.148197 -0.364527 -0.050000
0.148040 -0.381022 -0.050000
0.147510 -0.397586 -0.050000
0.146653 -0.414177 -0.050000
0.145537 -0.430756 -0.050000
0.144269 -0.447293 -0.050000
0.143007 -0.463756 -0.050000
0.141964 -0.480129 -0.050000
0.141351 -0.496477 -0.050000
0.111805 0.386049 -0.050000
0.112415 0.369505 -0.050000
0.113089 0.352768 -0.050000
0.113777 0.336131 -0.050000
0.114266 0.319572 -0.050000
0.114435 0.302848 -0.050000
0.114349 0.286369 -0.050000
0.113975 0.269720 -0.050000
0.113377 0.253716 -0.050000
0.112656 0.237690 -0.050000
0.111858 0.221701 -0.050000
0.111124 0.206384 -0.050000
0.110452 0.190978 -0.050000
0.109757 0.175863 -0.050000
0.109143 0.160734 -0.050000
0.108464 0.145729 -0.050000
0.107602 0.131101 -0.050000
0.106771 0.116407 -0.050000
0.106003 0.102039 -0.050000
0.105181 0.087722 -0.050000
0.104531 0.073590 -0.050000
0.103985 0.059496 -0.050000
0.103517 0.045494 -0.050000
0.103094 0.031571 -0.050000
0.102691 0.017726 -0.050000
0.102284 0.003957 -0.050000
0.101869 -0.009726 -0.050000
0.101447 -0.023336 -0.050000
0.101029 -0.036856 -0.050000
0.100635 -0.050302 -0.050000
0.100285 -0.063656 -0.050000
0.100012 -0.076933 -0.050000
0.099828 -0.090128 -0.050000
0.099766 -0.103228 -0.050000
0.099851 -0.116262 -0.050000
0.100096 -0.129211 -0.050000
0.100546 -0.142071 -0.050000
0.101235 -0.154874 -0.050000
0.102218 -0.167582 -0.050000
0.103553 -0.180272 -0.050000
0.105294 -0.192902 -0.050000
0.107527 -0.205557 -0.050000
0.110253 -0.218376 -0.050000
0.113363 -0.231325 -0.050000
0.116706 -0.244642 -0.050000
0.119988 -0.258419 -0.050000
0.123049 -0.272618 -0.050000
0.125781 -0.287323 -0.050000
0.128057 -0.302436 -0.050000
0.129866 -0.317931 -0.050000
0.131171 -0.333733 -0.050000
0.131989 -0.349782 -0.050000
0.132331 -0.366011 -0.050000
0.132231 -0.382367 -0.050000
0.131724 -0.398801 -0.050000
0.130865 -0.415271 -0.050000
0.129729 -0.431740 -0.050000
0.128431 -0.448175 -0.050000
0.127139 -0.464541 -0.050000
0.126082 -0.480816 -0.050000
0.125479 -0.497061 -0.050000
0.096212 0.386214 -0.050000
0.096727 0.369663 -0.050000
0.097602 0.353059 -0.050000
0.098253 0.336333 -0.050000
0.098644 0.319876 -0.050000
0.098811 0.303183 -0.050000
0.098602 0.286775 -0.050000
0.098023 0.270148 -0.050000
0.097213 0.254225 -0.050000
0.096315 0.238342 -0.050000
0.095280 0.222311 -0.050000
0.094290 0.207286 -0.050000
0.093399 0.191866 -0.050000
0.092665 0.176955 -0.050000
0.091709 0.161619 -0.050000
0.090822 0.147047 -0.050000
0.090056 0.132238 -0.050000
0.089065 0.117456 -0.050000
0.087945 0.102891 -0.050000
0.087073 0.088634 -0.050000
0.086312 0.074264 -0.050000
0.085652 0.059993 -0.050000
0.085079 0.045775 -0.050000
0.084556 0.031621 -0.050000
0.084041 0.017533 -0.050000
0.083527 0.003524 -0.050000
0.083000 -0.010424 -0.050000
0.082461 -0.024295 -0.050000
0.081925 -0.038101 -0.050000
0.081413 -0.051821 -0.050000
0.080950 -0.065489 -0.050000
0.080554 -0.079056 -0.050000
0.080272 -0.092561 -0.050000
0.080106 -0.105983 -0.050000
0.080090 -0.119317 -0.050000
0.080256 -0.132546 -0.050000
0.080640 -0.145702 -0.050000
0.081285 -0.158735 -0.050000
0.082256 -0.171686 -0.050000
0.083630 -0.184471 -0.050000
0.085493 -0.197266 -0.050000
0.087902 -0.209896 -0.050000
0.090966 -0.222585 -0.050000
0.094566 -0.235414 -0.050000
0.098376 -0.248563 -0.050000
0.102141 -0.262001 -0.050000
0.105691 -0.276024 -0.050000
0.108778 -0.290452 -0.050000
0.111391 -0.305336 -0.050000
0.113435 -0.320591 -0.050000
0.114929 -0.336166 -0.050000
0.115873 -0.351991 -0.050000
0.116304 -0.368008 -0.050000
0.116254 -0.384162 -0.050000
0.115773 -0.400408 -0.050000
0.114919 -0.416703 -0.050000
0.113773 -0.433011 -0.050000
0.112456 -0.449298 -0.050000
0.111145 -0.465527 -0.050000
0.110080 -0.481666 -0.050000
0.109490 -0.497772 -0.050000
0.080494 0.386479 -0.050000
0.081498 0.370158 -0.050000
0.082209 0.353327 -0.050000
0.082965 0.336867 -0.050000
0.083310 0.320175 -0.050000
0.083037 0.303649 -0.050000
0.082678 0.287415 -0.050000
0.082187 0.270943 -0.050000
0.081306 0.254962 -0.050000
0.079826 0.238995 -0.050000
0.078521 0.223435 -0.050000
0.077447 0.208302 -0.050000
0.076341 0.193184 -0.050000
0.075041 0.177788 -0.050000
0.074050 0.163155 -0.050000
0.073122 0.148163 -0.050000
0.072084 0.134036 -0.050000
0.070984 0.118342 -0.050000
0.070110 0.104170 -0.050000
0.069177 0.089492 -0.050000
0.068325 0.074999 -0.050000
0.067602 0.060494 -0.050000
0.066948 0.046031 -0.050000
0.066319 0.031634 -0.050000
0.065723 0.017304 -0.050000
0.065113 0.003016 -0.050000
0.064484 -0.011198 -0.050000
0.063848 -0.025358 -0.050000
0.063213 -0.039460 -0.050000
0.062594 -0.053516 -0.050000
0.062029 -0.067469 -0.050000
0.061549 -0.081424 -0.050000
0.061142 -0.095235 -0.050000
0.060892 -0.109013 -0.050000
0.060784 -0.122664 -0.050000
0.060876 -0.136269 -0.050000
0.061174 -0.149732 -0.050000
0.061757 -0.163089 -0.050000
0.062692 -0.176279 -0.050000
0.064067 -0.189351 -0.050000
0.066009 -0.202123 -0.050000
0.068646 -0.215070 -0.050000
0.071938 -0.227644 -0.050000
0.075892 -0.240398 -0.050000
0.080114 -0.253174 -0.050000
0.084386 -0.266539 -0.050000
0.088241 -0.280182 -0.050000
0.091712 -0.294353 -0.050000
0.094572 -0.308929 -0.050000
0.096838 -0.323893 -0.050000
0.098481 -0.339175 -0.050000
0.099542 -0.354718 -0.050000
0.100049 -0.370461 -0.050000
0.100053 -0.386356 -0.050000
0.099602 -0.402358 -0.050000
0.098764 -0.418428 -0.050000
0.097624 -0.434531 -0.050000
0.096305 -0.450628 -0.050000
0.094992 -0.466683 -0.050000
0.093926 -0.482654 -0.050000
0.093351 -0.498598 -0.050000
0.064682 0.386895 -0.050000
0.065100 0.370332 -0.050000
0.066043 0.353793 -0.050000
0.066765 0.337278 -0.050000
0.067104 0.320723 -0.050000
0.067280 0.304353 -0.050000
0.066749 0.288135 -0.050000
0.065787 0.272213 -0.050000
0.064537 0.255857 -0.050000
0.063484 0.240353 -0.050000
0.062138 0.224579 -0.050000
0.060604 0.209613 -0.050000
0.059215 0.194398 -0.050000
0.058215 0.179285 -0.050000
0.057116 0.164358 -0.050000
0.055894 0.149851 -0.050000
0.054652 0.134771 -0.050000
0.053537 0.120235 -0.050000
0.052489 0.105078 -0.050000
0.051505 0.090492 -0.050000
0.050648 0.075680 -0.050000
0.049830 0.060937 -0.050000
0.049078 0.046266 -0.050000
0.048414 0.031636 -0.050000
0.047725 0.017029 -0.050000
0.047031 0.002502 -0.050000
0.046330 -0.011994 -0.050000
0.045607 -0.026445 -0.050000
0.044887 -0.040839 -0.050000
0.044199 -0.055202 -0.050000
0.043535 -0.069558 -0.050000
0.042951 -0.083709 -0.050000
0.042537 -0.098007 -0.050000
0.042169 -0.112024 -0.050000
0.042016 -0.126129 -0.050000
0.041984 -0.140044 -0.050000
0.042201 -0.153879 -0.050000
0.042690 -0.167559 -0.050000
0.043537 -0.181090 -0.050000
0.044855 -0.194384 -0.050000
0.046758 -0.207451 -0.050000
0.049506 -0.220124 -0.050000
0.053288 -0.233624 -0.050000
0.057330 -0.245534 -0.050000
0.062087 -0.258840 -0.050000
0.066472 -0.271571 -0.050000
0.070757 -0.285029 -0.050000
0.074457 -0.298851 -0.050000
0.077558 -0.313102 -0.050000
0.079983 -0.327720 -0.050000
0.081765 -0.342661 -0.050000
0.082922 -0.357868 -0.050000
0.083507 -0.373289 -0.050000
0.083568 -0.388877 -0.050000
0.083162 -0.404590 -0.050000
0.082357 -0.420393 -0.050000
0.081242 -0.436250 -0.050000
0.079943 -0.452124 -0.050000
0.078645 -0.467972 -0.050000
0.077593 -0.483749 -0.050000
0.077037 -0.499518 -0.050000
0.048738 0.387121 -0.050000
0.049514 0.370766 -0.050000
0.050289 0.354383 -0.050000
0.051008 0.337914 -0.050000
0.051433 0.321579 -0.050000
0.051268 0.305299 -0.050000
0.050729 0.289207 -0.050000
0.049681 0.273219 -0.050000
0.048689 0.257785 -0.050000
0.046902 0.241245 -0.050000
0.045127 0.226421 -0.050000
0.043833 0.211048 -0.050000
0.042644 0.196000 -0.050000
0.041380 0.180959 -0.050000
0.040231 0.165812 -0.050000
0.039074 0.151015 -0.050000
0.037815 0.136048 -0.050000
0.036530 0.121206 -0.050000
0.035280 0.106177 -0.050000
0.034206 0.091200 -0.050000
0.033132 0.076264 -0.050000
0.032281 0.061392 -0.050000
0.031551 0.046486 -0.050000
0.030763 0.031598 -0.050000
0.030024 0.016796 -0.050000
0.029276 0.002002 -0.050000
0.028495 -0.012739 -0.050000
0.027718 -0.027447 -0.050000
0.026943 -0.042151 -0.050000
0.026169 -0.056783 -0.050000
0.025482 -0.071419 -0.050000
0.024822 -0.086075 -0.050000
0.024197 -0.100165 -0.050000
0.023975 -0.114978 -0.050000
0.023658 -0.129311 -0.050000
0.023565 -0.143617 -0.050000
0.023673 -0.157775 -0.050000
0.024079 -0.171827 -0.050000
0.024840 -0.185692 -0.050000
0.026071 -0.199391 -0.050000
0.027891 -0.212700 -0.050000
0.030571 -0.225885 -0.050000
0.034199 -0.238127 -0.050000
0.039141 -0.252410 -0.050000
0.043705 -0.264145 -0.050000
0.048602 -0.277137 -0.050000
0.053057 -0.290224 -0.050000
0.056986 -0.303769 -0.050000
0.060239 -0.317662 -0.050000
0.062812 -0.331917 -0.050000
0.064701 -0.346485 -0.050000
0.065956 -0.361324 -0.050000
0.066621 -0.376386 -0.050000
0.066753 -0.391633 -0.050000
0.066409 -0.407025 -0.050000
0.065659 -0.422530 -0.050000
0.064593 -0.438112 -0.050000
0.063338 -0.453735 -0.050000
0.062078 -0.469353 -0.050000
0.061056 -0.484916 -0.050000
0.060523 -0.500492 -0.050000
0.032824 0.387468 -0.050000
0.033510 0.371211 -0.050000
0.034437 0.354936 -0.050000
0.035149 0.338713 -0.050000
0.035438 0.322480 -0.050000
0.035284 0.306415 -0.050000
0.034532 0.290403 -0.050000
0.033466 0.274745 -0.050000
0.031680 0.259270 -0.050000
0.029961 0.242981 -0.050000
0.028455 0.227931 -0.050000
0.026756 0.212944 -0.050000
0.025254 0.197680 -0.050000
0.023961 0.182497 -0.050000
0.022698 0.167442 -0.050000
0.021484 0.152289 -0.050000
0.020280 0.137296 -0.050000
0.019088 0.122156 -0.050000
0.017979 0.107095 -0.050000
0.016915 0.091917 -0.050000
0.016054 0.076783 -0.050000
0.015110 0.061736 -0.050000
0.014168 0.046669 -0.050000
0.013400 0.031628 -0.050000
0.012592 0.016583 -0.050000
0.011768 0.001602 -0.050000
0.010969 -0.013364 -0.050000
0.010141 -0.028321 -0.050000
0.009301 -0.043244 -0.050000
0.008539 -0.058205 -0.050000
0.007761 -0.072919 -0.050000
0.007286 -0.087953 -0.050000
0.006593 -0.102517 -0.050000
0.005988 -0.117349 -0.050000
0.005635 -0.132073 -0.050000
0.005433 -0.146638 -0.050000
0.005466 -0.161149 -0.050000
0.005757 -0.175503 -0.050000
0.006455 -0.189744 -0.050000
0.007639 -0.203759 -0.050000
0.009565 -0.217697 -0.050000
0.012271 -0.230644 -0.050000
0.015815 -0.243587 -0.050000
0.020674 -0.257525 -0.050000
0.025638 -0.269892 -0.050000
0.030518 -0.282550 -0.050000
0.035143 -0.295574 -0.050000
0.039180 -0.308801 -0.050000
0.042565 -0.322385 -0.050000
0.045242 -0.336278 -0.050000
0.047241 -0.350474 -0.050000
0.048592 -0.364936 -0.050000
0.049351 -0.379629 -0.050000
0.049570 -0.394519 -0.050000
0.049312 -0.409574 -0.050000
0.048643 -0.424764 -0.050000
0.047654 -0.440054 -0.050000
0.046470 -0.455409 -0.050000
0.045272 -0.470781 -0.050000
0.044295 -0.486116 -0.050000
0.043793 -0.501495 -0.050000
0.016709 0.387833 -0.050000
0.017462 0.371695 -0.050000
0.018350 0.355587 -0.050000
0.019055 0.339489 -0.050000
0.019330 0.323491 -0.050000
0.019036 0.307535 -0.050000
0.018276 0.291793 -0.050000
0.016871 0.276159 -0.050000
0.015324 0.260749 -0.050000
0.013419 0.244645 -0.050000
0.011531 0.229706 -0.050000
0.009877 0.214473 -0.050000
0.008300 0.199270 -0.050000
0.006865 0.184025 -0.050000
0.005577 0.168774 -0.050000
0.004337 0.153609 -0.050000
0.003145 0.138350 -0.050000
0.001996 0.123172 -0.050000
0.000885 0.107894 -0.050000
-0.000123 0.092646 -0.050000
-0.001130 0.077398 -0.050000
-0.001992 0.062056 -0.050000
-0.002845 0.046827 -0.050000
-0.003809 0.031682 -0.050000
-0.004649 0.016508 -0.050000
-0.005451 0.001324 -0.050000
-0.006331 -0.013839 -0.050000
-0.007192 -0.028979 -0.050000
-0.008020 -0.044111 -0.050000
-0.008862 -0.059287 -0.050000
-0.009613 -0.074055 -0.050000
-0.010352 -0.089259 -0.050000
-0.011013 -0.104388 -0.050000
-0.011552 -0.119329 -0.050000
-0.012010 -0.134241 -0.050000
-0.012281 -0.149131 -0.050000
-0.012370 -0.163849 -0.050000
-0.012119 -0.178534 -0.050000
-0.011542 -0.193063 -0.050000
-0.010394 -0.207468 -0.050000
-0.008578 -0.221399 -0.050000
-0.006010 -0.235253 -0.050000
-0.002349 -0.248252 -0.050000
0.002271 -0.262288 -0.050000
0.007251 -0.275133 -0.050000
0.012283 -0.287776 -0.050000
0.016901 -0.300625 -0.050000
0.021028 -0.313700 -0.050000
0.024481 -0.326999 -0.050000
0.027256 -0.340587 -0.050000
0.029350 -0.354438 -0.050000
0.030809 -0.368545 -0.050000
0.031674 -0.382881 -0.050000
0.032004 -0.397422 -0.050000
0.031855 -0.412142 -0.050000
0.031295 -0.427015 -0.050000
0.030411 -0.442010 -0.050000
0.029326 -0.457092 -0.050000
0.028213 -0.472212 -0.050000
0.027300 -0.487315 -0.050000
0.026835 -0.502496 -0.050000
0.000503 0.388195 -0.050000
0.001229 0.372193 -0.050000
0.002114 0.356218 -0.050000
0.002785 0.340314 -0.050000
0.002991 0.324451 -0.050000
0.002681 0.308721 -0.050000
0.001741 0.293079 -0.050000
0.000429 0.277580 -0.050000
-0.001354 0.262294 -0.050000
-0.003309 0.246199 -0.050000
-0.005165 0.231250 -0.050000
-0.006971 0.216017 -0.050000
-0.008574 0.200697 -0.050000
-0.010021 0.185374 -0.050000
-0.011355 0.170057 -0.050000
-0.012596 0.154711 -0.050000
-0.013772 0.139417 -0.050000
-0.014905 0.124033 -0.050000
-0.015997 0.108684 -0.050000
-0.017042 0.093313 -0.050000
-0.018003 0.077895 -0.050000
-0.018961 0.062552 -0.050000
-0.019834 0.047108 -0.050000
-0.020639 0.031782 -0.050000
-0.021575 0.016473 -0.050000
-0.022549 0.001197 -0.050000
-0.023406 -0.014113 -0.050000
-0.024284 -0.029407 -0.050000
-0.025178 -0.044746 -0.050000
-0.025909 -0.059847 -0.050000
-0.026740 -0.075082 -0.050000
-0.027554 -0.090411 -0.050000
-0.028261 -0.105592 -0.050000
-0.028873 -0.120768 -0.050000
-0.029365 -0.135888 -0.050000
-0.029695 -0.150880 -0.050000
-0.029793 -0.166001 -0.050000
-0.029760 -0.180880 -0.050000
-0.029250 -0.195612 -0.050000
-0.028179 -0.210217 -0.050000
-0.026485 -0.224708 -0.050000
-0.023870 -0.238737 -0.050000
-0.020459 -0.252094 -0.050000
-0.015994 -0.266440 -0.050000
-0.011144 -0.279435 -0.050000
-0.006276 -0.292340 -0.050000
-0.001611 -0.305193 -0.050000
0.002492 -0.318148 -0.050000
0.006005 -0.331288 -0.050000
0.008847 -0.344628 -0.050000
0.011041 -0.358199 -0.050000
0.012608 -0.371996 -0.050000
0.013597 -0.386011 -0.050000
0.014055 -0.400230 -0.050000
0.014040 -0.414636 -0.050000
0.013614 -0.429206 -0.050000
0.012862 -0.443916 -0.050000
0.011902 -0.458731 -0.050000
0.010898 -0.473604 -0.050000
0.010066 -0.488478 -0.050000
0.009646 -0.503468 -0.050000
-0.015847 0.388549 -0.050000
-0.015134 0.372661 -0.050000
-0.014289 0.356842 -0.050000
-0.013669 0.341076 -0.050000
-0.013496 0.325403 -0.050000
-0.013908 0.309801 -0.050000
-0.014820 0.294303 -0.050000
-0.016272 0.278944 -0.050000
-0.018036 0.263645 -0.050000
-0.019985 0.247634 -0.050000
-0.021935 0.232656 -0.050000
-0.023713 0.217390 -0.050000
-0.025367 0.201994 -0.050000
-0.026852 0.186591 -0.050000
-0.028173 0.171208 -0.050000
-0.029368 0.155795 -0.050000
-0.030527 0.140316 -0.050000
-0.031638 0.124903 -0.050000
-0.032688 0.109412 -0.050000
-0.033770 0.093890 -0.050000
-0.034806 0.078484 -0.050000
-0.035743 0.062977 -0.050000
-0.036674 0.047540 -0.050000
-0.037598 0.032078 -0.050000
-0.038474 0.016570 -0.050000
-0.039354 0.001181 -0.050000
-0.040326 -0.014198 -0.050000
-0.041243 -0.029633 -0.050000
-0.042015 -0.044972 -0.050000
-0.042918 -0.060264 -0.050000
-0.043790 -0.075768 -0.050000
-0.044576 -0.091075 -0.050000
-0.045306 -0.106433 -0.050000
-0.045965 -0.121730 -0.050000
-0.046479 -0.136957 -0.050000
-0.046896 -0.152185 -0.050000
-0.047178 -0.167504 -0.050000
-0.047086 -0.182640 -0.050000
-0.046675 -0.197395 -0.050000
-0.045714 -0.212403 -0.050000
-0.044058 -0.227093 -0.050000
-0.041701 -0.241411 -0.050000
-0.038350 -0.255162 -0.050000
-0.034249 -0.269637 -0.050000
-0.029629 -0.283041 -0.050000
-0.024889 -0.296028 -0.050000
-0.020417 -0.309040 -0.050000
-0.016326 -0.322004 -0.050000
-0.012828 -0.335055 -0.050000
-0.009928 -0.348246 -0.050000
-0.007654 -0.361607 -0.050000
-0.005973 -0.375160 -0.050000
-0.004855 -0.388907 -0.050000
-0.004253 -0.402848 -0.050000
-0.004117 -0.416973 -0.050000
-0.004386 -0.431269 -0.050000
-0.004982 -0.445714 -0.050000
-0.005794 -0.460279 -0.050000
-0.006668 -0.474918 -0.050000
-0.007403 -0.489575 -0.050000
-0.007771 -0.504386 -0.050000
-0.032311 0.388872 -0.050000
-0.031637 0.373102 -0.050000
-0.030844 0.357406 -0.050000
-0.030273 0.341797 -0.050000
-0.030174 0.326254 -0.050000
-0.030593 0.310795 -0.050000
-0.031588 0.295428 -0.050000
-0.033010 0.280109 -0.050000
-0.034800 0.264918 -0.050000
-0.036745 0.248869 -0.050000
-0.038656 0.233926 -0.050000
-0.040456 0.218599 -0.050000
-0.042087 0.203170 -0.050000
-0.043589 0.187621 -0.050000
-0.044931 0.172320 -0.050000
-0.046171 0.156743 -0.050000
-0.047325 0.141235 -0.050000
-0.048437 0.125682 -0.050000
-0.049511 0.110196 -0.050000
-0.050452 0.094549 -0.050000
-0.051448 0.079004 -0.050000
-0.052454 0.063516 -0.050000
-0.053396 0.047961 -0.050000
-0.054334 0.032428 -0.050000
-0.055252 0.016914 -0.050000
-0.056223 0.001287 -0.050000
-0.057148 -0.014064 -0.050000
-0.057986 -0.029624 -0.050000
-0.058929 -0.044954 -0.050000
-0.059818 -0.060606 -0.050000
-0.060652 -0.075986 -0.050000
-0.061454 -0.091481 -0.050000
-0.062211 -0.106891 -0.050000
-0.062856 -0.122288 -0.050000
-0.063468 -0.137638 -0.050000
-0.063987 -0.153153 -0.050000
-0.064229 -0.168441 -0.050000
-0.064216 -0.183781 -0.050000
-0.063877 -0.198726 -0.050000
-0.062997 -0.213912 -0.050000
-0.061537 -0.228825 -0.050000
-0.059283 -0.243412 -0.050000
-0.056221 -0.257324 -0.050000
-0.052416 -0.272179 -0.050000
-0.048103 -0.285649 -0.050000
-0.043667 -0.299029 -0.050000
-0.039329 -0.312104 -0.050000
-0.035393 -0.325172 -0.050000
-0.031915 -0.338218 -0.050000
-0.029007 -0.351334 -0.050000
-0.026662 -0.364566 -0.050000
-0.024882 -0.377943 -0.050000
-0.023632 -0.391485 -0.050000
-0.022881 -0.405200 -0.050000
-0.022581 -0.419090 -0.050000
-0.022679 -0.433147 -0.050000
-0.023101 -0.447359 -0.050000
-0.023747 -0.461699 -0.050000
-0.024473 -0.476124 -0.050000
-0.025096 -0.490584 -0.050000
-0.025405 -0.505231 -0.050000
-0.048892 0.389168 -0.050000
-0.048264 0.373494 -0.050000
-0.047531 0.357923 -0.050000
-0.047034 0.342433 -0.050000
-0.046969 0.327023 -0.050000
-0.047450 0.311683 -0.050000
-0.048428 0.296392 -0.050000
-0.049863 0.281183 -0.050000
-0.051620 0.265986 -0.050000
-0.053502 0.249992 -0.050000
-0.055408 0.235018 -0.050000
-0.057158 0.219698 -0.050000
-0.058784 0.204200 -0.050000
-0.060239 0.188599 -0.050000
-0.061575 0.173248 -0.050000
-0.062794 0.157652 -0.050000
-0.063951 0.142039 -0.050000
-0.065046 0.126474 -0.050000
-0.066099 0.110864 -0.050000
-0.067154 0.095326 -0.050000
-0.068072 0.079610 -0.050000
-0.069043 0.064028 -0.050000
-0.070038 0.048472 -0.050000
-0.070978 0.032878 -0.050000
-0.071948 0.017285 -0.050000
-0.072826 0.001653 -0.050000
-0.073739 -0.013862 -0.050000
-0.074728 -0.029367 -0.050000
-0.075681 -0.045015 -0.050000
-0.076562 -0.060477 -0.050000
-0.077410 -0.076082 -0.050000
-0.078221 -0.091558 -0.050000
-0.078951 -0.107088 -0.050000
-0.079689 -0.122528 -0.050000
-0.080365 -0.138152 -0.050000
-0.080835 -0.153565 -0.050000
-0.081142 -0.169059 -0.050000
-0.081198 -0.184478 -0.050000
-0.080909 -0.199608 -0.050000
-0.080171 -0.214927 -0.050000
-0.078816 -0.230022 -0.050000
-0.076814 -0.244752 -0.050000
-0.073958 -0.258917 -0.050000
-0.070551 -0.273880 -0.050000
-0.066564 -0.287700 -0.050000
-0.062419 -0.301151 -0.050000
-0.058367 -0.314506 -0.050000
-0.054559 -0.327643 -0.050000
-0.051192 -0.340755 -0.050000
-0.048291 -0.353862 -0.050000
-0.045914 -0.367029 -0.050000
-0.044046 -0.380298 -0.050000
-0.042679 -0.393694 -0.050000
-0.041779 -0.407239 -0.050000
-0.041313 -0.420941 -0.050000
-0.041230 -0.434803 -0.050000
-0.041467 -0.448817 -0.050000
-0.041932 -0.462962 -0.050000
-0.042496 -0.477199 -0.050000
-0.042996 -0.491484 -0.050000
-0.043239 -0.505988 -0.050000
-0.065576 0.389428 -0.050000
-0.065002 0.373846 -0.050000
-0.064347 0.358376 -0.050000
-0.063911 0.343001 -0.050000
-0.063911 0.327699 -0.050000
-0.064396 0.312452 -0.050000
-0.065388 0.297263 -0.050000
-0.066780 0.282088 -0.050000
-0.068489 0.266962 -0.050000
-0.070315 0.250948 -0.050000
-0.072151 0.236013 -0.050000
-0.073869 0.220658 -0.050000
-0.075440 0.205153 -0.050000
-0.076883 0.189492 -0.050000
-0.078179 0.174130 -0.050000
-0.079392 0.158475 -0.050000
-0.080527 0.142843 -0.050000
-0.081618 0.127204 -0.050000
-0.082674 0.111593 -0.050000
-0.083685 0.095939 -0.050000
-0.084714 0.080359 -0.050000
-0.085622 0.064609 -0.050000
-0.086582 0.048996 -0.050000
-0.087584 0.033395 -0.050000
-0.088517 0.017751 -0.050000
-0.089498 0.002144 -0.050000
-0.090459 -0.013485 -0.050000
-0.091414 -0.029127 -0.050000
-0.092316 -0.044710 -0.050000
-0.093214 -0.060324 -0.050000
-0.094048 -0.075868 -0.050000
-0.094851 -0.091533 -0.050000
-0.095688 -0.107008 -0.050000
-0.096447 -0.122700 -0.050000
-0.097070 -0.138215 -0.050000
-0.097592 -0.153796 -0.050000
-0.097940 -0.169333 -0.050000
-0.098043 -0.184881 -0.050000
-0.097850 -0.200109 -0.050000
-0.097197 -0.215557 -0.050000
-0.096029 -0.230748 -0.050000
-0.094212 -0.245647 -0.050000
-0.091663 -0.259917 -0.050000
-0.088594 -0.275101 -0.050000
-0.084975 -0.289022 -0.050000
-0.081177 -0.302767 -0.050000
-0.077379 -0.316197 -0.050000
-0.073808 -0.329523 -0.050000
-0.070547 -0.342698 -0.050000
-0.067716 -0.355846 -0.050000
-0.065325 -0.369001 -0.050000
-0.063401 -0.382213 -0.050000
-0.061929 -0.395519 -0.050000
-0.060893 -0.408944 -0.050000
-0.060263 -0.422506 -0.050000
-0.059999 -0.436215 -0.050000
-0.060044 -0.450069 -0.050000
-0.060320 -0.464053 -0.050000
-0.060713 -0.478131 -0.050000
-0.061081 -0.492265 -0.050000
-0.061253 -0.506649 -0.050000
-0.082351 0.389658 -0.050000
-0.081843 0.374151 -0.050000
-0.081265 0.358776 -0.050000
-0.080911 0.343495 -0.050000
-0.080947 0.328287 -0.050000
-0.081462 0.313134 -0.050000
-0.082422 0.298005 -0.050000
-0.083773 0.282907 -0.050000
-0.085413 0.267797 -0.050000
-0.087146 0.251815 -0.050000
-0.088926 0.236880 -0.050000
-0.090567 0.221539 -0.050000
-0.092104 0.206006 -0.050000
-0.093491 0.190331 -0.050000
-0.094779 0.174943 -0.050000
-0.095958 0.159270 -0.050000
-0.097089 0.143594 -0.050000
-0.098162 0.127939 -0.050000
-0.099205 0.112275 -0.050000
-0.100229 0.096631 -0.050000
-0.101214 0.080949 -0.050000
-0.102224 0.065336 -0.050000
-0.103135 0.049569 -0.050000
-0.104088 0.033928 -0.050000
-0.105096 0.018297 -0.050000
-0.106051 0.002631 -0.050000
-0.107028 -0.013038 -0.050000
-0.107958 -0.028694 -0.050000
-0.108892 -0.044346 -0.050000
-0.109773 -0.059972 -0.050000
-0.110661 -0.075609 -0.050000
-0.111526 -0.091270 -0.050000
-0.112327 -0.106917 -0.050000
-0.113059 -0.122531 -0.050000
-0.113718 -0.138169 -0.050000
-0.114262 -0.153781 -0.050000
-0.114641 -0.169407 -0.050000
-0.114815 -0.185012 -0.050000
-0.114672 -0.200344 -0.050000
-0.114163 -0.215851 -0.050000
-0.113135 -0.231151 -0.050000
-0.111564 -0.246126 -0.050000
-0.109272 -0.260545 -0.050000
-0.106579 -0.275802 -0.050000
-0.103315 -0.289940 -0.050000
-0.099863 -0.303773 -0.050000
-0.096386 -0.317427 -0.050000
-0.093029 -0.330832 -0.050000
-0.089951 -0.344135 -0.050000
-0.087197 -0.357334 -0.050000
-0.084839 -0.370514 -0.050000
-0.082879 -0.383712 -0.050000
-0.081327 -0.396970 -0.050000
-0.080168 -0.410319 -0.050000
-0.079384 -0.423784 -0.050000
-0.078942 -0.437379 -0.050000
-0.078797 -0.451109 -0.050000
-0.078879 -0.464965 -0.050000
-0.079096 -0.478914 -0.050000
-0.079325 -0.492923 -0.050000
-0.079422 -0.507208 -0.050000
-0.099210 0.389856 -0.050000
-0.098768 0.374417 -0.050000
-0.098285 0.359120 -0.050000
-0.098001 0.343925 -0.050000
-0.098094 0.328801 -0.050000
-0.098606 0.313720 -0.050000
-0.099545 0.298665 -0.050000
-0.100828 0.283612 -0.050000
-0.102382 0.268548 -0.050000
-0.104029 0.252573 -0.050000
-0.105708 0.237667 -0.050000
-0.107289 0.222325 -0.050000
-0.108752 0.206795 -0.050000
-0.110111 0.191097 -0.050000
-0.111351 0.175711 -0.050000
-0.112521 0.160012 -0.050000
-0.113624 0.144324 -0.050000
-0.114693 0.128641 -0.050000
-0.115725 0.112966 -0.050000
-0.116735 0.097283 -0.050000
-0.117736 0.081614 -0.050000
-0.118707 0.065916 -0.050000
-0.119701 0.050275 -0.050000
-0.120624 0.034496 -0.050000
-0.121579 0.018840 -0.050000
-0.122582 0.003164 -0.050000
-0.123534 -0.012515 -0.050000
-0.124496 -0.028206 -0.050000
-0.125419 -0.043894 -0.050000
-0.126335 -0.059543 -0.050000
-0.127221 -0.075273 -0.050000
-0.128075 -0.090943 -0.050000
-0.128877 -0.106621 -0.050000
-0.129629 -0.122287 -0.050000
-0.130301 -0.137961 -0.050000
-0.130864 -0.153630 -0.050000
-0.131288 -0.169302 -0.050000
-0.131499 -0.184962 -0.050000
-0.131455 -0.200351 -0.050000
-0.131041 -0.215922 -0.050000
-0.130199 -0.231269 -0.050000
-0.128833 -0.246336 -0.050000
-0.126843 -0.260823 -0.050000
-0.124478 -0.276195 -0.050000
-0.121584 -0.290422 -0.050000
-0.118486 -0.304435 -0.050000
-0.115314 -0.318171 -0.050000
-0.112230 -0.331739 -0.050000
-0.109326 -0.345115 -0.050000
-0.106705 -0.358402 -0.050000
-0.104393 -0.371621 -0.050000
-0.102431 -0.384834 -0.050000
-0.100818 -0.398076 -0.050000
-0.099557 -0.411385 -0.050000
-0.098632 -0.424788 -0.050000
-0.098021 -0.438305 -0.050000
-0.097688 -0.451944 -0.050000
-0.097578 -0.465701 -0.050000
-0.097616 -0.479549 -0.050000
-0.097703 -0.493459 -0.050000
-0.097721 -0.507665 -0.050000
-0.116138 0.390025 -0.050000
-0.115775 0.374642 -0.050000
-0.115382 0.359415 -0.050000
-0.115187 0.344291 -0.050000
-0.115318 0.329240 -0.050000
-0.115843 0.314229 -0.050000
-0.116735 0.299234 -0.050000
-0.117947 0.284233 -0.050000
-0.119407 0.269206 -0.050000
-0.120933 0.253244 -0.050000
-0.122531 0.238368 -0.050000
-0.124012 0.223037 -0.050000
-0.125423 0.207509 -0.050000
-0.126713 0.191808 -0.050000
-0.127934 0.176420 -0.050000
-0.129064 0.160716 -0.050000
-0.130158 0.145012 -0.050000
-0.131207 0.129320 -0.050000
-0.132232 0.113628 -0.050000
-0.133237 0.097936 -0.050000
-0.134225 0.082240 -0.050000
-0.135211 0.066553 -0.050000
-0.136174 0.050846 -0.050000
-0.137155 0.035174 -0.050000
-0.138106 0.019367 -0.050000
-0.139065 0.003730 -0.050000
-0.140039 -0.011979 -0.050000
-0.140985 -0.027692 -0.050000
-0.141926 -0.043399 -0.050000
-0.142841 -0.059092 -0.050000
-0.143729 -0.074844 -0.050000
-0.144581 -0.090551 -0.050000
-0.145397 -0.106249 -0.050000
-0.146153 -0.121962 -0.050000
-0.146838 -0.137661 -0.050000
-0.147427 -0.153371 -0.050000
-0.147874 -0.169075 -0.050000
-0.148154 -0.184769 -0.050000
-0.148168 -0.200206 -0.050000
-0.147892 -0.215805 -0.050000
-0.147199 -0.231204 -0.050000
-0.146068 -0.246314 -0.050000
-0.144342 -0.260879 -0.050000
-0.142319 -0.276298 -0.050000
-0.139775 -0.290651 -0.050000
-0.137026 -0.304740 -0.050000
-0.134180 -0.318620 -0.050000
-0.131356 -0.332264 -0.050000
-0.128672 -0.345758 -0.050000
-0.126185 -0.359108 -0.050000
-0.123959 -0.372388 -0.050000
-0.122011 -0.385630 -0.050000
-0.120365 -0.398881 -0.050000
-0.119018 -0.412175 -0.050000
-0.117968 -0.425544 -0.050000
-0.117198 -0.439010 -0.050000
-0.116684 -0.452587 -0.050000
-0.116386 -0.466273 -0.050000
-0.116245 -0.480045 -0.050000
-0.116188 -0.493878 -0.050000
-0.116125 -0.508024 -0.050000
-0.133128 0.390164 -0.050000
-0.132844 0.374828 -0.050000
-0.132557 0.359658 -0.050000
-0.132442 0.344598 -0.050000
-0.132629 0.329608 -0.050000
-0.133145 0.314661 -0.050000
-0.134000 0.299715 -0.050000
-0.135126 0.284773 -0.050000
-0.136475 0.269768 -0.050000
-0.137899 0.253840 -0.050000
-0.139367 0.238979 -0.050000
-0.140773 0.223675 -0.050000
-0.142091 0.208150 -0.050000
-0.143343 0.192452 -0.050000
-0.144505 0.177076 -0.050000
-0.145618 0.161366 -0.050000
-0.146681 0.145661 -0.050000
-0.147719 0.129961 -0.050000
-0.148731 0.114261 -0.050000
-0.149728 0.098561 -0.050000
-0.150713 0.082854 -0.050000
-0.151687 0.067149 -0.050000
-0.152661 0.051444 -0.050000
-0.153620 0.035740 -0.050000
-0.154594 0.019952 -0.050000
-0.155553 0.004267 -0.050000
-0.156508 -0.011444 -0.050000
-0.157463 -0.027174 -0.050000
-0.158398 -0.042905 -0.050000
-0.159317 -0.058617 -0.050000
-0.160207 -0.074391 -0.050000
-0.161065 -0.090117 -0.050000
-0.161881 -0.105852 -0.050000
-0.162647 -0.121577 -0.050000
-0.163344 -0.137314 -0.050000
-0.163949 -0.153038 -0.050000
-0.164439 -0.168769 -0.050000
-0.164758 -0.184483 -0.050000
-0.164869 -0.199950 -0.050000
-0.164693 -0.215571 -0.050000
-0.164177 -0.230994 -0.050000
-0.163247 -0.246145 -0.050000
-0.161810 -0.260757 -0.050000
-0.160089 -0.276224 -0.050000
-0.157896 -0.290646 -0.050000
-0.155491 -0.304837 -0.050000
-0.152960 -0.318787 -0.050000
-0.150420 -0.332544 -0.050000
-0.147949 -0.346105 -0.050000
-0.145631 -0.359541 -0.050000
-0.143499 -0.372873 -0.050000
-0.141596 -0.386158 -0.050000
-0.139931 -0.399430 -0.050000
-0.138519 -0.412728 -0.050000
-0.137358 -0.426083 -0.050000
-0.136443 -0.439522 -0.050000
-0.135757 -0.453059 -0.050000
-0.135275 -0.466696 -0.050000
-0.134958 -0.480413 -0.050000
-0.134757 -0.494191 -0.050000
-0.134612 -0.508293 -0.050000
-0.150165 0.390272 -0.050000
-0.149970 0.374972 -0.050000
-0.149787 0.359849 -0.050000
-0.149770 0.344837 -0.050000
-0.149998 0.329903 -0.050000
-0.150526 0.315002 -0.050000
-0.151322 0.300119 -0.050000
-0.152365 0.285202 -0.050000
-0.153601 0.270259 -0.050000
-0.154878 0.254317 -0.050000
-0.156259 0.239516 -0.050000
-0.157542 0.224213 -0.050000
-0.158801 0.208717 -0.050000
-0.159964 0.193020 -0.050000
-0.161104 0.177662 -0.050000
-0.162167 0.161960 -0.050000
-0.163212 0.146253 -0.050000
-0.164228 0.130553 -0.050000
-0.165227 0.114852 -0.050000
-0.166213 0.099140 -0.050000
-0.167190 0.083429 -0.050000
-0.168162 0.067708 -0.050000
-0.169126 0.051999 -0.050000
-0.170094 0.036279 -0.050000
-0.171052 0.020475 -0.050000
-0.172018 0.004786 -0.050000
-0.172973 -0.010944 -0.050000
-0.173920 -0.026684 -0.050000
-0.174855 -0.042428 -0.050000
-0.175771 -0.058160 -0.050000
-0.176662 -0.073940 -0.050000
-0.177522 -0.089692 -0.050000
-0.178343 -0.105436 -0.050000
-0.179115 -0.121189 -0.050000
-0.179825 -0.136932 -0.050000
-0.180454 -0.152679 -0.050000
-0.180971 -0.168417 -0.050000
-0.181355 -0.184143 -0.050000
-0.181530 -0.199630 -0.050000
-0.181486 -0.215260 -0.050000
-0.181114 -0.230698 -0.050000
-0.180407 -0.245877 -0.050000
-0.179222 -0.260519 -0.050000
-0.177812 -0.276020 -0.050000
-0.175950 -0.290504 -0.050000
-0.173879 -0.304753 -0.050000
-0.171668 -0.318789 -0.050000
-0.169400 -0.332608 -0.050000
-0.167168 -0.346258 -0.050000
-0.165018 -0.359750 -0.050000
-0.163007 -0.373145 -0.050000
-0.161158 -0.386471 -0.050000
-0.159498 -0.399772 -0.050000
-0.158036 -0.413084 -0.050000
-0.156780 -0.426441 -0.050000
-0.155730 -0.439868 -0.050000
-0.154881 -0.453383 -0.050000
-0.154222 -0.466989 -0.050000
-0.153733 -0.480669 -0.050000
-0.153388 -0.494408 -0.050000
-0.153160 -0.508479 -0.050000
-0.167241 0.390344 -0.050000
-0.167134 0.375069 -0.050000
-0.167069 0.359979 -0.050000
-0.167142 0.345006 -0.050000
-0.167436 0.330109 -0.050000
-0.167952 0.315259 -0.050000
-0.168713 0.300399 -0.050000
-0.169654 0.285554 -0.050000
-0.170768 0.270601 -0.050000
-0.171939 0.254728 -0.050000
-0.173159 0.239915 -0.050000
-0.174367 0.224672 -0.050000
-0.175512 0.209171 -0.050000
-0.176640 0.193507 -0.050000
-0.177697 0.178165 -0.050000
-0.178738 0.162472 -0.050000
-0.179749 0.146773 -0.050000
-0.180741 0.131080 -0.050000
-0.181721 0.115373 -0.050000
-0.182692 0.099662 -0.050000
-0.183660 0.083935 -0.050000
-0.184623 0.068212 -0.050000
-0.185588 0.052481 -0.050000
-0.186551 0.036762 -0.050000
-0.187511 0.020933 -0.050000
-0.188473 0.005236 -0.050000
-0.189427 -0.010498 -0.050000
-0.190370 -0.026250 -0.050000
-0.191299 -0.042001 -0.050000
-0.192211 -0.057741 -0.050000
-0.193101 -0.073532 -0.050000
-0.193959 -0.089290 -0.050000
-0.194784 -0.105055 -0.050000
-0.195565 -0.120811 -0.050000
-0.196289 -0.136571 -0.050000
-0.196940 -0.152317 -0.050000
-0.197497 -0.168063 -0.050000
-0.197924 -0.183790 -0.050000
-0.198198 -0.199291 -0.050000
-0.198248 -0.214915 -0.050000
-0.198047 -0.230367 -0.050000
-0.197526 -0.245551 -0.050000
-0.196620 -0.260230 -0.050000
-0.195479 -0.275733 -0.050000
-0.193946 -0.290273 -0.050000
-0.192202 -0.304571 -0.050000
-0.190296 -0.318661 -0.050000
-0.188315 -0.332551 -0.050000
-0.186311 -0.346252 -0.050000
-0.184350 -0.359813 -0.050000
-0.182465 -0.373253 -0.050000
-0.180692 -0.386623 -0.050000
-0.179048 -0.399955 -0.050000
-0.177553 -0.413287 -0.050000
-0.176214 -0.426653 -0.050000
-0.175042 -0.440078 -0.050000
-0.174039 -0.453583 -0.050000
-0.173208 -0.467172 -0.050000
-0.172551 -0.480829 -0.050000
-0.172064 -0.494542 -0.050000
-0.171751 -0.508592 -0.050000
-0.184337 0.390376 -0.050000
-0.184326 0.375114 -0.050000
-0.184376 0.360041 -0.050000
-0.184561 0.345090 -0.050000
-0.184902 0.330222 -0.050000
-0.185444 0.315390 -0.050000
-0.186135 0.300586 -0.050000
-0.187002 0.285729 -0.050000
-0.187996 0.270870 -0.050000
-0.188987 0.254937 -0.050000
-0.190146 0.240227 -0.050000
-0.191201 0.224969 -0.050000
-0.192280 0.209541 -0.050000
-0.193289 0.193860 -0.050000
-0.194340 0.178565 -0.050000
-0.195318 0.162870 -0.050000
-0.196299 0.147200 -0.050000
-0.197260 0.131507 -0.050000
-0.198213 0.115805 -0.050000
-0.199168 0.100082 -0.050000
-0.200120 0.084354 -0.050000
-0.201078 0.068611 -0.050000
-0.202035 0.052873 -0.050000
-0.202998 0.037136 -0.050000
-0.203968 0.021291 -0.050000
-0.204931 0.005603 -0.050000
-0.205873 -0.010144 -0.050000
-0.206814 -0.025903 -0.050000
-0.207745 -0.041659 -0.050000
-0.208649 -0.057393 -0.050000
-0.209522 -0.073195 -0.050000
-0.210383 -0.088966 -0.050000
-0.211214 -0.104732 -0.050000
-0.212004 -0.120498 -0.050000
-0.212744 -0.136253 -0.050000
-0.213421 -0.152006 -0.050000
-0.214011 -0.167737 -0.050000
-0.214500 -0.183468 -0.050000
-0.214836 -0.198969 -0.050000
-0.215017 -0.214596 -0.050000
-0.214956 -0.230031 -0.050000
-0.214647 -0.245232 -0.050000
-0.213970 -0.259908 -0.050000
-0.213117 -0.275440 -0.050000
-0.211893 -0.289996 -0.050000
-0.210460 -0.304341 -0.050000
-0.208866 -0.318475 -0.050000
-0.207155 -0.332408 -0.050000
-0.205395 -0.346168 -0.050000
-0.203622 -0.359768 -0.050000
-0.201879 -0.373257 -0.050000
-0.200189 -0.386661 -0.050000
-0.198577 -0.400023 -0.050000
-0.197059 -0.413375 -0.050000
-0.195651 -0.426752 -0.050000
-0.194365 -0.440182 -0.050000
-0.193216 -0.453684 -0.050000
-0.192220 -0.467264 -0.050000
-0.191398 -0.480908 -0.050000
-0.190771 -0.494606 -0.050000
-0.190371 -0.508643 -0.050000
-0.201441 0.390365 -0.050000
-0.201524 0.375100 -0.050000
-0.201702 0.360030 -0.050000
-0.201987 0.345080 -0.050000
-0.202410 0.330219 -0.050000
-0.202939 0.315405 -0.050000
-0.203623 0.300590 -0.050000
-0.204374 0.285812 -0.050000
-0.205253 0.270888 -0.050000
-0.206165 0.255076 -0.050000
-0.207113 0.240310 -0.050000
-0.208126 0.225149 -0.050000
-0.209067 0.209721 -0.050000
-0.209988 0.194184 -0.050000
-0.210899 0.178719 -0.050000
-0.211901 0.163133 -0.050000
-0.212855 0.147475 -0.050000
-0.213795 0.131805 -0.050000
-0.214735 0.116099 -0.050000
-0.215673 0.100380 -0.050000
-0.216623 0.084635 -0.050000
-0.217576 0.068889 -0.050000
-0.218542 0.053131 -0.050000
-0.219520 0.037373 -0.050000
-0.220452 0.021565 -0.050000
-0.221374 0.005836 -0.050000
-0.222322 -0.009922 -0.050000
-0.223261 -0.025677 -0.050000
-0.224182 -0.041440 -0.050000
-0.225111 -0.057181 -0.050000
-0.226023 -0.072962 -0.050000
-0.226885 -0.088736 -0.050000
-0.227715 -0.104504 -0.050000
-0.228509 -0.120265 -0.050000
-0.229256 -0.136023 -0.050000
-0.229944 -0.151761 -0.050000
-0.230558 -0.167493 -0.050000
-0.231058 -0.183174 -0.050000
-0.231489 -0.198760 -0.050000
-0.231782 -0.214323 -0.050000
-0.231879 -0.229756 -0.050000
-0.231735 -0.244940 -0.050000
-0.231336 -0.259647 -0.050000
-0.230714 -0.275144 -0.050000
-0.229797 -0.289750 -0.050000
-0.228678 -0.304107 -0.050000
-0.227371 -0.318274 -0.050000
-0.225942 -0.332251 -0.050000
-0.224418 -0.346038 -0.050000
-0.222845 -0.359681 -0.050000
-0.221247 -0.373197 -0.050000
-0.219654 -0.386632 -0.050000
-0.218083 -0.400014 -0.050000
-0.216554 -0.413383 -0.050000
-0.215084 -0.426771 -0.050000
-0.213693 -0.440206 -0.050000
-0.212405 -0.453708 -0.050000
-0.211248 -0.467285 -0.050000
-0.210263 -0.480922 -0.050000
-0.209496 -0.494612 -0.050000
-0.209010 -0.508642 -0.050000
-0.218533 0.390309 -0.050000
-0.218716 0.375028 -0.050000
-0.219015 0.359937 -0.050000
-0.219419 0.344974 -0.050000
-0.219900 0.330091 -0.050000
-0.220477 0.315271 -0.050000
-0.221079 0.300466 -0.050000
-0.221804 0.285632 -0.050000
-0.222564 0.270838 -0.050000
-0.223252 0.254883 -0.050000
-0.224231 0.240282 -0.050000
-0.225030 0.225090 -0.050000
-0.225941 0.209739 -0.050000
-0.226806 0.194312 -0.050000
-0.227704 0.178764 -0.050000
-0.228567 0.163209 -0.050000
-0.229455 0.147586 -0.050000
-0.230341 0.131923 -0.050000
-0.231229 0.116222 -0.050000
-0.232140 0.100490 -0.050000
-0.233059 0.084742 -0.050000
-0.234002 0.068971 -0.050000
-0.234957 0.053206 -0.050000
-0.235912 0.037419 -0.050000
-0.236877 0.021670 -0.050000
-0.237834 0.005888 -0.050000
-0.238780 -0.009858 -0.050000
-0.239713 -0.025625 -0.050000
-0.240642 -0.041375 -0.050000
-0.241547 -0.057145 -0.050000
-0.242433 -0.072902 -0.050000
-0.243300 -0.088668 -0.050000
-0.244137 -0.104428 -0.050000
-0.244943 -0.120185 -0.050000
-0.245711 -0.135928 -0.050000
-0.246435 -0.151660 -0.050000
-0.247094 -0.167362 -0.050000
-0.247694 -0.183021 -0.050000
-0.248189 -0.198644 -0.050000
-0.248568 -0.214167 -0.050000
-0.248792 -0.229576 -0.050000
-0.248858 -0.244761 -0.050000
-0.248651 -0.259438 -0.050000
-0.248307 -0.274963 -0.050000
-0.247680 -0.289543 -0.050000
-0.246843 -0.303928 -0.050000
-0.245844 -0.318120 -0.050000
-0.244680 -0.332104 -0.050000
-0.243401 -0.345925 -0.050000
-0.242028 -0.359581 -0.050000
-0.240586 -0.373120 -0.050000
-0.239094 -0.386567 -0.050000
-0.237573 -0.399964 -0.050000
-0.236039 -0.413341 -0.050000
-0.234515 -0.426735 -0.050000
-0.233025 -0.440173 -0.050000
-0.231601 -0.453676 -0.050000
-0.230287 -0.467251 -0.050000
-0.229140 -0.480885 -0.050000
-0.228234 -0.494571 -0.050000
-0.227659 -0.508596 -0.050000
-0.235601 0.390213 -0.050000
-0.235877 0.374900 -0.050000
-0.236303 0.359777 -0.050000
-0.236812 0.344769 -0.050000
-0.237381 0.329857 -0.050000
-0.237962 0.314982 -0.050000
-0.238598 0.300171 -0.050000
-0.239169 0.285350 -0.050000
-0.239893 0.270425 -0.050000
-0.240577 0.254671 -0.050000
-0.241238 0.239939 -0.050000
-0.242096 0.224857 -0.050000
-0.242828 0.209565 -0.050000
-0.243649 0.194117 -0.050000
-0.244450 0.178653 -0.050000
-0.245266 0.163089 -0.050000
-0.246079 0.147501 -0.050000
-0.246899 0.131839 -0.050000
-0.247752 0.116143 -0.050000
-0.248614 0.100407 -0.050000
-0.249519 0.084636 -0.050000
-0.250445 0.068863 -0.050000
-0.251400 0.053066 -0.050000
-0.252368 0.037300 -0.050000
-0.253339 0.021508 -0.050000
-0.254310 0.005763 -0.050000
-0.255257 -0.010015 -0.050000
-0.256203 -0.025757 -0.050000
-0.257118 -0.041521 -0.050000
-0.258024 -0.057271 -0.050000
-0.258908 -0.073030 -0.050000
-0.259772 -0.088783 -0.050000
-0.260614 -0.104537 -0.050000
-0.261430 -0.120282 -0.050000
-0.262218 -0.136018 -0.050000
-0.262967 -0.151733 -0.050000
-0.263676 -0.167419 -0.050000
-0.264322 -0.183071 -0.050000
-0.264899 -0.198657 -0.050000
-0.265380 -0.214177 -0.050000
-0.265751 -0.229552 -0.050000
-0.265955 -0.244717 -0.050000
-0.266046 -0.259405 -0.050000
-0.265885 -0.274861 -0.050000
-0.265533 -0.289471 -0.050000
-0.265014 -0.303859 -0.050000
-0.264284 -0.318025 -0.050000
-0.263397 -0.332037 -0.050000
-0.262361 -0.345848 -0.050000
-0.261193 -0.359515 -0.050000
-0.259908 -0.373051 -0.050000
-0.258525 -0.386502 -0.050000
-0.257057 -0.399896 -0.050000
-0.255525 -0.413274 -0.050000
-0.253949 -0.426666 -0.050000
-0.252363 -0.440102 -0.050000
-0.250805 -0.453602 -0.050000
-0.249333 -0.467175 -0.050000
-0.248025 -0.480807 -0.050000
-0.246978 -0.494492 -0.050000
-0.246312 -0.508515 -0.050000
-0.252629 0.390085 -0.050000
-0.252999 0.374734 -0.050000
-0.253538 0.359558 -0.050000
-0.254160 0.344502 -0.050000
-0.254794 0.329517 -0.050000
-0.255429 0.314615 -0.050000
-0.256013 0.299692 -0.050000
-0.256658 0.284924 -0.050000
-0.257140 0.269998 -0.050000
-0.257617 0.254035 -0.050000
-0.258523 0.239500 -0.050000
-0.259052 0.224444 -0.050000
-0.259810 0.209099 -0.050000
-0.260537 0.193755 -0.050000
-0.261281 0.178277 -0.050000
-0.262016 0.162786 -0.050000
-0.262745 0.147179 -0.050000
-0.263520 0.131551 -0.050000
-0.264288 0.115849 -0.050000
-0.265121 0.100095 -0.050000
-0.265993 0.084324 -0.050000
-0.266921 0.068520 -0.050000
-0.267874 0.052732 -0.050000
-0.268867 0.036919 -0.050000
-0.269863 0.021168 -0.050000
-0.270835 0.005367 -0.050000
-0.271823 -0.010361 -0.050000
-0.272755 -0.026126 -0.050000
-0.273686 -0.041867 -0.050000
-0.274585 -0.057619 -0.050000
-0.275470 -0.073365 -0.050000
-0.276334 -0.089114 -0.050000
-0.277179 -0.104856 -0.050000
-0.278005 -0.120593 -0.050000
-0.278806 -0.136315 -0.050000
-0.279583 -0.152017 -0.050000
-0.280323 -0.167690 -0.050000
-0.281025 -0.183317 -0.050000
-0.281671 -0.198889 -0.050000
-0.282246 -0.214366 -0.050000
-0.282739 -0.229744 -0.050000
-0.283145 -0.244854 -0.050000
-0.283373 -0.259530 -0.050000
-0.283486 -0.274972 -0.050000
-0.283444 -0.289567 -0.050000
-0.283170 -0.303869 -0.050000
-0.282729 -0.318083 -0.050000
-0.282117 -0.332046 -0.050000
-0.281324 -0.345853 -0.050000
-0.280363 -0.359495 -0.050000
-0.279240 -0.373018 -0.050000
-0.277965 -0.386450 -0.050000
-0.276553 -0.399831 -0.050000
-0.275021 -0.413195 -0.050000
-0.273396 -0.426576 -0.050000
-0.271711 -0.440004 -0.050000
-0.270019 -0.453498 -0.050000
-0.268388 -0.467066 -0.050000
-0.266917 -0.480697 -0.050000
-0.265726 -0.494382 -0.050000
-0.264966 -0.508403 -0.050000
-0.269613 0.389945 -0.050000
-0.270067 0.374549 -0.050000
-0.270716 0.359323 -0.050000
-0.271433 0.344196 -0.050000
-0.272147 0.329160 -0.050000
-0.272803 0.314147 -0.050000
-0.273430 0.299253 -0.050000
-0.273964 0.284218 -0.050000
-0.274700 0.269548 -0.050000
-0.275016 0.253569 -0.050000
-0.275354 0.238843 -0.050000
-0.276175 0.223651 -0.050000
-0.276904 0.208527 -0.050000
-0.277618 0.193173 -0.050000
-0.278284 0.177806 -0.050000
-0.278932 0.162279 -0.050000
-0.279597 0.146770 -0.050000
-0.280194 0.131098 -0.050000
-0.280922 0.115365 -0.050000
-0.281701 0.099632 -0.050000
-0.282541 0.083834 -0.050000
-0.283445 0.068019 -0.050000
-0.284454 0.052191 -0.050000
-0.285465 0.036426 -0.050000
-0.286521 0.020575 -0.050000
-0.287611 0.004898 -0.050000
-0.288580 -0.010871 -0.050000
-0.289563 -0.026599 -0.050000
-0.290487 -0.042343 -0.050000
-0.291396 -0.058081 -0.050000
-0.292276 -0.073824 -0.050000
-0.293139 -0.089564 -0.050000
-0.293983 -0.105303 -0.050000
-0.294808 -0.121031 -0.050000
-0.295616 -0.136747 -0.050000
-0.296402 -0.152441 -0.050000
-0.297167 -0.168101 -0.050000
-0.297899 -0.183717 -0.050000
-0.298594 -0.199265 -0.050000
-0.299241 -0.214730 -0.050000
-0.299806 -0.230043 -0.050000
-0.300329 -0.245231 -0.050000
-0.300874 -0.259807 -0.050000
-0.301160 -0.275336 -0.050000
-0.301340 -0.289679 -0.050000
-0.301355 -0.304135 -0.050000
-0.301219 -0.318227 -0.050000
-0.300871 -0.332178 -0.050000
-0.300325 -0.345931 -0.050000
-0.299569 -0.359538 -0.050000
-0.298605 -0.373022 -0.050000
-0.297437 -0.386423 -0.050000
-0.296077 -0.399774 -0.050000
-0.294544 -0.413113 -0.050000
-0.292864 -0.426474 -0.050000
-0.291079 -0.439886 -0.050000
-0.289248 -0.453369 -0.050000
-0.287454 -0.466931 -0.050000
-0.285815 -0.480560 -0.050000
-0.284477 -0.494244 -0.050000
-0.283620 -0.508265 -0.050000
-0.286551 0.389809 -0.050000
-0.287084 0.374375 -0.050000
-0.287828 0.359095 -0.050000
-0.288639 0.343920 -0.050000
-0.289413 0.328801 -0.050000
-0.290121 0.313769 -0.050000
-0.290729 0.298689 -0.050000
-0.291331 0.283845 -0.050000
-0.291783 0.268500 -0.050000
-0.292403 0.253517 -0.050000
-0.293036 0.238014 -0.050000
-0.293445 0.223111 -0.050000
-0.293943 0.207848 -0.050000
-0.294459 0.192549 -0.050000
-0.295008 0.177166 -0.050000
-0.295513 0.161715 -0.050000
-0.296000 0.146133 -0.050000
-0.296692 0.130442 -0.050000
-0.297355 0.114766 -0.050000
-0.298087 0.098993 -0.050000
-0.298922 0.083201 -0.050000
-0.299846 0.067399 -0.050000
-0.300780 0.051518 -0.050000
-0.301895 0.035745 -0.050000
-0.302910 0.019954 -0.050000
-0.303856 0.004222 -0.050000
-0.304847 -0.011535 -0.050000
-0.305774 -0.027274 -0.050000
-0.306694 -0.043016 -0.050000
-0.307582 -0.058757 -0.050000
-0.308458 -0.074498 -0.050000
-0.309318 -0.090239 -0.050000
-0.310168 -0.105974 -0.050000
-0.311010 -0.121700 -0.050000
-0.311845 -0.137412 -0.050000
-0.312673 -0.153098 -0.050000
-0.313493 -0.168750 -0.050000
-0.314306 -0.184351 -0.050000
-0.315106 -0.199886 -0.050000
-0.315886 -0.215311 -0.050000
-0.316636 -0.230626 -0.050000
-0.317300 -0.245585 -0.050000
-0.318061 -0.260844 -0.050000
-0.318782 -0.275486 -0.050000
-0.319266 -0.290254 -0.050000
-0.319638 -0.304426 -0.050000
-0.319773 -0.318525 -0.050000
-0.319704 -0.332384 -0.050000
-0.319396 -0.346084 -0.050000
-0.318841 -0.359628 -0.050000
-0.318030 -0.373060 -0.050000
-0.316963 -0.386411 -0.050000
-0.315650 -0.399722 -0.050000
-0.314108 -0.413026 -0.050000
-0.312367 -0.426359 -0.050000
-0.310474 -0.439750 -0.050000
-0.308497 -0.453218 -0.050000
-0.306534 -0.466771 -0.050000
-0.304721 -0.480397 -0.050000
-0.303230 -0.494082 -0.050000
-0.302272 -0.508101 -0.050000
-0.303450 0.389697 -0.050000
-0.304056 0.374232 -0.050000
-0.304890 0.358921 -0.050000
-0.305781 0.343694 -0.050000
-0.306620 0.328552 -0.050000
-0.307353 0.313421 -0.050000
-0.307989 0.298406 -0.050000
-0.308490 0.283210 -0.050000
-0.308941 0.268508 -0.050000
-0.309279 0.252350 -0.050000
-0.309792 0.237765 -0.050000
-0.310193 0.222538 -0.050000
-0.310594 0.207287 -0.050000
-0.311063 0.191946 -0.050000
-0.311546 0.176486 -0.050000
-0.312119 0.161098 -0.050000
-0.312768 0.145423 -0.050000
-0.313277 0.129853 -0.050000
-0.313875 0.114122 -0.050000
-0.314569 0.098374 -0.050000
-0.315358 0.082585 -0.050000
-0.316243 0.066745 -0.050000
-0.317222 0.051009 -0.050000
-0.318051 0.035058 -0.050000
-0.319043 0.019377 -0.050000
-0.320050 0.003550 -0.050000
-0.321020 -0.012180 -0.050000
-0.321981 -0.027938 -0.050000
-0.322903 -0.043681 -0.050000
-0.323812 -0.059429 -0.050000
-0.324705 -0.075175 -0.050000
-0.325592 -0.090920 -0.050000
-0.326477 -0.106658 -0.050000
-0.327363 -0.122387 -0.050000
-0.328257 -0.138097 -0.050000
-0.329160 -0.153784 -0.050000
-0.330081 -0.169431 -0.050000
-0.331020 -0.185031 -0.050000
-0.331988 -0.200546 -0.050000
-0.332983 -0.215981 -0.050000
-0.334004 -0.231195 -0.050000
-0.335087 -0.246287 -0.050000
-0.335829 -0.260941 -0.050000
-0.336490 -0.276417 -0.050000
-0.337375 -0.290657 -0.050000
-0.337997 -0.304893 -0.050000
-0.338438 -0.318849 -0.050000
-0.338633 -0.332650 -0.050000
-0.338565 -0.346265 -0.050000
-0.338204 -0.359741 -0.050000
-0.337538 -0.373105 -0.050000
-0.336563 -0.386400 -0.050000
-0.335285 -0.399661 -0.050000
-0.333724 -0.412924 -0.050000
-0.331913 -0.426224 -0.050000
-0.329903 -0.439590 -0.050000
-0.327771 -0.453041 -0.050000
-0.325629 -0.466585 -0.050000
-0.323634 -0.480207 -0.050000
-0.321984 -0.493895 -0.050000
-0.320920 -0.507912 -0.050000
-0.320324 0.389618 -0.050000
-0.320999 0.374141 -0.050000
-0.321917 0.358808 -0.050000
-0.322884 0.343574 -0.050000
-0.323779 0.328390 -0.050000
-0.324548 0.313285 -0.050000
-0.325179 0.298138 -0.050000
-0.325665 0.283174 -0.050000
-0.326167 0.268072 -0.050000
-0.326583 0.252226 -0.050000
-0.326921 0.237400 -0.050000
-0.327340 0.222269 -0.050000
-0.327747 0.206921 -0.050000
-0.328147 0.191505 -0.050000
-0.328573 0.176061 -0.050000
-0.329040 0.160366 -0.050000
-0.329436 0.144979 -0.050000
-0.329899 0.129290 -0.050000
-0.330431 0.113595 -0.050000
-0.331071 0.097844 -0.050000
-0.331841 0.082061 -0.050000
-0.332716 0.066280 -0.050000
-0.333676 0.050494 -0.050000
-0.334766 0.034795 -0.050000
-0.335770 0.018909 -0.050000
-0.336803 0.003159 -0.050000
-0.337809 -0.012626 -0.050000
-0.338764 -0.028382 -0.050000
-0.339695 -0.044149 -0.050000
-0.340595 -0.059912 -0.050000
-0.341484 -0.075676 -0.050000
-0.342364 -0.091436 -0.050000
-0.343244 -0.107192 -0.050000
-0.344128 -0.122936 -0.050000
-0.345023 -0.138666 -0.050000
-0.345937 -0.154369 -0.050000
-0.346875 -0.170041 -0.050000
-0.347849 -0.185656 -0.050000
-0.348866 -0.201212 -0.050000
-0.349926 -0.216646 -0.050000
-0.351070 -0.231966 -0.050000
-0.352098 -0.247016 -0.050000
-0.353482 -0.261303 -0.050000
-0.354493 -0.276889 -0.050000
-0.355530 -0.291214 -0.050000
-0.356485 -0.305272 -0.050000
-0.357210 -0.319194 -0.050000
-0.357682 -0.332893 -0.050000
-0.357845 -0.346436 -0.050000
-0.357672 -0.359832 -0.050000
-0.357140 -0.373131 -0.050000
-0.356245 -0.386364 -0.050000
-0.354992 -0.399573 -0.050000
-0.353401 -0.412793 -0.050000
-0.351507 -0.426059 -0.050000
-0.349369 -0.439399 -0.050000
-0.347071 -0.452833 -0.050000
-0.344741 -0.466368 -0.050000
-0.342555 -0.479989 -0.050000
-0.340737 -0.493680 -0.050000
-0.339563 -0.507696 -0.050000
-0.337185 0.389580 -0.050000
-0.337932 0.374103 -0.050000
-0.338931 0.358778 -0.050000
-0.339977 0.343540 -0.050000
-0.340923 0.328382 -0.050000
-0.341726 0.313242 -0.050000
-0.342347 0.298181 -0.050000
-0.342888 0.283112 -0.050000
-0.343287 0.268022 -0.050000
-0.343594 0.252143 -0.050000
-0.344011 0.237315 -0.050000
-0.344322 0.222084 -0.050000
-0.344680 0.206713 -0.050000
-0.345028 0.191262 -0.050000
-0.345393 0.175705 -0.050000
-0.345698 0.160009 -0.050000
-0.346113 0.144637 -0.050000
-0.346491 0.128941 -0.050000
-0.346976 0.113225 -0.050000
-0.347586 0.097488 -0.050000
-0.348320 0.081730 -0.050000
-0.349196 0.065961 -0.050000
-0.350189 0.050201 -0.050000
-0.351224 0.034472 -0.050000
-0.352302 0.018646 -0.050000
-0.353339 0.002839 -0.050000
-0.354341 -0.012929 -0.050000
-0.355307 -0.028714 -0.050000
-0.356232 -0.044490 -0.050000
-0.357136 -0.060272 -0.050000
-0.358024 -0.076051 -0.050000
-0.358909 -0.091827 -0.050000
-0.359794 -0.107596 -0.050000
-0.360692 -0.123357 -0.050000
-0.361606 -0.139098 -0.050000
-0.362550 -0.154818 -0.050000
-0.363534 -0.170498 -0.050000
-0.364571 -0.186135 -0.050000
-0.365672 -0.201690 -0.050000
-0.366869 -0.217152 -0.050000
-0.368097 -0.232454 -0.050000
-0.369525 -0.247405 -0.050000
-0.370965 -0.261933 -0.050000
-0.372372 -0.277223 -0.050000
-0.373816 -0.291565 -0.050000
-0.375050 -0.305607 -0.050000
-0.376097 -0.319430 -0.050000
-0.376840 -0.333073 -0.050000
-0.377237 -0.346534 -0.050000
-0.377244 -0.359866 -0.050000
-0.376840 -0.373098 -0.050000
-0.376015 -0.386275 -0.050000
-0.374775 -0.399435 -0.050000
-0.373141 -0.412615 -0.050000
-0.371154 -0.425849 -0.050000
-0.368874 -0.439166 -0.050000
-0.366399 -0.452586 -0.050000
-0.363869 -0.466114 -0.050000
-0.361482 -0.479737 -0.050000
-0.359489 -0.493434 -0.050000
-0.358198 -0.507454 -0.050000
-0.354055 0.389576 -0.050000
-0.354871 0.374120 -0.050000
-0.355960 0.358813 -0.050000
-0.357078 0.343609 -0.050000
-0.358087 0.328465 -0.050000
-0.358900 0.313380 -0.050000
-0.359557 0.298311 -0.050000
-0.360013 0.283246 -0.050000
-0.360378 0.268205 -0.050000
-0.360717 0.252248 -0.050000
-0.360943 0.237413 -0.050000
-0.361246 0.222140 -0.050000
-0.361514 0.206722 -0.050000
-0.361814 0.191213 -0.050000
-0.362090 0.175627 -0.050000
-0.362406 0.159880 -0.050000
-0.362701 0.144498 -0.050000
-0.363069 0.128798 -0.050000
-0.363519 0.113072 -0.050000
-0.364091 0.097345 -0.050000
-0.364817 0.081606 -0.050000
-0.365677 0.065850 -0.050000
-0.366644 0.050101 -0.050000
-0.367700 0.034391 -0.050000
-0.368747 0.018554 -0.050000
-0.369793 0.002763 -0.050000
-0.370793 -0.013032 -0.050000
-0.371752 -0.028821 -0.050000
-0.372681 -0.044618 -0.050000
-0.373585 -0.060414 -0.050000
-0.374478 -0.076210 -0.050000
-0.375369 -0.092002 -0.050000
-0.376268 -0.107787 -0.050000
-0.377179 -0.123560 -0.050000
-0.378122 -0.139320 -0.050000
-0.379100 -0.155049 -0.050000
-0.380136 -0.170752 -0.050000
-0.381246 -0.186392 -0.050000
-0.382456 -0.201967 -0.050000
-0.383763 -0.217434 -0.050000
-0.385250 -0.232708 -0.050000
-0.386802 -0.247759 -0.050000
-0.388648 -0.262123 -0.050000
-0.390308 -0.277541 -0.050000
-0.392090 -0.291741 -0.050000
-0.393708 -0.305764 -0.050000
-0.395059 -0.319544 -0.050000
-0.396092 -0.333119 -0.050000
-0.396722 -0.346528 -0.050000
-0.396910 -0.359798 -0.050000
-0.396626 -0.372979 -0.050000
-0.395863 -0.386108 -0.050000
-0.394627 -0.399227 -0.050000
-0.392941 -0.412373 -0.050000
-0.390847 -0.425582 -0.050000
-0.388416 -0.438882 -0.050000
-0.385752 -0.452292 -0.050000
-0.383011 -0.465818 -0.050000
-0.380411 -0.479446 -0.050000
-0.378234 -0.493156 -0.050000
-0.376820 -0.507183 -0.050000
-0.370943 0.389603 -0.050000
-0.371841 0.374178 -0.050000
-0.373017 0.358910 -0.050000
-0.374224 0.343744 -0.050000
-0.375276 0.328653 -0.050000
-0.376133 0.313604 -0.050000
-0.376742 0.298564 -0.050000
-0.377185 0.283559 -0.050000
-0.377478 0.268468 -0.050000
-0.377694 0.252566 -0.050000
-0.377903 0.237668 -0.050000
-0.378080 0.222386 -0.050000
-0.378308 0.206919 -0.050000
-0.378525 0.191377 -0.050000
-0.378777 0.175751 -0.050000
-0.379011 0.159964 -0.050000
-0.379301 0.144583 -0.050000
-0.379625 0.128856 -0.050000
-0.380052 0.113136 -0.050000
-0.380610 0.097413 -0.050000
-0.381310 0.081685 -0.050000
-0.382154 0.065949 -0.050000
-0.383110 0.050207 -0.050000
-0.384135 0.034500 -0.050000
-0.385183 0.018673 -0.050000
-0.386210 0.002871 -0.050000
-0.387205 -0.012927 -0.050000
-0.388161 -0.028735 -0.050000
-0.389087 -0.044544 -0.050000
-0.389995 -0.060357 -0.050000
-0.390894 -0.076168 -0.050000
-0.391795 -0.091974 -0.050000
-0.392707 -0.107776 -0.050000
-0.393644 -0.123563 -0.050000
-0.394602 -0.139328 -0.050000
-0.395623 -0.155084 -0.050000
-0.396713 -0.170782 -0.050000
-0.397893 -0.186446 -0.050000
-0.399199 -0.202030 -0.050000
-0.400680 -0.217492 -0.050000
-0.402310 -0.232810 -0.050000
-0.404167 -0.247791 -0.050000
-0.406229 -0.262265 -0.050000
-0.408282 -0.277532 -0.050000
-0.410423 -0.291783 -0.050000
-0.412382 -0.305736 -0.050000
-0.414086 -0.319485 -0.050000
-0.415405 -0.333021 -0.050000
-0.416278 -0.346381 -0.050000
-0.416646 -0.359612 -0.050000
-0.416483 -0.372750 -0.050000
-0.415778 -0.385844 -0.050000
-0.414539 -0.398932 -0.050000
-0.412791 -0.412055 -0.050000
-0.410583 -0.425246 -0.050000
-0.407989 -0.438536 -0.050000
-0.405125 -0.451944 -0.050000
-0.402162 -0.465475 -0.050000
-0.399338 -0.479114 -0.050000
-0.396967 -0.492839 -0.050000
-0.395426 -0.506894 -0.050000
-0.387870 0.389650 -0.050000
-0.388846 0.374268 -0.050000
-0.390128 0.359046 -0.050000
-0.391413 0.343937 -0.050000
-0.392536 0.328902 -0.050000
-0.393389 0.313902 -0.050000
-0.393999 0.298928 -0.050000
-0.394366 0.283921 -0.050000
-0.394567 0.268902 -0.050000
-0.394739 0.252953 -0.050000
-0.394788 0.238086 -0.050000
-0.394915 0.222760 -0.050000
-0.395042 0.207282 -0.050000
-0.395220 0.191705 -0.050000
-0.395401 0.176050 -0.050000
-0.395630 0.160245 -0.050000
-0.395859 0.144839 -0.050000
-0.396177 0.129113 -0.050000
-0.396587 0.113383 -0.050000
-0.397124 0.097667 -0.050000
-0.397811 0.081950 -0.050000
-0.398634 0.066221 -0.050000
-0.399568 0.050489 -0.050000
-0.400574 0.034780 -0.050000
-0.401597 0.018955 -0.050000
-0.402612 0.003151 -0.050000
-0.403593 -0.012660 -0.050000
-0.404545 -0.028477 -0.050000
-0.405470 -0.044303 -0.050000
-0.406385 -0.060131 -0.050000
-0.407296 -0.075953 -0.050000
-0.408211 -0.091773 -0.050000
-0.409141 -0.107583 -0.050000
-0.410101 -0.123392 -0.050000
-0.411119 -0.139167 -0.050000
-0.412149 -0.154883 -0.050000
-0.413253 -0.170635 -0.050000
-0.414512 -0.186313 -0.050000
-0.415934 -0.201899 -0.050000
-0.417540 -0.217382 -0.050000
-0.419393 -0.232670 -0.050000
-0.421457 -0.247702 -0.050000
-0.423866 -0.262103 -0.050000
-0.426232 -0.277424 -0.050000
-0.428753 -0.291588 -0.050000
-0.431093 -0.305550 -0.050000
-0.433132 -0.319258 -0.050000
-0.434761 -0.332763 -0.050000
-0.435879 -0.346094 -0.050000
-0.436434 -0.359290 -0.050000
-0.436392 -0.372403 -0.050000
-0.435743 -0.385471 -0.050000
-0.434496 -0.398540 -0.050000
-0.432681 -0.411649 -0.050000
-0.430349 -0.424834 -0.050000
-0.427583 -0.438124 -0.050000
-0.424510 -0.451538 -0.050000
-0.421314 -0.465082 -0.050000
-0.418258 -0.478739 -0.050000
-0.415681 -0.492485 -0.050000
-0.414007 -0.506588 -0.050000
-0.404837 0.389709 -0.050000
-0.405909 0.374378 -0.050000
-0.407292 0.359212 -0.050000
-0.408679 0.344165 -0.050000
-0.409846 0.329192 -0.050000
-0.410728 0.314263 -0.050000
-0.411289 0.299325 -0.050000
-0.411593 0.284391 -0.050000
-0.411695 0.269365 -0.050000
-0.411737 0.253469 -0.050000
-0.411704 0.238571 -0.050000
-0.411706 0.223260 -0.050000
-0.411774 0.207754 -0.050000
-0.411871 0.192165 -0.050000
-0.412023 0.176492 -0.050000
-0.412202 0.160667 -0.050000
-0.412421 0.145257 -0.050000
-0.412718 0.129515 -0.050000
-0.413116 0.113789 -0.050000
-0.413644 0.098073 -0.050000
-0.414311 0.082360 -0.050000
-0.415115 0.066639 -0.050000
-0.416024 0.050906 -0.050000
-0.417002 0.035196 -0.050000
-0.418004 0.019370 -0.050000
-0.418998 0.003559 -0.050000
-0.419968 -0.012259 -0.050000
-0.420911 -0.028089 -0.050000
-0.421837 -0.043926 -0.050000
-0.422750 -0.059769 -0.050000
-0.423660 -0.075600 -0.050000
-0.424575 -0.091430 -0.050000
-0.425509 -0.107257 -0.050000
-0.426476 -0.123072 -0.050000
-0.427487 -0.138897 -0.050000
-0.428594 -0.154529 -0.050000
-0.429780 -0.170340 -0.050000
-0.431113 -0.186021 -0.050000
-0.432634 -0.201621 -0.050000
-0.434398 -0.217093 -0.050000
-0.436426 -0.232402 -0.050000
-0.438761 -0.247397 -0.050000
-0.441449 -0.261845 -0.050000
-0.444186 -0.277090 -0.050000
-0.447084 -0.291268 -0.050000
-0.449797 -0.305185 -0.050000
-0.452197 -0.318880 -0.050000
-0.454132 -0.332359 -0.050000
-0.455508 -0.345663 -0.050000
-0.456252 -0.358840 -0.050000
-0.456334 -0.371931 -0.050000
-0.455740 -0.384986 -0.050000
-0.454484 -0.398046 -0.050000
-0.452596 -0.411152 -0.050000
-0.450134 -0.424341 -0.050000
-0.447188 -0.437640 -0.050000
-0.443896 -0.451071 -0.050000
-0.440458 -0.464637 -0.050000
-0.437159 -0.478320 -0.050000
-0.434368 -0.492098 -0.050000
-0.432549 -0.506253 -0.050000
-0.421860 0.389774 -0.050000
-0.423025 0.374498 -0.050000
-0.424533 0.359392 -0.050000
-0.426011 0.344411 -0.050000
-0.427247 0.329512 -0.050000
-0.428126 0.314643 -0.050000
-0.428654 0.299780 -0.050000
-0.428867 0.284874 -0.050000
-0.428845 0.269915 -0.050000
-0.428789 0.254012 -0.050000
-0.428599 0.239148 -0.050000
-0.428514 0.223822 -0.050000
-0.428479 0.208322 -0.050000
-0.428524 0.192720 -0.050000
-0.428615 0.177037 -0.050000
-0.428780 0.161208 -0.050000
-0.428965 0.145783 -0.050000
-0.429257 0.130043 -0.050000
-0.429645 0.114310 -0.050000
-0.430160 0.098597 -0.050000
-0.430813 0.082885 -0.050000
-0.431592 0.067163 -0.050000
-0.432476 0.051430 -0.050000
-0.433424 0.035712 -0.050000
-0.434400 0.019885 -0.050000
-0.435373 0.004068 -0.050000
-0.436328 -0.011759 -0.050000
-0.437265 -0.027598 -0.050000
-0.438187 -0.043448 -0.050000
-0.439104 -0.059295 -0.050000
-0.440019 -0.075135 -0.050000
-0.440946 -0.090974 -0.050000
-0.441892 -0.106806 -0.050000
-0.442876 -0.122638 -0.050000
-0.443915 -0.138461 -0.050000
-0.445036 -0.154116 -0.050000
-0.446285 -0.169913 -0.050000
-0.447694 -0.185612 -0.050000
-0.449324 -0.201207 -0.050000
-0.451224 -0.216688 -0.050000
-0.453457 -0.231979 -0.050000
-0.456025 -0.246990 -0.050000
-0.459040 -0.261402 -0.050000
-0.462113 -0.276658 -0.050000
-0.465403 -0.290783 -0.050000
-0.468502 -0.304695 -0.050000
-0.471259 -0.318360 -0.050000
-0.473514 -0.331816 -0.050000
-0.475146 -0.345104 -0.050000
-0.476087 -0.358260 -0.050000
-0.476292 -0.371343 -0.050000
-0.475756 -0.384390 -0.050000
-0.474487 -0.397451 -0.050000
-0.472522 -0.410564 -0.050000
-0.469924 -0.423766 -0.050000
-0.466792 -0.437086 -0.050000
-0.463273 -0.450542 -0.050000
-0.459584 -0.464140 -0.050000
-0.456032 -0.477859 -0.050000
-0.453015 -0.491677 -0.050000
-0.451046 -0.505892 -0.050000
-0.438933 0.389837 -0.050000
-0.440212 0.374621 -0.050000
-0.441841 0.359576 -0.050000
-0.443434 0.344667 -0.050000
-0.444722 0.329839 -0.050000
-0.445613 0.315047 -0.050000
-0.446083 0.300241 -0.050000
-0.446199 0.285403 -0.050000
-0.446048 0.270473 -0.050000
-0.445844 0.254617 -0.050000
-0.445531 0.239754 -0.050000
-0.445314 0.224449 -0.050000
-0.445197 0.208945 -0.050000
-0.445162 0.193345 -0.050000
-0.445215 0.177660 -0.050000
-0.445340 0.161827 -0.050000
-0.445512 0.146398 -0.050000
-0.445790 0.130652 -0.050000
-0.446171 0.114921 -0.050000
-0.446675 0.099205 -0.050000
-0.447310 0.083492 -0.050000
-0.448067 0.067769 -0.050000
-0.448921 0.052031 -0.050000
-0.449840 0.036306 -0.050000
-0.450787 0.020474 -0.050000
-0.451738 0.004651 -0.050000
-0.452678 -0.011183 -0.050000
-0.453606 -0.027031 -0.050000
-0.454528 -0.042890 -0.050000
-0.455447 -0.058741 -0.050000
-0.456371 -0.074589 -0.050000
-0.457306 -0.090434 -0.050000
-0.458267 -0.106274 -0.050000
-0.459266 -0.122112 -0.050000
-0.460324 -0.137938 -0.050000
-0.461487 -0.153601 -0.050000
-0.462777 -0.169403 -0.050000
-0.464263 -0.185097 -0.050000
-0.465993 -0.200697 -0.050000
-0.468042 -0.216168 -0.050000
-0.470461 -0.231462 -0.050000
-0.473286 -0.246451 -0.050000
-0.476601 -0.260875 -0.050000
-0.480035 -0.276085 -0.050000
-0.483710 -0.290196 -0.050000
-0.487197 -0.304074 -0.050000
-0.490320 -0.317718 -0.050000
-0.492893 -0.331155 -0.050000
-0.494790 -0.344417 -0.050000
-0.495924 -0.357567 -0.050000
-0.496258 -0.370639 -0.050000
-0.495775 -0.383689 -0.050000
-0.494492 -0.396757 -0.050000
-0.492446 -0.409887 -0.050000
-0.489707 -0.423111 -0.050000
-0.486381 -0.436461 -0.050000
-0.482627 -0.449955 -0.050000
-0.478680 -0.463594 -0.050000
-0.474865 -0.477359 -0.050000
-0.471614 -0.491228 -0.050000
-0.469485 -0.505510 -0.050000
-0.456068 0.389896 -0.050000
-0.457460 0.374738 -0.050000
-0.459235 0.359758 -0.050000
-0.460935 0.344918 -0.050000
-0.462294 0.330166 -0.050000
-0.463180 0.315448 -0.050000
-0.463594 0.300714 -0.050000
-0.463598 0.285930 -0.050000
-0.463295 0.271060 -0.050000
-0.462956 0.255228 -0.050000
-0.462473 0.240398 -0.050000
-0.462141 0.225102 -0.050000
-0.461913 0.209612 -0.050000
-0.461812 0.194015 -0.050000
-0.461805 0.178333 -0.050000
-0.461908 0.162505 -0.050000
-0.462052 0.147070 -0.050000
-0.462324 0.131326 -0.050000
-0.462695 0.115593 -0.050000
-0.463187 0.099876 -0.050000
-0.463804 0.084160 -0.050000
-0.464536 0.068433 -0.050000
-0.465360 0.052690 -0.050000
-0.466246 0.036955 -0.050000
-0.467167 0.021120 -0.050000
-0.468094 0.005290 -0.050000
-0.469018 -0.010551 -0.050000
-0.469939 -0.026405 -0.050000
-0.470858 -0.042272 -0.050000
-0.471782 -0.058127 -0.050000
-0.472712 -0.073981 -0.050000
-0.473660 -0.089831 -0.050000
-0.474631 -0.105676 -0.050000
-0.475647 -0.121514 -0.050000
-0.476730 -0.137345 -0.050000
-0.477919 -0.153012 -0.050000
-0.479265 -0.168812 -0.050000
-0.480819 -0.184506 -0.050000
-0.482655 -0.200099 -0.050000
-0.484843 -0.215567 -0.050000
-0.487459 -0.230846 -0.050000
-0.490524 -0.245830 -0.050000
-0.494160 -0.260232 -0.050000
-0.497938 -0.275425 -0.050000
-0.502010 -0.289495 -0.050000
-0.505885 -0.303347 -0.050000
-0.509374 -0.316966 -0.050000
-0.512270 -0.330372 -0.050000
-0.514427 -0.343627 -0.050000
-0.515760 -0.356757 -0.050000
-0.516216 -0.369833 -0.050000
-0.515788 -0.382888 -0.050000
-0.514486 -0.395973 -0.050000
-0.512356 -0.409126 -0.050000
-0.509469 -0.422383 -0.050000
-0.505943 -0.435773 -0.050000
-0.501947 -0.449312 -0.050000
-0.497732 -0.463003 -0.050000
-0.493646 -0.476823 -0.050000
-0.490152 -0.490753 -0.050000
-0.487853 -0.505112 -0.050000
-0.473254 0.389943 -0.050000
-0.474781 0.374844 -0.050000
-0.476701 0.359924 -0.050000
-0.478532 0.345155 -0.050000
-0.479952 0.330479 -0.050000
-0.480843 0.315834 -0.050000
-0.481185 0.301176 -0.050000
-0.481068 0.286451 -0.050000
-0.480608 0.271641 -0.050000
-0.480095 0.255850 -0.050000
-0.479459 0.241046 -0.050000
-0.478981 0.225774 -0.050000
-0.478653 0.210298 -0.050000
-0.478464 0.194712 -0.050000
-0.478410 0.179038 -0.050000
-0.478470 0.163217 -0.050000
-0.478600 0.147782 -0.050000
-0.478856 0.132038 -0.050000
-0.479218 0.116306 -0.050000
-0.479696 0.100588 -0.050000
-0.480293 0.084868 -0.050000
-0.480999 0.069137 -0.050000
-0.481792 0.053388 -0.050000
-0.482648 0.037644 -0.050000
-0.483538 0.021806 -0.050000
-0.484443 0.005971 -0.050000
-0.485351 -0.009876 -0.050000
-0.486263 -0.025736 -0.050000
-0.487182 -0.041608 -0.050000
-0.488108 -0.057466 -0.050000
-0.489048 -0.073323 -0.050000
-0.490004 -0.089178 -0.050000
-0.490990 -0.105023 -0.050000
-0.492022 -0.120865 -0.050000
-0.493126 -0.136691 -0.050000
-0.494352 -0.152363 -0.050000
-0.495742 -0.168157 -0.050000
-0.497372 -0.183845 -0.050000
-0.499307 -0.199431 -0.050000
-0.501640 -0.214887 -0.050000
-0.504442 -0.230154 -0.050000
-0.507759 -0.245118 -0.050000
-0.511700 -0.259509 -0.050000
-0.515838 -0.274664 -0.050000
-0.520299 -0.288698 -0.050000
-0.524568 -0.302519 -0.050000
-0.528421 -0.316099 -0.050000
-0.531636 -0.329493 -0.050000
-0.534057 -0.342716 -0.050000
-0.535580 -0.355852 -0.050000
-0.536161 -0.368924 -0.050000
-0.535779 -0.381996 -0.050000
-0.534457 -0.395104 -0.050000
-0.532236 -0.408290 -0.050000
-0.529197 -0.421588 -0.050000
-0.525464 -0.435026 -0.050000
-0.521219 -0.448621 -0.050000
-0.516728 -0.462374 -0.050000
-0.512362 -0.476258 -0.050000
-0.508614 -0.490261 -0.050000
-0.506136 -0.504705 -0.050000
-0.490498 0.389978 -0.050000
-0.492161 0.374931 -0.050000
-0.494253 0.360069 -0.050000
-0.496210 0.345366 -0.050000
-0.497712 0.330759 -0.050000
-0.498595 0.316198 -0.050000
-0.498868 0.301601 -0.050000
-0.498617 0.286955 -0.050000
-0.497978 0.272199 -0.050000
-0.497298 0.256458 -0.050000
-0.496473 0.241684 -0.050000
-0.495859 0.226443 -0.050000
-0.495407 0.210986 -0.050000
-0.495139 0.195418 -0.050000
-0.495019 0.179756 -0.050000
-0.495048 0.163949 -0.050000
-0.495148 0.148514 -0.050000
-0.495393 0.132776 -0.050000
-0.495739 0.117045 -0.050000
-0.496203 0.101326 -0.050000
-0.496778 0.085604 -0.050000
-0.497457 0.069869 -0.050000
-0.498220 0.054115 -0.050000
-0.499042 0.038362 -0.050000
-0.499905 0.022522 -0.050000
-0.500786 0.006683 -0.050000
-0.501679 -0.009168 -0.050000
-0.502583 -0.025032 -0.050000
-0.503500 -0.040908 -0.050000
-0.504431 -0.056765 -0.050000
-0.505377 -0.072627 -0.050000
-0.506345 -0.088480 -0.050000
-0.507344 -0.104328 -0.050000
-0.508393 -0.120165 -0.050000
-0.509522 -0.135991 -0.050000
-0.510779 -0.151659 -0.050000
-0.512222 -0.167446 -0.050000
-0.513920 -0.183122 -0.050000
-0.515959 -0.198697 -0.050000
-0.518429 -0.214137 -0.050000
-0.521423 -0.229385 -0.050000
-0.524982 -0.244327 -0.050000
-0.529240 -0.258695 -0.050000
-0.533726 -0.273810 -0.050000
-0.538585 -0.287806 -0.050000
-0.543241 -0.301577 -0.050000
-0.547459 -0.315139 -0.050000
-0.550992 -0.328487 -0.050000
-0.553665 -0.341718 -0.050000
-0.555381 -0.354837 -0.050000
-0.556075 -0.367929 -0.050000
-0.555741 -0.381021 -0.050000
-0.554389 -0.394162 -0.050000
-0.552074 -0.407390 -0.050000
-0.548877 -0.420739 -0.050000
-0.544931 -0.434234 -0.050000
-0.540430 -0.447893 -0.050000
-0.535655 -0.461715 -0.050000
-0.530999 -0.475674 -0.050000
-0.526987 -0.489760 -0.050000
-0.524320 -0.504296 -0.050000
-0.507784 0.389991 -0.050000
-0.509606 0.374992 -0.050000
-0.511871 0.360179 -0.050000
-0.513984 0.345534 -0.050000
-0.515555 0.331001 -0.050000
-0.516449 0.316498 -0.050000
-0.516638 0.301995 -0.050000
-0.516247 0.287396 -0.050000
-0.515426 0.272727 -0.050000
-0.514542 0.257024 -0.050000
-0.513543 0.242299 -0.050000
-0.512763 0.227085 -0.050000
-0.512196 0.211662 -0.050000
-0.511829 0.196114 -0.050000
-0.511652 0.180473 -0.050000
-0.511631 0.164684 -0.050000
-0.511710 0.149254 -0.050000
-0.511931 0.133524 -0.050000
-0.512264 0.117797 -0.050000
-0.512708 0.102079 -0.050000
-0.513261 0.086355 -0.050000
-0.513912 0.070617 -0.050000
-0.514643 0.054860 -0.050000
-0.515435 0.039101 -0.050000
-0.516268 0.023259 -0.050000
-0.517126 0.007418 -0.050000
-0.518003 -0.008435 -0.050000
-0.518899 -0.024300 -0.050000
-0.519814 -0.040177 -0.050000
-0.520749 -0.056034 -0.050000
-0.521704 -0.071894 -0.050000
-0.522683 -0.087748 -0.050000
-0.523696 -0.103590 -0.050000
-0.524764 -0.119426 -0.050000
-0.525917 -0.135242 -0.050000
-0.527209 -0.150907 -0.050000
-0.528701 -0.166679 -0.050000
-0.530473 -0.182342 -0.050000
-0.532611 -0.197897 -0.050000
-0.535222 -0.213317 -0.050000
-0.538399 -0.228537 -0.050000
-0.542206 -0.243451 -0.050000
-0.546766 -0.257789 -0.050000
-0.551614 -0.272859 -0.050000
-0.556859 -0.286799 -0.050000
-0.561907 -0.300541 -0.050000
-0.566481 -0.314042 -0.050000
-0.570321 -0.327399 -0.050000
-0.573248 -0.340593 -0.050000
-0.575138 -0.353741 -0.050000
-0.575948 -0.366846 -0.050000
-0.575649 -0.379976 -0.050000
-0.574268 -0.393161 -0.050000
-0.571852 -0.406442 -0.050000
-0.568494 -0.419850 -0.050000
-0.564329 -0.433411 -0.050000
-0.559565 -0.447141 -0.050000
-0.554498 -0.461040 -0.050000
-0.549543 -0.475082 -0.050000
-0.545256 -0.489262 -0.050000
-0.542386 -0.503900 -0.050000
-0.525111 0.389978 -0.050000
-0.527096 0.375014 -0.050000
-0.529563 0.360241 -0.050000
-0.531825 0.345646 -0.050000
-0.533500 0.331164 -0.050000
-0.534385 0.316748 -0.050000
-0.534506 0.302285 -0.050000
-0.533962 0.287793 -0.050000
-0.532940 0.273166 -0.050000
-0.531864 0.257545 -0.050000
-0.530652 0.242850 -0.050000
-0.529720 0.227691 -0.050000
-0.529013 0.212298 -0.050000
-0.528557 0.196786 -0.050000
-0.528301 0.181170 -0.050000
-0.528240 0.165407 -0.050000
-0.528278 0.149988 -0.050000
-0.528482 0.134268 -0.050000
-0.528792 0.118551 -0.050000
-0.529216 0.102835 -0.050000
-0.529744 0.087113 -0.050000
-0.530366 0.071374 -0.050000
-0.531065 0.055615 -0.050000
-0.531824 0.039850 -0.050000
-0.532630 0.024011 -0.050000
-0.533465 0.008171 -0.050000
-0.534328 -0.007681 -0.050000
-0.535215 -0.023544 -0.050000
-0.536129 -0.039420 -0.050000
-0.537067 -0.055272 -0.050000
-0.538031 -0.071130 -0.050000
-0.539022 -0.086978 -0.050000
-0.540051 -0.102817 -0.050000
-0.541137 -0.118642 -0.050000
-0.542317 -0.134450 -0.050000
-0.543645 -0.150103 -0.050000
-0.545189 -0.165858 -0.050000
-0.547032 -0.181499 -0.050000
-0.549272 -0.197030 -0.050000
-0.552018 -0.212418 -0.050000
-0.555384 -0.227607 -0.050000
-0.559425 -0.242479 -0.050000
-0.564297 -0.256784 -0.050000
-0.569491 -0.271786 -0.050000
-0.575130 -0.285688 -0.050000
-0.580552 -0.299355 -0.050000
-0.585475 -0.312859 -0.050000
-0.589617 -0.326155 -0.050000
-0.592771 -0.339395 -0.050000
-0.594844 -0.352542 -0.050000
-0.595750 -0.365696 -0.050000
-0.595490 -0.378875 -0.050000
-0.594071 -0.392121 -0.050000
-0.591554 -0.405467 -0.050000
-0.588030 -0.418944 -0.050000
-0.583644 -0.432578 -0.050000
-0.578611 -0.446386 -0.050000
-0.573244 -0.460368 -0.050000
-0.567980 -0.474498 -0.050000
-0.563406 -0.488782 -0.050000
-0.560318 -0.503529 -0.050000
-0.542457 0.389930 -0.050000
-0.544628 0.374989 -0.050000
-0.547300 0.360238 -0.050000
-0.549748 0.345675 -0.050000
-0.551508 0.331247 -0.050000
-0.552427 0.316864 -0.050000
-0.552454 0.302512 -0.050000
-0.551765 0.288041 -0.050000
-0.550545 0.273541 -0.050000
-0.549234 0.257953 -0.050000
-0.547837 0.243337 -0.050000
-0.546717 0.228219 -0.050000
-0.545885 0.212884 -0.050000
-0.545315 0.197408 -0.050000
-0.544992 0.181834 -0.050000
-0.544864 0.166105 -0.050000
-0.544874 0.150700 -0.050000
-0.545040 0.135000 -0.050000
-0.545329 0.119292 -0.050000
-0.545727 0.103585 -0.050000
-0.546229 0.087866 -0.050000
-0.546820 0.072129 -0.050000
-0.547488 0.056372 -0.050000
-0.548217 0.040606 -0.050000
-0.548994 0.024771 -0.050000
-0.549809 0.008936 -0.050000
-0.550655 -0.006910 -0.050000
-0.551535 -0.022767 -0.050000
-0.552446 -0.038635 -0.050000
-0.553389 -0.054482 -0.050000
-0.554360 -0.070330 -0.050000
-0.555364 -0.086173 -0.050000
-0.556409 -0.102000 -0.050000
-0.557517 -0.117817 -0.050000
-0.558725 -0.133608 -0.050000
-0.560092 -0.149246 -0.050000
-0.561689 -0.164976 -0.050000
-0.563607 -0.180590 -0.050000
-0.565946 -0.196086 -0.050000
-0.568832 -0.211435 -0.050000
-0.572372 -0.226576 -0.050000
-0.576657 -0.241400 -0.050000
-0.581816 -0.255651 -0.050000
-0.587371 -0.270594 -0.050000
-0.593374 -0.284415 -0.050000
-0.599172 -0.298069 -0.050000
-0.604425 -0.311488 -0.050000
-0.608838 -0.324846 -0.050000
-0.612233 -0.338059 -0.050000
-0.614450 -0.351279 -0.050000
-0.615462 -0.364488 -0.050000
-0.615226 -0.377743 -0.050000
-0.613774 -0.391068 -0.050000
-0.611155 -0.404494 -0.050000
-0.607466 -0.418051 -0.050000
-0.602857 -0.431765 -0.050000
-0.597553 -0.445654 -0.050000
-0.591880 -0.459722 -0.050000
-0.586295 -0.473945 -0.050000
-0.581421 -0.488340 -0.050000
-0.578096 -0.503205 -0.050000
-0.559812 0.389842 -0.050000
-0.562175 0.374901 -0.050000
-0.565081 0.360155 -0.050000
-0.567709 0.345604 -0.050000
-0.569606 0.331195 -0.050000
-0.570521 0.316883 -0.050000
-0.570507 0.302535 -0.050000
-0.569652 0.288213 -0.050000
-0.568220 0.273729 -0.050000
-0.566705 0.258268 -0.050000
-0.565071 0.243693 -0.050000
-0.563794 0.228660 -0.050000
-0.562803 0.213380 -0.050000
-0.562132 0.197967 -0.050000
-0.561714 0.182437 -0.050000
-0.561533 0.166759 -0.050000
-0.561482 0.151376 -0.050000
-0.561619 0.135699 -0.050000
-0.561876 0.120008 -0.050000
-0.562247 0.104315 -0.050000
-0.562718 0.088604 -0.050000
-0.563280 0.072873 -0.050000
-0.563916 0.057123 -0.050000
-0.564615 0.041358 -0.050000
-0.565367 0.025536 -0.050000
-0.566159 0.009711 -0.050000
-0.566992 -0.006124 -0.050000
-0.567862 -0.021968 -0.050000
-0.568773 -0.037826 -0.050000
-0.569717 -0.053657 -0.050000
-0.570698 -0.069496 -0.050000
-0.571713 -0.085324 -0.050000
-0.572775 -0.101140 -0.050000
-0.573906 -0.116938 -0.050000
-0.575146 -0.132712 -0.050000
-0.576554 -0.148327 -0.050000
-0.578208 -0.164027 -0.050000
-0.580203 -0.179603 -0.050000
-0.582646 -0.195053 -0.050000
-0.585662 -0.210350 -0.050000
-0.589386 -0.225430 -0.050000
-0.593888 -0.240188 -0.050000
-0.599346 -0.254381 -0.050000
-0.605225 -0.269225 -0.050000
-0.611602 -0.283018 -0.050000
-0.617734 -0.296564 -0.050000
-0.623291 -0.310052 -0.050000
-0.627983 -0.323345 -0.050000
-0.631556 -0.336667 -0.050000
-0.633941 -0.349942 -0.050000
-0.635030 -0.363254 -0.050000
-0.634829 -0.376612 -0.050000
-0.633341 -0.390041 -0.050000
-0.630626 -0.403566 -0.050000
-0.626778 -0.417214 -0.050000
-0.621950 -0.431012 -0.050000
-0.616374 -0.444983 -0.050000
-0.610390 -0.459135 -0.050000
-0.604475 -0.473452 -0.050000
-0.599284 -0.487961 -0.050000
-0.595701 -0.502951 -0.050000
-0.577146 0.389704 -0.050000
-0.579723 0.374744 -0.050000
-0.582866 0.359973 -0.050000
-0.585713 0.345411 -0.050000
-0.587722 0.331007 -0.050000
-0.588713 0.316696 -0.050000
-0.588599 0.302459 -0.050000
-0.587630 0.288110 -0.050000
-0.586001 0.273810 -0.050000
-0.584221 0.258378 -0.050000
-0.582417 0.243919 -0.050000
-0.580927 0.228962 -0.050000
-0.579808 0.213766 -0.050000
-0.579008 0.198428 -0.050000
-0.578494 0.182976 -0.050000
-0.578216 0.167348 -0.050000
-0.578124 0.151993 -0.050000
-0.578212 0.136336 -0.050000
-0.578439 0.120683 -0.050000
-0.578776 0.105005 -0.050000
-0.579217 0.089312 -0.050000
-0.579746 0.073593 -0.050000
-0.580353 0.057854 -0.050000
-0.581025 0.042102 -0.050000
-0.581752 0.026296 -0.050000
-0.582527 0.010491 -0.050000
-0.583343 -0.005324 -0.050000
-0.584208 -0.021149 -0.050000
-0.585112 -0.036985 -0.050000
-0.586061 -0.052799 -0.050000
-0.587047 -0.068616 -0.050000
-0.588075 -0.084427 -0.050000
-0.589154 -0.100221 -0.050000
-0.590309 -0.116001 -0.050000
-0.591583 -0.131747 -0.050000
-0.593035 -0.147335 -0.050000
-0.594753 -0.162996 -0.050000
-0.596829 -0.178522 -0.050000
-0.599376 -0.193918 -0.050000
-0.602530 -0.209141 -0.050000
-0.606416 -0.224150 -0.050000
-0.611151 -0.238818 -0.050000
-0.616855 -0.252932 -0.050000
-0.623080 -0.267697 -0.050000
-0.629762 -0.281382 -0.050000
-0.636218 -0.294982 -0.050000
-0.642068 -0.308354 -0.050000
-0.646950 -0.321803 -0.050000
-0.650742 -0.335163 -0.050000
-0.653238 -0.348577 -0.050000
-0.654421 -0.362024 -0.050000
-0.654244 -0.375523 -0.050000
-0.652733 -0.389088 -0.050000
-0.649931 -0.402734 -0.050000
-0.645936 -0.416486 -0.050000
-0.640899 -0.430373 -0.050000
-0.635058 -0.444421 -0.050000
-0.628761 -0.458650 -0.050000
-0.622506 -0.473055 -0.050000
-0.616980 -0.487677 -0.050000
-0.613112 -0.502798 -0.050000
-0.594439 0.389521 -0.050000
-0.597234 0.374508 -0.050000
-0.600642 0.359692 -0.050000
-0.603702 0.345081 -0.050000
-0.605884 0.330655 -0.050000
-0.606894 0.316353 -0.050000
-0.606804 0.302091 -0.050000
-0.605658 0.287919 -0.050000
-0.603844 0.273578 -0.050000
-0.601882 0.258331 -0.050000
-0.599818 0.243946 -0.050000
-0.598184 0.229096 -0.050000
-0.596886 0.214018 -0.050000
-0.595967 0.198758 -0.050000
-0.595350 0.183396 -0.050000
-0.594951 0.167920 -0.050000
-0.594769 0.152473 -0.050000
-0.594828 0.136910 -0.050000
-0.595007 0.121284 -0.050000
-0.595306 0.105642 -0.050000
-0.595713 0.089967 -0.050000
-0.596214 0.074272 -0.050000
-0.596797 0.058552 -0.050000
-0.597453 0.042815 -0.050000
-0.598164 0.027048 -0.050000
-0.598918 0.011272 -0.050000
-0.599724 -0.004512 -0.050000
-0.600574 -0.020306 -0.050000
-0.601479 -0.036111 -0.050000
-0.602423 -0.051893 -0.050000
-0.603417 -0.067685 -0.050000
-0.604454 -0.083465 -0.050000
-0.605549 -0.099236 -0.050000
-0.606731 -0.114984 -0.050000
-0.608040 -0.130699 -0.050000
-0.609545 -0.146250 -0.050000
-0.611329 -0.161862 -0.050000
-0.613494 -0.177333 -0.050000
-0.616150 -0.192648 -0.050000
-0.619436 -0.207799 -0.050000
-0.623497 -0.222690 -0.050000
-0.628417 -0.237276 -0.050000
-0.634394 -0.251280 -0.050000
-0.640871 -0.265932 -0.050000
-0.647872 -0.279635 -0.050000
-0.654600 -0.293072 -0.050000
-0.660633 -0.306643 -0.050000
-0.665770 -0.320086 -0.050000
-0.669676 -0.333630 -0.050000
-0.672313 -0.347210 -0.050000
-0.673565 -0.360843 -0.050000
-0.673427 -0.374529 -0.050000
-0.671898 -0.388265 -0.050000
-0.669029 -0.402061 -0.050000
-0.664905 -0.415932 -0.050000
-0.659678 -0.429911 -0.050000
-0.653584 -0.444031 -0.050000
-0.646979 -0.458324 -0.050000
-0.640375 -0.472804 -0.050000
-0.634493 -0.487531 -0.050000
-0.630306 -0.502784 -0.050000
-0.611653 0.389295 -0.050000
-0.614689 0.374210 -0.050000
-0.618360 0.359312 -0.050000
-0.621669 0.344636 -0.050000
-0.624002 0.330142 -0.050000
-0.625137 0.315815 -0.050000
-0.624960 0.301582 -0.050000
-0.623799 0.287367 -0.050000
-0.621797 0.273230 -0.050000
-0.619567 0.258011 -0.050000
-0.617394 0.243741 -0.050000
-0.615521 0.229070 -0.050000
-0.614087 0.214065 -0.050000
-0.613024 0.198951 -0.050000
-0.612281 0.183674 -0.050000
-0.611826 0.168327 -0.050000
-0.611599 0.152864 -0.050000
-0.611543 0.137364 -0.050000
-0.611668 0.121800 -0.050000
-0.611920 0.106191 -0.050000
-0.612290 0.090555 -0.050000
-0.612756 0.074890 -0.050000
-0.613309 0.059206 -0.050000
-0.613929 0.043500 -0.050000
-0.614612 0.027782 -0.050000
-0.615351 0.012051 -0.050000
-0.616140 -0.003689 -0.050000
-0.616986 -0.019436 -0.050000
-0.617875 -0.035193 -0.050000
-0.618824 -0.050939 -0.050000
-0.619814 -0.066684 -0.050000
-0.620860 -0.082430 -0.050000
-0.621972 -0.098158 -0.050000
-0.623176 -0.113871 -0.050000
-0.624527 -0.129543 -0.050000
-0.626082 -0.145048 -0.050000
-0.627946 -0.160604 -0.050000
-0.630205 -0.175998 -0.050000
-0.632981 -0.191239 -0.050000
-0.636404 -0.206260 -0.050000
-0.640616 -0.221077 -0.050000
-0.645749 -0.235479 -0.050000
-0.651887 -0.249421 -0.050000
-0.658669 -0.263985 -0.050000
-0.665871 -0.277543 -0.050000
-0.672764 -0.291186 -0.050000
-0.679067 -0.304675 -0.050000
-0.684281 -0.318347 -0.050000
-0.688359 -0.332079 -0.050000
-0.691079 -0.345886 -0.050000
-0.692412 -0.359765 -0.050000
-0.692308 -0.373687 -0.050000
-0.690782 -0.387641 -0.050000
-0.687866 -0.401617 -0.050000
-0.683643 -0.415630 -0.050000
-0.678254 -0.429706 -0.050000
-0.671929 -0.443889 -0.050000
-0.665027 -0.458227 -0.050000
-0.658071 -0.472758 -0.050000
-0.651811 -0.487573 -0.050000
-0.647266 -0.502953 -0.050000
-0.628765 0.389058 -0.050000
-0.632043 0.373866 -0.050000
-0.636004 0.358879 -0.050000
-0.639551 0.344099 -0.050000
-0.642084 0.329537 -0.050000
-0.643292 0.315118 -0.050000
-0.643219 0.300875 -0.050000
-0.641881 0.286728 -0.050000
-0.639814 0.272577 -0.050000
-0.637474 0.257442 -0.050000
-0.635000 0.243406 -0.050000
-0.633034 0.228728 -0.050000
-0.631417 0.213973 -0.050000
-0.630187 0.198934 -0.050000
-0.629324 0.183788 -0.050000
-0.628749 0.168506 -0.050000
-0.628420 0.153145 -0.050000
-0.628305 0.137692 -0.050000
-0.628356 0.122187 -0.050000
-0.628563 0.106634 -0.050000
-0.628893 0.091045 -0.050000
-0.629331 0.075432 -0.050000
-0.629855 0.059798 -0.050000
-0.630455 0.044150 -0.050000
-0.631119 0.028490 -0.050000
-0.631841 0.012820 -0.050000
-0.632620 -0.002853 -0.050000
-0.633447 -0.018539 -0.050000
-0.634339 -0.034229 -0.050000
-0.635265 -0.049916 -0.050000
-0.636261 -0.065609 -0.050000
-0.637307 -0.081293 -0.050000
-0.638427 -0.096975 -0.050000
-0.639661 -0.112634 -0.050000
-0.641044 -0.128248 -0.050000
-0.642668 -0.143703 -0.050000
-0.644609 -0.159180 -0.050000
-0.646974 -0.174503 -0.050000
-0.649877 -0.189630 -0.050000
-0.653453 -0.204566 -0.050000
-0.657820 -0.219166 -0.050000
-0.663069 -0.233583 -0.050000
-0.669463 -0.247254 -0.050000
-0.676341 -0.261808 -0.050000
-0.683703 -0.275485 -0.050000
-0.690851 -0.288953 -0.050000
-0.697144 -0.302706 -0.050000
-0.702542 -0.316577 -0.050000
-0.706683 -0.330560 -0.050000
-0.709502 -0.344664 -0.050000
-0.710891 -0.358839 -0.050000
-0.710836 -0.373056 -0.050000
-0.709322 -0.387274 -0.050000
-0.706387 -0.401477 -0.050000
-0.702096 -0.415658 -0.050000
-0.696580 -0.429845 -0.050000
-0.690061 -0.444087 -0.050000
-0.682885 -0.458448 -0.050000
-0.675582 -0.472999 -0.050000
-0.668922 -0.487869 -0.050000
-0.663969 -0.503363 -0.050000
-0.645734 0.388836 -0.050000
-0.649284 0.373539 -0.050000
-0.653525 0.358438 -0.050000
-0.657339 0.343571 -0.050000
-0.660052 0.328890 -0.050000
-0.661407 0.314422 -0.050000
-0.661337 0.300021 -0.050000
-0.660141 0.285907 -0.050000
-0.657885 0.271852 -0.050000
-0.655348 0.256835 -0.050000
-0.652919 0.242580 -0.050000
-0.650685 0.228384 -0.050000
-0.648879 0.213609 -0.050000
-0.647502 0.198736 -0.050000
-0.646482 0.183679 -0.050000
-0.645778 0.168512 -0.050000
-0.645342 0.153225 -0.050000
-0.645133 0.137861 -0.050000
-0.645124 0.122423 -0.050000
-0.645276 0.106939 -0.050000
-0.645570 0.091420 -0.050000
-0.645977 0.075876 -0.050000
-0.646481 0.060316 -0.050000
-0.647062 0.044745 -0.050000
-0.647711 0.029165 -0.050000
-0.648419 0.013581 -0.050000
-0.649184 -0.002014 -0.050000
-0.650003 -0.017600 -0.050000
-0.650857 -0.033211 -0.050000
-0.651795 -0.048825 -0.050000
-0.652768 -0.064433 -0.050000
-0.653808 -0.080046 -0.050000
-0.654935 -0.095656 -0.050000
-0.656183 -0.111251 -0.050000
-0.657629 -0.126799 -0.050000
-0.659298 -0.142167 -0.050000
-0.661341 -0.157584 -0.050000
-0.663826 -0.172790 -0.050000
-0.666863 -0.187830 -0.050000
-0.670586 -0.202616 -0.050000
-0.675127 -0.217191 -0.050000
-0.680586 -0.231148 -0.050000
-0.686928 -0.245118 -0.050000
-0.694009 -0.259541 -0.050000
-0.701549 -0.273022 -0.050000
-0.708551 -0.286758 -0.050000
-0.715020 -0.300716 -0.050000
-0.720422 -0.314827 -0.050000
-0.724649 -0.329142 -0.050000
-0.727511 -0.343582 -0.050000
-0.728962 -0.358118 -0.050000
-0.728943 -0.372682 -0.050000
-0.727461 -0.387225 -0.050000
-0.724526 -0.401700 -0.050000
-0.720202 -0.416095 -0.050000
-0.714604 -0.430420 -0.050000
-0.707932 -0.444725 -0.050000
-0.700523 -0.459092 -0.050000
-0.692890 -0.473624 -0.050000
-0.685815 -0.488506 -0.050000
-0.680399 -0.504083 -0.050000
-0.662552 0.388707 -0.050000
-0.666379 0.373278 -0.050000
-0.670929 0.358104 -0.050000
-0.674985 0.343131 -0.050000
-0.677910 0.328380 -0.050000
-0.679381 0.313752 -0.050000
-0.679423 0.299344 -0.050000
-0.678182 0.284924 -0.050000
-0.676112 0.271131 -0.050000
-0.673623 0.255633 -0.050000
-0.670829 0.242074 -0.050000
-0.668514 0.227581 -0.050000
-0.666591 0.213076 -0.050000
-0.665040 0.198285 -0.050000
-0.663850 0.183375 -0.050000
-0.662989 0.168303 -0.050000
-0.662422 0.153124 -0.050000
-0.662112 0.137844 -0.050000
-0.662022 0.122498 -0.050000
-0.662120 0.107100 -0.050000
-0.662372 0.091670 -0.050000
-0.662751 0.076217 -0.050000
-0.663232 0.060753 -0.050000
-0.663799 0.045281 -0.050000
-0.664433 0.029806 -0.050000
-0.665131 0.014324 -0.050000
-0.665881 -0.001152 -0.050000
-0.666686 -0.016651 -0.050000
-0.667537 -0.032103 -0.050000
-0.668404 -0.047652 -0.050000
-0.669362 -0.063151 -0.050000
-0.670390 -0.078675 -0.050000
-0.671514 -0.094189 -0.050000
-0.672777 -0.109691 -0.050000
-0.674236 -0.125159 -0.050000
-0.676048 -0.140493 -0.050000
-0.678217 -0.155737 -0.050000
-0.680833 -0.170848 -0.050000
-0.684030 -0.185727 -0.050000
-0.687903 -0.200412 -0.050000
-0.692567 -0.214724 -0.050000
-0.698082 -0.228925 -0.050000
-0.704789 -0.241964 -0.050000
-0.711712 -0.257061 -0.050000
-0.719016 -0.270545 -0.050000
-0.726139 -0.284609 -0.050000
-0.732529 -0.298723 -0.050000
-0.737970 -0.313192 -0.050000
-0.742190 -0.327843 -0.050000
-0.745091 -0.342684 -0.050000
-0.746565 -0.357625 -0.050000
-0.746588 -0.372600 -0.050000
-0.745132 -0.387524 -0.050000
-0.742220 -0.402341 -0.050000
-0.737892 -0.417003 -0.050000
-0.732250 -0.431514 -0.050000
-0.725483 -0.445910 -0.050000
-0.717890 -0.460277 -0.050000
-0.709968 -0.474760 -0.050000
-0.702479 -0.489594 -0.050000
-0.696543 -0.505205 -0.050000
-0.679183 0.388711 -0.050000
-0.683342 0.373213 -0.050000
-0.688180 0.357955 -0.050000
-0.692503 0.342954 -0.050000
-0.695597 0.328085 -0.050000
-0.697228 0.313390 -0.050000
-0.697341 0.298728 -0.050000
-0.696227 0.284430 -0.050000
-0.694141 0.269680 -0.050000
-0.691400 0.255793 -0.050000
-0.688679 0.241021 -0.050000
-0.686155 0.226978 -0.050000
-0.684054 0.212405 -0.050000
-0.682339 0.197755 -0.050000
-0.681010 0.182899 -0.050000
-0.680035 0.167924 -0.050000
-0.679377 0.152826 -0.050000
-0.679001 0.137645 -0.050000
-0.678865 0.122395 -0.050000
-0.678930 0.107104 -0.050000
-0.679162 0.091782 -0.050000
-0.679526 0.076446 -0.050000
-0.679999 0.061100 -0.050000
-0.680556 0.045752 -0.050000
-0.681184 0.030402 -0.050000
-0.681868 0.015054 -0.050000
-0.682608 -0.000302 -0.050000
-0.683389 -0.015646 -0.050000
-0.684224 -0.031004 -0.050000
-0.685139 -0.046372 -0.050000
-0.686069 -0.061779 -0.050000
-0.687079 -0.077167 -0.050000
-0.688192 -0.092566 -0.050000
-0.689456 -0.107948 -0.050000
-0.690950 -0.123299 -0.050000
-0.692702 -0.138581 -0.050000
-0.694889 -0.153724 -0.050000
-0.697590 -0.168727 -0.050000
-0.700883 -0.183566 -0.050000
-0.704888 -0.198118 -0.050000
-0.709659 -0.212543 -0.050000
-0.715367 -0.226268 -0.050000
-0.721854 -0.240703 -0.050000
-0.729156 -0.253903 -0.050000
-0.736422 -0.268339 -0.050000
-0.743412 -0.282349 -0.050000
-0.749757 -0.296878 -0.050000
-0.755115 -0.311633 -0.050000
-0.759317 -0.326698 -0.050000
-0.762193 -0.341963 -0.050000
-0.763681 -0.357368 -0.050000
-0.763715 -0.372806 -0.050000
-0.762288 -0.388186 -0.050000
-0.759396 -0.403413 -0.050000
-0.755087 -0.418429 -0.050000
-0.749442 -0.433189 -0.050000
-0.742622 -0.447731 -0.050000
-0.734918 -0.462134 -0.050000
-0.726763 -0.476545 -0.050000
-0.718885 -0.491278 -0.050000
-0.712387 -0.506849 -0.050000
-0.695642 0.389008 -0.050000
-0.700149 0.373404 -0.050000
-0.705316 0.358197 -0.050000
-0.709833 0.343124 -0.050000
-0.713115 0.328215 -0.050000
-0.714852 0.313315 -0.050000
-0.715119 0.298580 -0.050000
-0.714044 0.283823 -0.050000
-0.711973 0.269389 -0.050000
-0.709429 0.254868 -0.050000
-0.706665 0.240517 -0.050000
-0.704039 0.226036 -0.050000
-0.701793 0.211647 -0.050000
-0.699933 0.196977 -0.050000
-0.698457 0.182224 -0.050000
-0.697353 0.167326 -0.050000
-0.696593 0.152337 -0.050000
-0.696138 0.137263 -0.050000
-0.695946 0.122136 -0.050000
-0.695974 0.106970 -0.050000
-0.696181 0.091782 -0.050000
-0.696532 0.076583 -0.050000
-0.696993 0.061380 -0.050000
-0.697544 0.046176 -0.050000
-0.698163 0.030974 -0.050000
-0.698841 0.015771 -0.050000
-0.699563 0.000572 -0.050000
-0.700336 -0.014629 -0.050000
-0.701156 -0.029844 -0.050000
-0.702004 -0.045065 -0.050000
-0.702927 -0.060293 -0.050000
-0.703909 -0.075544 -0.050000
-0.705002 -0.090787 -0.050000
-0.706263 -0.106027 -0.050000
-0.707746 -0.121226 -0.050000
-0.709582 -0.136359 -0.050000
-0.711826 -0.151398 -0.050000
-0.714607 -0.166287 -0.050000
-0.718021 -0.180976 -0.050000
-0.722140 -0.195515 -0.050000
-0.727037 -0.209659 -0.050000
-0.732823 -0.223778 -0.050000
-0.739362 -0.237651 -0.050000
-0.746373 -0.251739 -0.050000
-0.753557 -0.265777 -0.050000
-0.760438 -0.280274 -0.050000
-0.766615 -0.295017 -0.050000
-0.771878 -0.310178 -0.050000
-0.775981 -0.325650 -0.050000
-0.778812 -0.341396 -0.050000
-0.780264 -0.357307 -0.050000
-0.780295 -0.373278 -0.050000
-0.778870 -0.389184 -0.050000
-0.776000 -0.404915 -0.050000
-0.771706 -0.420367 -0.050000
-0.766080 -0.435494 -0.050000
-0.759262 -0.450262 -0.050000
-0.751488 -0.464758 -0.050000
-0.743195 -0.479147 -0.050000
-0.734987 -0.493722 -0.050000
-0.727910 -0.509169 -0.050000
-0.711893 0.389627 -0.050000
-0.716858 0.374148 -0.050000
-0.722254 0.358898 -0.050000
-0.726980 0.343877 -0.050000
-0.730356 0.328775 -0.050000
-0.732242 0.313734 -0.050000
-0.732604 0.298663 -0.050000
-0.731665 0.283779 -0.050000
-0.729769 0.268965 -0.050000
-0.727210 0.254338 -0.050000
-0.724515 0.239839 -0.050000
-0.721921 0.225289 -0.050000
-0.719538 0.210740 -0.050000
-0.717564 0.196146 -0.050000
-0.715969 0.181408 -0.050000
-0.714764 0.166598 -0.050000
-0.713922 0.151702 -0.050000
-0.713408 0.136750 -0.050000
-0.713175 0.121754 -0.050000
-0.713176 0.106734 -0.050000
-0.713365 0.091697 -0.050000
-0.713704 0.076655 -0.050000
-0.714158 0.061610 -0.050000
-0.714701 0.046567 -0.050000
-0.715315 0.031525 -0.050000
-0.715981 0.016484 -0.050000
-0.716698 0.001447 -0.050000
-0.717452 -0.013598 -0.050000
-0.718241 -0.028639 -0.050000
-0.719080 -0.043691 -0.050000
-0.719957 -0.058751 -0.050000
-0.720917 -0.073813 -0.050000
-0.721986 -0.088885 -0.050000
-0.723222 -0.103939 -0.050000
-0.724720 -0.118971 -0.050000
-0.726551 -0.133947 -0.050000
-0.728846 -0.148833 -0.050000
-0.731688 -0.163594 -0.050000
-0.735182 -0.178210 -0.050000
-0.739380 -0.192596 -0.050000
-0.744408 -0.206812 -0.050000
-0.750149 -0.220941 -0.050000
-0.756558 -0.234957 -0.050000
-0.763494 -0.249014 -0.050000
-0.770455 -0.263392 -0.050000
-0.777108 -0.278040 -0.050000
-0.783118 -0.293170 -0.050000
-0.788196 -0.308702 -0.050000
-0.792178 -0.324646 -0.050000
-0.794905 -0.340906 -0.050000
-0.796297 -0.357388 -0.050000
-0.796284 -0.373955 -0.050000
-0.794844 -0.390473 -0.050000
-0.791964 -0.406799 -0.050000
-0.787688 -0.422807 -0.050000
-0.782070 -0.438396 -0.050000
-0.775275 -0.453545 -0.050000
-0.767512 -0.468239 -0.050000
-0.759116 -0.482662 -0.050000
-0.750711 -0.497153 -0.050000
-0.743100 -0.512331 -0.050000
-0.728022 0.391057 -0.050000
-0.733327 0.375482 -0.050000
-0.738983 0.360435 -0.050000
-0.743762 0.345184 -0.050000
-0.747273 0.329934 -0.050000
-0.749243 0.314516 -0.050000
-0.749762 0.299149 -0.050000
-0.748998 0.283856 -0.050000
-0.747226 0.268764 -0.050000
-0.744876 0.253878 -0.050000
-0.742217 0.239075 -0.050000
-0.739593 0.224485 -0.050000
-0.737238 0.209818 -0.050000
-0.735167 0.195177 -0.050000
-0.733515 0.180489 -0.050000
-0.732249 0.165743 -0.050000
-0.731364 0.150958 -0.050000
-0.730818 0.136137 -0.050000
-0.730563 0.121294 -0.050000
-0.730550 0.106435 -0.050000
-0.730729 0.091569 -0.050000
-0.731060 0.076698 -0.050000
-0.731506 0.061824 -0.050000
-0.732042 0.046948 -0.050000
-0.732646 0.032072 -0.050000
-0.733307 0.017198 -0.050000
-0.734011 0.002321 -0.050000
-0.734753 -0.012550 -0.050000
-0.735532 -0.027425 -0.050000
-0.736343 -0.042294 -0.050000
-0.737208 -0.057163 -0.050000
-0.738138 -0.072032 -0.050000
-0.739182 -0.086891 -0.050000
-0.740398 -0.101742 -0.050000
-0.741865 -0.116564 -0.050000
-0.743691 -0.131344 -0.050000
-0.745973 -0.146056 -0.050000
-0.748832 -0.160667 -0.050000
-0.752339 -0.175148 -0.050000
-0.756608 -0.189465 -0.050000
-0.761580 -0.203715 -0.050000
-0.767293 -0.217753 -0.050000
-0.773639 -0.231897 -0.050000
-0.780297 -0.246152 -0.050000
-0.787026 -0.260686 -0.050000
-0.793414 -0.275675 -0.050000
-0.799167 -0.291135 -0.050000
-0.804048 -0.307124 -0.050000
-0.807853 -0.323580 -0.050000
-0.810456 -0.340427 -0.050000
-0.811748 -0.357536 -0.050000
-0.811668 -0.374771 -0.050000
-0.810173 -0.391973 -0.050000
-0.807264 -0.408986 -0.050000
-0.802962 -0.425659 -0.050000
-0.797356 -0.441862 -0.050000
-0.790551 -0.457505 -0.050000
-0.782825 -0.472608 -0.050000
-0.774451 -0.487199 -0.050000
-0.765881 -0.501652 -0.050000
-0.757900 -0.516623 -0.050000
-0.743860 0.393174 -0.050000
-0.749530 0.378088 -0.050000
-0.755194 0.362674 -0.050000
-0.760107 0.347312 -0.050000
-0.763651 0.331554 -0.050000
-0.765774 0.315693 -0.050000
-0.766453 0.299796 -0.050000
-0.765883 0.284052 -0.050000
-0.764350 0.268550 -0.050000
-0.762146 0.253284 -0.050000
-0.759659 0.238326 -0.050000
-0.757141 0.223436 -0.050000
-0.754783 0.208763 -0.050000
-0.752767 0.194067 -0.050000
-0.751100 0.179426 -0.050000
-0.749839 0.164777 -0.050000
-0.748952 0.150125 -0.050000
-0.748404 0.135466 -0.050000
-0.748146 0.120800 -0.050000
-0.748127 0.106127 -0.050000
-0.748297 0.091446 -0.050000
-0.748616 0.076756 -0.050000
-0.749050 0.062057 -0.050000
-0.749573 0.047349 -0.050000
-0.750167 0.032636 -0.050000
-0.750816 0.017917 -0.050000
-0.751512 0.003201 -0.050000
-0.752248 -0.011515 -0.050000
-0.753019 -0.026219 -0.050000
-0.753830 -0.040914 -0.050000
-0.754684 -0.055591 -0.050000
-0.755609 -0.070249 -0.050000
-0.756638 -0.084885 -0.050000
-0.757831 -0.099491 -0.050000
-0.759271 -0.114067 -0.050000
-0.761053 -0.128600 -0.050000
-0.763295 -0.143075 -0.050000
-0.766098 -0.157481 -0.050000
-0.769574 -0.171775 -0.050000
-0.773746 -0.186022 -0.050000
-0.778664 -0.200092 -0.050000
-0.784255 -0.214251 -0.050000
-0.790347 -0.228400 -0.050000
-0.796775 -0.242815 -0.050000
-0.803168 -0.257609 -0.050000
-0.809248 -0.272912 -0.050000
-0.814723 -0.288814 -0.050000
-0.819359 -0.305314 -0.050000
-0.822978 -0.322365 -0.050000
-0.825429 -0.339859 -0.050000
-0.826604 -0.357671 -0.050000
-0.826425 -0.375644 -0.050000
-0.824851 -0.393610 -0.050000
-0.821871 -0.411396 -0.050000
-0.817521 -0.428829 -0.050000
-0.811868 -0.445758 -0.050000
-0.805074 -0.462066 -0.050000
-0.797306 -0.477708 -0.050000
-0.789005 -0.492723 -0.050000
-0.780455 -0.507363 -0.050000
-0.772257 -0.522020 -0.050000
-0.759371 0.397306 -0.050000
-0.765041 0.381500 -0.050000
-0.770825 0.366101 -0.050000
-0.775694 0.350028 -0.050000
-0.779393 0.333678 -0.050000
-0.781645 0.317082 -0.050000
-0.782548 0.300505 -0.050000
-0.782236 0.284139 -0.050000
-0.780963 0.268096 -0.050000
-0.779051 0.252471 -0.050000
-0.776785 0.237138 -0.050000
-0.774461 0.222185 -0.050000
-0.772282 0.207351 -0.050000
-0.770359 0.192744 -0.050000
-0.768797 0.178181 -0.050000
-0.767592 0.163698 -0.050000
-0.766748 0.149237 -0.050000
-0.766220 0.134790 -0.050000
-0.765966 0.120340 -0.050000
-0.765937 0.105877 -0.050000
-0.766088 0.091394 -0.050000
-0.766382 0.076888 -0.050000
-0.766790 0.062358 -0.050000
-0.767290 0.047807 -0.050000
-0.767863 0.033238 -0.050000
-0.768499 0.018660 -0.050000
-0.769187 0.004075 -0.050000
-0.769923 -0.010500 -0.050000
-0.770702 -0.025064 -0.050000
-0.771525 -0.039600 -0.050000
-0.772400 -0.054102 -0.050000
-0.773343 -0.068558 -0.050000
-0.774390 -0.082959 -0.050000
-0.775590 -0.097301 -0.050000
-0.777016 -0.111578 -0.050000
-0.778761 -0.125790 -0.050000
-0.780928 -0.139939 -0.050000
-0.783631 -0.154011 -0.050000
-0.786953 -0.168053 -0.050000
-0.790962 -0.181985 -0.050000
-0.795657 -0.195999 -0.050000
-0.800950 -0.209987 -0.050000
-0.806744 -0.224240 -0.050000
-0.812768 -0.238802 -0.050000
-0.818797 -0.253896 -0.050000
-0.824518 -0.269625 -0.050000
-0.829690 -0.286057 -0.050000
-0.834084 -0.303174 -0.050000
-0.837508 -0.320903 -0.050000
-0.839804 -0.339134 -0.050000
-0.840849 -0.357722 -0.050000
-0.840557 -0.376504 -0.050000
-0.838877 -0.395303 -0.050000
-0.835799 -0.413932 -0.050000
-0.831356 -0.432209 -0.050000
-0.825637 -0.449957 -0.050000
-0.818787 -0.467041 -0.050000
-0.811056 -0.483373 -0.050000
-0.802670 -0.498955 -0.050000
-0.794345 -0.514011 -0.050000
-0.786215 -0.528841 -0.050000
-0.750000 -0.500000 0.033333
-0.744500 -0.531663 0.016667
-0.763534 -0.542665 0.000000
-0.779019 -0.551620 -0.016667
-0.789434 -0.550430 -0.033333
0.750000 -0.500000 0.033333
0.741333 -0.532086 0.016667
0.760581 -0.544827 0.000000
0.774984 -0.552608 -0.016667
0.783534 -0.551461 -0.033333
-0.733871 -0.500000 0.033333
-0.744249 -0.524777 0.016667
-0.756830 -0.533994 0.000000
-0.769002 -0.541807 -0.016667
-0.776549 -0.543200 -0.033333
-0.717742 -0.500000 0.033333
-0.731472 -0.519430 0.016667
-0.745545 -0.527729 0.000000
-0.756925 -0.535782 -0.016667
-0.763652 -0.536712 -0.033333
-0.701613 -0.500000 0.033333
-0.717661 -0.517614 0.016667
-0.732242 -0.523209 0.000000
-0.744428 -0.530879 -0.016667
-0.750131 -0.531742 -0.033333
-0.685484 -0.500000 0.033333
-0.703128 -0.516491 0.016667
-0.718675 -0.520301 0.000000
-0.730917 -0.527059 -0.016667
-0.736343 -0.527724 -0.033333
-0.669355 -0.500000 0.033333
-0.688254 -0.515718 0.016667
-0.704519 -0.518143 0.000000
-0.716836 -0.524174 -0.016667
-0.722029 -0.524591 -0.033333
-0.653226 -0.500000 0.033333
-0.673029 -0.515191 0.016667
-0.689773 -0.516579 0.000000
-0.702139 -0.522030 -0.016667
-0.707272 -0.522165 -0.033333
-0.637097 -0.500000 0.033333
-0.657525 -0.514903 0.016667
-0.674536 -0.515477 0.000000
-0.686946 -0.520482 -0.016667
-0.692042 -0.520331 -0.033333
-0.620968 -0.500000 0.033333
-0.641786 -0.514810 0.016667
-0.658935 -0.514749 0.000000
-0.671324 -0.519402 -0.016667
-0.676391 -0.518979 -0.033333
-0.604839 -0.500000 0.033333
-0.625870 -0.514883 0.016667
-0.643048 -0.514300 0.000000
-0.655347 -0.518697 -0.016667
-0.660351 -0.518017 -0.033333
-0.588710 -0.500000 0.033333
-0.609813 -0.515080 0.016667
-0.626935 -0.514067 0.000000
-0.639061 -0.518287 -0.016667
-0.643968 -0.517367 -0.033333
-0.572581 -0.500000 0.033333
-0.593643 -0.515371 0.016667
-0.610631 -0.513993 0.000000
-0.622505 -0.518111 -0.016667
-0.627275 -0.516965 -0.033333
-0.556452 -0.500000 0.033333
-0.577380 -0.515726 0.016667
-0.594162 -0.514038 0.000000
-0.605707 -0.518114 -0.016667
-0.610309 -0.516761 -0.033333
-0.540323 -0.500000 0.033333
-0.561040 -0.516126 0.016667
-0.577547 -0.514168 0.000000
-0.588691 -0.518256 -0.016667
-0.593098 -0.516709 -0.033333
-0.524194 -0.500000 0.033333
-0.544633 -0.516554 0.016667
-0.560798 -0.514357 0.000000
-0.571478 -0.518501 -0.016667
-0.575672 -0.516774 -0.033333
-0.508065 -0.500000 0.033333
-0.528166 -0.516999 0.016667
-0.543924 -0.514585 0.000000
-0.554088 -0.518822 -0.016667
-0.558056 -0.516924 -0.033333
-0.491935 -0.500000 0.033333
-0.511645 -0.517449 0.016667
-0.526931 -0.514838 0.000000
-0.536537 -0.519195 -0.016667
-0.540275 -0.517134 -0.033333
-0.475807 -0.500000 0.033333
-0.495073 -0.517900 0.016667
-0.509824 -0.515104 0.000000
-0.518843 -0.519603 -0.016667
-0.522348 -0.517386 -0.033333
-0.459677 -0.500000 0.033333
-0.478453 -0.518345 0.016667
-0.492606 -0.515374 0.000000
-0.501020 -0.520031 -0.016667
-0.504296 -0.517663 -0.033333
-0.443548 -0.500000 0.033333
-0.461785 -0.518779 0.016667
-0.475281 -0.515643 0.000000
-0.483085 -0.520467 -0.016667
-0.486138 -0.517953 -0.033333
-0.427419 -0.500000 0.033333
-0.445071 -0.519200 0.016667
-0.457852 -0.515906 0.000000
-0.465052 -0.520901 -0.016667
-0.467888 -0.518247 -0.033333
-0.411290 -0.500000 0.033333
-0.428309 -0.519605 0.016667
-0.440324 -0.516160 0.000000
-0.446934 -0.521325 -0.016667
-0.449562 -0.518537 -0.033333
-0.395161 -0.500000 0.033333
-0.411496 -0.519990 0.016667
-0.422703 -0.516403 0.000000
-0.428744 -0.521733 -0.016667
-0.431173 -0.518818 -0.033333
-0.379032 -0.500000 0.033333
-0.394633 -0.520354 0.016667
-0.404991 -0.516632 0.000000
-0.410493 -0.522121 -0.016667
-0.412733 -0.519084 -0.033333
-0.362903 -0.500000 0.033333
-0.377704 -0.520705 0.016667
-0.387188 -0.516840 0.000000
-0.392195 -0.522484 -0.016667
-0.394251 -0.519331 -0.033333
-0.346774 -0.500000 0.033333
-0.360643 -0.520976 0.016667
-0.369328 -0.517056 0.000000
-0.373852 -0.522798 -0.016667
-0.375743 -0.519580 -0.033333
-0.330645 -0.500000 0.033333
-0.343484 -0.521182 0.016667
-0.351412 -0.517259 0.000000
-0.355483 -0.523069 -0.016667
-0.357210 -0.519821 -0.033333
-0.314516 -0.500000 0.033333
-0.326275 -0.521359 0.016667
-0.333446 -0.517434 0.000000
-0.337094 -0.523310 -0.016667
-0.338662 -0.520037 -0.033333
-0.298387 -0.500000 0.033333
-0.309029 -0.521510 0.016667
-0.315442 -0.517587 0.000000
-0.318689 -0.523521 -0.016667
-0.320103 -0.520231 -0.033333
-0.282258 -0.500000 0.033333
-0.291746 -0.521636 0.016667
-0.297407 -0.517719 0.000000
-0.300271 -0.523703 -0.016667
-0.301536 -0.520402 -0.033333
-0.266129 -0.500000 0.033333
-0.274426 -0.521740 0.016667
-0.279344 -0.517831 0.000000
-0.281841 -0.523860 -0.016667
-0.282963 -0.520551 -0.033333
-0.250000 -0.500000 0.033333
-0.257068 -0.521821 0.016667
-0.261256 -0.517923 0.000000
-0.263402 -0.523990 -0.016667
-0.264385 -0.520677 -0.033333
-0.233871 -0.500000 0.033333
-0.239671 -0.521877 0.016667
-0.243144 -0.517995 0.000000
-0.244953 -0.524094 -0.016667
-0.245802 -0.520779 -0.033333
-0.217742 -0.500000 0.033333
-0.222235 -0.521908 0.016667
-0.225013 -0.518043 0.000000
-0.226496 -0.524168 -0.016667
-0.227216 -0.520855 -0.033333
-0.201613 -0.500000 0.033333
-0.204764 -0.521910 0.016667
-0.206865 -0.518065 0.000000
-0.208033 -0.524209 -0.016667
-0.208631 -0.520900 -0.033333
-0.185484 -0.500000 0.033333
-0.187263 -0.521879 0.016667
-0.188708 -0.518056 0.000000
-0.189569 -0.524211 -0.016667
-0.190050 -0.520909 -0.033333
-0.169355 -0.500000 0.033333
-0.169744 -0.521811 0.016667
-0.170547 -0.518011 0.000000
-0.171112 -0.524169 -0.016667
-0.171483 -0.520876 -0.033333
-0.153226 -0.500000 0.033333
-0.152218 -0.521703 0.016667
-0.152396 -0.517927 0.000000
-0.152671 -0.524075 -0.016667
-0.152940 -0.520794 -0.033333
-0.137097 -0.500000 0.033333
-0.134704 -0.521550 0.016667
-0.134268 -0.517798 0.000000
-0.134262 -0.523922 -0.016667
-0.134434 -0.520656 -0.033333
-0.120968 -0.500000 0.033333
-0.117218 -0.521348 0.016667
-0.116181 -0.517619 0.000000
-0.115900 -0.523703 -0.016667
-0.115984 -0.520457 -0.033333
-0.104839 -0.500000 0.033333
-0.099779 -0.521096 0.016667
-0.098152 -0.517389 0.000000
-0.097609 -0.523413 -0.016667
-0.097610 -0.520190 -0.033333
-0.088710 -0.500000 0.033333
-0.082405 -0.520790 0.016667
-0.080206 -0.517104 0.000000
-0.079409 -0.523047 -0.016667
-0.079335 -0.519852 -0.033333
-0.072581 -0.500000 0.033333
-0.065113 -0.520429 0.016667
-0.062365 -0.516764 0.000000
-0.061327 -0.522603 -0.016667
-0.061184 -0.519440 -0.033333
-0.056452 -0.500000 0.033333
-0.047918 -0.520015 0.016667
-0.044653 -0.516369 0.000000
-0.043390 -0.522080 -0.016667
-0.043183 -0.518956 -0.033333
-0.040323 -0.500000 0.033333
-0.030832 -0.519549 0.016667
-0.027093 -0.515923 0.000000
-0.025622 -0.521482 -0.016667
-0.025358 -0.518403 -0.033333
-0.024194 -0.500000 0.033333
-0.013867 -0.519036 0.016667
-0.009706 -0.515430 0.000000
-0.008046 -0.520817 -0.016667
-0.007730 -0.517788 -0.033333
-0.008065 -0.500000 0.033333
0.002970 -0.518482 0.016667
0.007491 -0.514899 0.000000
0.009316 -0.520094 -0.016667
0.009681 -0.517123 -0.033333
0.008065 -0.500000 0.033333
0.019673 -0.517894 0.016667
0.024485 -0.514340 0.000000
0.026451 -0.519328 -0.016667
0.026863 -0.516421 -0.033333
0.024194 -0.500000 0.033333
0.036239 -0.517282 0.016667
0.041269 -0.513764 0.000000
0.043350 -0.518538 -0.016667
0.043809 -0.515699 -0.033333
0.040323 -0.500000 0.033333
0.052667 -0.516658 0.016667
0.057842 -0.513186 0.000000
0.060013 -0.517742 -0.016667
0.060519 -0.514976 -0.033333
0.056452 -0.500000 0.033333
0.068960 -0.516034 0.016667
0.074210 -0.512620 0.000000
0.076446 -0.516962 -0.016667
0.077003 -0.514273 -0.033333
0.072581 -0.500000 0.033333
0.085126 -0.515422 0.016667
0.090382 -0.512084 0.000000
0.092665 -0.516219 -0.016667
0.093275 -0.513610 -0.033333
0.088710 -0.500000 0.033333
0.101169 -0.514830 0.016667
0.106373 -0.511611 0.000000
0.108690 -0.515517 -0.016667
0.109357 -0.513023 -0.033333
0.104839 -0.500000 0.033333
0.117094 -0.514292 0.016667
0.122205 -0.511197 0.000000
0.124548 -0.514887 -0.016667
0.125279 -0.512520 -0.033333
0.120968 -0.500000 0.033333
0.132913 -0.513821 0.016667
0.137914 -0.510848 0.000000
0.140272 -0.514360 -0.016667
0.141072 -0.512099 -0.033333
0.137097 -0.500000 0.033333
0.148648 -0.513432 0.016667
0.153530 -0.510573 0.000000
0.155901 -0.513946 -0.016667
0.156771 -0.511777 -0.033333
0.153226 -0.500000 0.033333
0.164319 -0.513133 0.016667
0.169094 -0.510380 0.000000
0.171470 -0.513655 -0.016667
0.172417 -0.511561 -0.033333
0.169355 -0.500000 0.033333
0.179957 -0.512934 0.016667
0.184637 -0.510269 0.000000
0.187026 -0.513492 -0.016667
0.188049 -0.511453 -0.033333
0.185484 -0.500000 0.033333
0.195588 -0.512833 0.016667
0.200204 -0.510240 0.000000
0.202606 -0.513456 -0.016667
0.203709 -0.511452 -0.033333
0.201613 -0.500000 0.033333
0.211248 -0.512832 0.016667
0.215828 -0.510286 0.000000
0.218254 -0.513542 -0.016667
0.219435 -0.511549 -0.033333
0.217742 -0.500000 0.033333
0.226967 -0.512920 0.016667
0.231548 -0.510399 0.000000
0.234007 -0.513738 -0.016667
0.235267 -0.511734 -0.033333
0.233871 -0.500000 0.033333
0.242780 -0.513089 0.016667
0.247397 -0.510567 0.000000
0.249901 -0.514033 -0.016667
0.251240 -0.511992 -0.033333
0.250000 -0.500000 0.033333
0.258714 -0.513310 0.016667
0.263402 -0.510795 0.000000
0.265971 -0.514388 -0.016667
0.267383 -0.512322 -0.033333
0.266129 -0.500000 0.033333
0.274789 -0.513574 0.016667
0.279587 -0.511065 0.000000
0.282241 -0.514788 -0.016667
0.283725 -0.512702 -0.033333
0.282258 -0.500000 0.033333
0.291018 -0.513871 0.016667
0.295973 -0.511348 0.000000
0.298733 -0.515221 -0.016667
0.300284 -0.513099 -0.033333
0.298387 -0.500000 0.033333
0.307411 -0.514182 0.016667
0.312570 -0.511633 0.000000
0.315457 -0.515660 -0.016667
0.317074 -0.513497 -0.033333
0.314516 -0.500000 0.033333
0.323966 -0.514488 0.016667
0.329382 -0.511903 0.000000
0.332418 -0.516083 -0.016667
0.334100 -0.513875 -0.033333
0.330645 -0.500000 0.033333
0.340669 -0.514775 0.016667
0.346401 -0.512143 0.000000
0.349612 -0.516471 -0.016667
0.351358 -0.514214 -0.033333
0.346774 -0.500000 0.033333
0.357491 -0.515021 0.016667
0.363610 -0.512348 0.000000
0.367026 -0.516801 -0.016667
0.368833 -0.514508 -0.033333
0.362903 -0.500000 0.033333
0.374391 -0.515202 0.016667
0.380993 -0.512513 0.000000
0.384633 -0.517059 -0.016667
0.386511 -0.514747 -0.033333
0.379032 -0.500000 0.033333
0.391353 -0.515332 0.016667
0.398512 -0.512625 0.000000
0.402408 -0.517242 -0.016667
0.404363 -0.514921 -0.033333
0.395161 -0.500000 0.033333
0.408346 -0.515402 0.016667
0.416132 -0.512686 0.000000
0.420316 -0.517347 -0.016667
0.422356 -0.515030 -0.033333
0.411290 -0.500000 0.033333
0.425339 -0.515411 0.016667
0.433814 -0.512698 0.000000
0.438322 -0.517376 -0.016667
0.440456 -0.515078 -0.033333
0.427419 -0.500000 0.033333
0.442306 -0.515360 0.016667
0.451520 -0.512668 0.000000
0.456386 -0.517335 -0.016667
0.458625 -0.515074 -0.033333
0.443548 -0.500000 0.033333
0.459229 -0.515254 0.016667
0.469212 -0.512603 0.000000
0.474471 -0.517236 -0.016667
0.476826 -0.515028 -0.033333
0.459677 -0.500000 0.033333
0.476095 -0.515101 0.016667
0.486855 -0.512513 0.000000
0.492539 -0.517093 -0.016667
0.495019 -0.514956 -0.033333
0.475807 -0.500000 0.033333
0.492897 -0.514909 0.016667
0.504419 -0.512408 0.000000
0.510558 -0.516922 -0.016667
0.513171 -0.514874 -0.033333
0.491935 -0.500000 0.033333
0.509632 -0.514687 0.016667
0.521880 -0.512301 0.000000
0.528493 -0.516743 -0.016667
0.531245 -0.514801 -0.033333
0.508065 -0.500000 0.033333
0.526298 -0.514447 0.016667
0.539220 -0.512203 0.000000
0.546315 -0.516579 -0.016667
0.549209 -0.514761 -0.033333
0.524194 -0.500000 0.033333
0.542894 -0.514199 0.016667
0.556424 -0.512131 0.000000
0.563995 -0.516455 -0.016667
0.567029 -0.514777 -0.033333
0.540323 -0.500000 0.033333
0.559418 -0.513958 0.016667
0.573481 -0.512102 0.000000
0.581508 -0.516399 -0.016667
0.584676 -0.514880 -0.033333
0.556452 -0.500000 0.033333
0.575865 -0.513738 0.016667
0.590380 -0.512138 0.000000
0.598825 -0.516445 -0.016667
0.602116 -0.515102 -0.033333
0.572581 -0.500000 0.033333
0.592225 -0.513559 0.016667
0.607109 -0.512266 0.000000
0.615921 -0.516632 -0.016667
0.619315 -0.515483 -0.033333
0.588710 -0.500000 0.033333
0.608487 -0.513445 0.016667
0.623654 -0.512522 0.000000
0.632764 -0.517005 -0.016667
0.636240 -0.516068 -0.033333
0.604839 -0.500000 0.033333
0.624630 -0.513427 0.016667
0.639988 -0.512949 0.000000
0.649323 -0.517620 -0.016667
0.652851 -0.516912 -0.033333
0.620968 -0.500000 0.033333
0.640620 -0.513543 0.016667
0.656077 -0.513607 0.000000
0.665552 -0.518543 -0.016667
0.669108 -0.518079 -0.033333
0.637097 -0.500000 0.033333
0.656415 -0.513844 0.016667
0.671860 -0.514565 0.000000
0.681405 -0.519855 -0.016667
0.684965 -0.519642 -0.033333
0.653226 -0.500000 0.033333
0.671935 -0.514373 0.016667
0.687245 -0.515927 0.000000
0.696802 -0.521650 -0.016667
0.700383 -0.521700 -0.033333
0.669355 -0.500000 0.033333
0.687099 -0.515177 0.016667
0.702069 -0.517801 0.000000
0.711676 -0.524052 -0.016667
0.715305 -0.524375 -0.033333
0.685484 -0.500000 0.033333
0.701815 -0.516223 0.016667
0.716165 -0.520327 0.000000
0.725895 -0.527218 -0.016667
0.729762 -0.527781 -0.033333
0.701613 -0.500000 0.033333
0.716118 -0.517519 0.016667
0.729579 -0.523599 0.000000
0.739492 -0.531345 -0.016667
0.743675 -0.532104 -0.033333
0.717742 -0.500000 0.033333
0.729802 -0.519382 0.016667
0.742723 -0.528522 0.000000
0.751964 -0.536596 -0.016667
0.757381 -0.537382 -0.033333
0.733871 -0.500000 0.033333
0.742505 -0.525035 0.016667
0.753598 -0.535121 0.000000
0.764224 -0.543058 -0.016667
0.770393 -0.544069 -0.033333
-0.750000 0.400000 0.033333
-0.750000 0.400000 0.016667
-0.750000 0.400000 0.000000
-0.757337 0.417342 -0.016667
-0.767342 0.416585 -0.033333
-0.772849 0.400489 0.033333
-0.772802 0.401539 0.016667
-0.771135 0.402450 0.000000
-0.771464 0.401347 -0.016667
-0.772684 0.402443 -0.033333
-0.782414 0.388004 0.033333
-0.780920 0.388146 0.016667
-0.779965 0.387853 0.000000
-0.780044 0.386986 -0.016667
-0.779650 0.386403 -0.033333
-0.793948 0.371048 0.033333
-0.792901 0.371062 0.016667
-0.790404 0.370895 0.000000
-0.787213 0.370612 -0.016667
-0.785851 0.370345 -0.033333
-0.800372 0.352929 0.033333
-0.798635 0.353245 0.016667
-0.795924 0.353423 0.000000
-0.793066 0.353358 -0.016667
-0.791007 0.353410 -0.033333
-0.804746 0.333475 0.033333
-0.803165 0.334065 0.016667
-0.800334 0.334853 0.000000
-0.797009 0.335610 -0.016667
-0.794939 0.335992 -0.033333
-0.806204 0.314349 0.033333
-0.804754 0.315374 0.016667
-0.802258 0.316583 0.000000
-0.799434 0.317617 -0.016667
-0.797391 0.318358 -0.033333
-0.805769 0.295334 0.033333
-0.804798 0.296617 0.016667
-0.802794 0.298298 0.000000
-0.800266 0.299835 -0.016667
-0.798507 0.300788 -0.033333
-0.803532 0.277348 0.033333
-0.803124 0.278861 0.016667
-0.801789 0.280732 0.000000
-0.799877 0.282421 -0.016667
-0.798412 0.283564 -0.033333
-0.800229 0.260230 0.033333
-0.800461 0.261754 0.016667
-0.799864 0.263790 0.000000
-0.798496 0.265629 -0.016667
-0.797389 0.266809 -0.033333
-0.796283 0.244393 0.033333
-0.797164 0.245864 0.016667
-0.797280 0.247727 0.000000
-0.796501 0.249485 -0.016667
-0.795746 0.250673 -0.033333
-0.792401 0.229486 0.033333
-0.793777 0.230672 0.016667
-0.794512 0.232401 0.000000
-0.794227 0.234014 -0.016667
-0.793763 0.235058 -0.033333
-0.788732 0.215186 0.033333
-0.790568 0.216275 0.016667
-0.791813 0.217654 0.000000
-0.791930 0.219027 -0.016667
-0.791720 0.219999 -0.033333
-0.785584 0.201531 0.033333
-0.787749 0.202201 0.016667
-0.789368 0.203340 0.000000
-0.789801 0.204489 -0.016667
-0.789786 0.205245 -0.033333
-0.783019 0.187925 0.033333
-0.785374 0.188473 0.016667
-0.787282 0.189276 0.000000
-0.787955 0.190176 -0.016667
-0.788071 0.190834 -0.033333
-0.781020 0.174542 0.033333
-0.783528 0.174810 0.016667
-0.785593 0.175381 0.000000
-0.786430 0.176057 -0.016667
-0.786662 0.176552 -0.033333
-0.779626 0.161067 0.033333
-0.782149 0.161179 0.016667
-0.784310 0.161516 0.000000
-0.785257 0.162010 -0.016667
-0.785553 0.162393 -0.033333
-0.778719 0.147512 0.033333
-0.781217 0.147483 0.016667
-0.783392 0.147651 0.000000
-0.784409 0.147982 -0.016667
-0.784756 0.148263 -0.033333
-0.778230 0.133793 0.033333
-0.780648 0.133678 0.016667
-0.782802 0.133719 0.000000
-0.783855 0.133932 -0.016667
-0.784235 0.134131 -0.033333
-0.778060 0.119919 0.033333
-0.780381 0.119752 0.016667
-0.782483 0.119709 0.000000
-0.783555 0.119828 -0.016667
-0.783958 0.119965 -0.033333
-0.778137 0.105882 0.033333
-0.780350 0.105695 0.016667
-0.782389 0.105604 0.000000
-0.783467 0.105660 -0.016667
-0.783886 0.105750 -0.033333
-0.778398 0.091706 0.033333
-0.780504 0.091522 0.016667
-0.782477 0.091408 0.000000
-0.783554 0.091423 -0.016667
-0.783986 0.091479 -0.033333
-0.778796 0.077406 0.033333
-0.780805 0.077241 0.016667
-0.782712 0.077127 0.000000
-0.783784 0.077119 -0.016667
-0.784227 0.077153 -0.033333
-0.779299 0.063013 0.033333
-0.781220 0.062874 0.016667
-0.783068 0.062773 0.000000
-0.784134 0.062755 -0.016667
-0.784584 0.062776 -0.033333
-0.779881 0.048536 0.033333
-0.781730 0.048437 0.016667
-0.783526 0.048358 0.000000
-0.784583 0.048341 -0.016667
-0.785041 0.048356 -0.033333
-0.780531 0.034012 0.033333
-0.782319 0.033946 0.016667
-0.784070 0.033898 0.000000
-0.785118 0.033891 -0.016667
-0.785580 0.033902 -0.033333
-0.781235 0.019433 0.033333
-0.782977 0.019420 0.016667
-0.784689 0.019406 0.000000
-0.785729 0.019412 -0.016667
-0.786193 0.019429 -0.033333
-0.781987 0.004844 0.033333
-0.783694 0.004866 0.016667
-0.785377 0.004895 0.000000
-0.786407 0.004922 -0.016667
-0.786872 0.004942 -0.033333
-0.782777 -0.009779 0.033333
-0.784463 -0.009695 0.016667
-0.786126 -0.009620 0.000000
-0.787147 -0.009570 -0.016667
-0.787611 -0.009538 -0.033333
-0.783591 -0.024385 0.033333
-0.785277 -0.024253 0.016667
-0.786930 -0.024125 0.000000
-0.787945 -0.024044 -0.016667
-0.788409 -0.024003 -0.033333
-0.784427 -0.038985 0.033333
-0.786125 -0.038784 0.016667
-0.787786 -0.038597 0.000000
-0.788801 -0.038486 -0.016667
-0.789265 -0.038429 -0.033333
-0.785266 -0.053527 0.033333
-0.787008 -0.053262 0.016667
-0.788695 -0.053015 0.000000
-0.789717 -0.052871 -0.016667
-0.790187 -0.052802 -0.033333
-0.786124 -0.067982 0.033333
-0.787929 -0.067655 0.016667
-0.789668 -0.067349 0.000000
-0.790709 -0.067176 -0.016667
-0.791189 -0.067096 -0.033333
-0.787015 -0.082304 0.033333
-0.788914 -0.081915 0.016667
-0.790728 -0.081563 0.000000
-0.791801 -0.081375 -0.016667
-0.792300 -0.081288 -0.033333
-0.787989 -0.096428 0.033333
-0.790006 -0.096007 0.016667
-0.791916 -0.095630 0.000000
-0.793034 -0.095439 -0.016667
-0.793561 -0.095360 -0.033333
-0.789128 -0.110314 0.033333
-0.791272 -0.109881 0.016667
-0.793296 -0.109512 0.000000
-0.794467 -0.109353 -0.016667
-0.795028 -0.109291 -0.033333
-0.790532 -0.123914 0.033333
-0.792812 -0.123512 0.016667
-0.794946 -0.123201 0.000000
-0.796177 -0.123097 -0.016667
-0.796776 -0.123077 -0.033333
-0.792361 -0.137183 0.033333
-0.794737 -0.136883 0.016667
-0.796975 -0.136675 0.000000
-0.798252 -0.136681 -0.016667
-0.798884 -0.136726 -0.033333
-0.794754 -0.150182 0.033333
-0.797203 -0.149994 0.016667
-0.799481 -0.149979 0.000000
-0.800787 -0.150122 -0.016667
-0.801448 -0.150245 -0.033333
-0.797922 -0.162814 0.033333
-0.800317 -0.162931 0.016667
-0.802584 -0.163113 0.000000
-0.803875 -0.163454 -0.016667
-0.804532 -0.163723 -0.033333
-0.801947 -0.175486 0.033333
-0.804219 -0.175672 0.016667
-0.806359 -0.176208 0.000000
-0.807576 -0.176789 -0.016667
-0.808203 -0.177146 -0.033333
-0.806853 -0.187821 0.033333
-0.808945 -0.188528 0.016667
-0.810855 -0.189324 0.000000
-0.811913 -0.190162 -0.016667
-0.812480 -0.190746 -0.033333
-0.812815 -0.200614 0.033333
-0.814478 -0.201456 0.016667
-0.816053 -0.202683 0.000000
-0.816888 -0.203805 -0.016667
-0.817302 -0.204512 -0.033333
-0.819502 -0.213708 0.033333
-0.820797 -0.214926 0.016667
-0.821881 -0.216426 0.000000
-0.822374 -0.217831 -0.016667
-0.822620 -0.218731 -0.033333
-0.826980 -0.227586 0.033333
-0.827675 -0.229043 0.016667
-0.828182 -0.230877 0.000000
-0.828237 -0.232472 -0.016667
-0.828212 -0.233492 -0.033333
-0.834722 -0.242626 0.033333
-0.834799 -0.244247 0.016667
-0.834602 -0.246202 0.000000
-0.834177 -0.247915 -0.016667
-0.833876 -0.248995 -0.033333
-0.842272 -0.258900 0.033333
-0.841681 -0.260571 0.016667
-0.840819 -0.262558 0.000000
-0.839905 -0.264234 -0.016667
-0.839317 -0.265305 -0.033333
-0.849186 -0.276411 0.033333
-0.847984 -0.278003 0.016667
-0.846480 -0.279862 0.000000
-0.845132 -0.281434 -0.016667
-0.844283 -0.282430 -0.033333
-0.855153 -0.294945 0.033333
-0.853397 -0.296392 0.016667
-0.851344 -0.298061 0.000000
-0.849604 -0.299443 -0.016667
-0.848527 -0.300325 -0.033333
-0.859919 -0.314412 0.033333
-0.857699 -0.315624 0.016667
-0.855175 -0.317010 0.000000
-0.853112 -0.318162 -0.016667
-0.851839 -0.318894 -0.033333
-0.863320 -0.334554 0.033333
-0.860712 -0.335501 0.016667
-0.857800 -0.336576 0.000000
-0.855469 -0.337453 -0.016667
-0.854044 -0.338010 -0.033333
-0.865200 -0.355272 0.033333
-0.862280 -0.355892 0.016667
-0.859072 -0.356586 0.000000
-0.856542 -0.357156 -0.016667
-0.855000 -0.357519 -0.033333
-0.865477 -0.376317 0.033333
-0.862322 -0.376580 0.016667
-0.858885 -0.376874 0.000000
-0.856219 -0.377105 -0.016667
-0.854611 -0.377249 -0.033333
-0.864006 -0.397618 0.033333
-0.860690 -0.397454 0.016667
-0.857150 -0.397262 0.000000
-0.854443 -0.397110 -0.016667
-0.852815 -0.397018 -0.033333
-0.860703 -0.418930 0.033333
-0.857367 -0.418274 0.016667
-0.853819 -0.417567 0.000000
-0.851159 -0.416995 -0.016667
-0.849597 -0.416634 -0.033333
-0.855349 -0.440184 0.033333
-0.852125 -0.438951 0.016667
-0.848812 -0.437606 0.000000
-0.846404 -0.436552 -0.016667
-0.844985 -0.435904 -0.033333
-0.847688 -0.461105 0.033333
-0.844986 -0.459181 0.016667
-0.842177 -0.457167 0.000000
-0.840163 -0.455599 -0.016667
-0.839075 -0.454639 -0.033333
-0.837314 -0.481499 0.033333
-0.835538 -0.478855 0.016667
-0.833729 -0.476040 0.000000
-0.832660 -0.473930 -0.016667
-0.832015 -0.472656 -0.033333
-0.823277 -0.500852 0.033333
-0.823645 -0.497491 0.016667
-0.823928 -0.494052 0.000000
-0.823812 -0.491347 -0.016667
-0.824078 -0.489876 -0.033333
-0.804355 -0.518247 0.033333
-0.808983 -0.514891 0.016667
-0.811742 -0.510698 0.000000
-0.814539 -0.507877 -0.016667
-0.815445 -0.506104 -0.033333
-0.779039 -0.530053 0.033333
-0.789861 -0.529579 0.016667
-0.800926 -0.526912 0.000000
-0.803308 -0.522740 -0.016667
-0.806793 -0.522010 -0.033333
-0.751395 -0.539008 0.033333
-0.772142 -0.541146 0.016667
-0.782822 -0.536405 0.000000
-0.793417 -0.538618 -0.016667
-0.797412 -0.536397 -0.033333
0.750000 0.400000 0.033333
0.750000 0.400000 0.016667
0.750000 0.400000 0.000000
0.755600 0.419703 -0.016667
0.765980 0.419188 -0.033333
0.733871 0.400000 0.033333
0.733871 0.400000 0.016667
0.733871 0.400000 0.000000
0.745551 0.410104 -0.016667
0.751395 0.414523 -0.033333
0.717742 0.400000 0.033333
0.717742 0.400000 0.016667
0.717742 0.400000 0.000000
0.730159 0.408548 -0.016667
0.737035 0.409861 -0.033333
0.701613 0.400000 0.033333
0.701613 0.400000 0.016667
0.701613 0.400000 0.000000
0.715284 0.406642 -0.016667
0.721756 0.407658 -0.033333
0.685484 0.400000 0.033333
0.685484 0.400000 0.016667
0.685484 0.400000 0.000000
0.699513 0.405766 -0.016667
0.706046 0.405971 -0.033333
0.669355 0.400000 0.033333
0.669355 0.400000 0.016667
0.669355 0.400000 0.000000
0.683493 0.405212 -0.016667
0.689843 0.405041 -0.033333
0.653226 0.400000 0.033333
0.653226 0.400000 0.016667
0.653226 0.400000 0.000000
0.667204 0.404961 -0.016667
0.673292 0.404434 -0.033333
0.637097 0.400000 0.033333
0.637097 0.400000 0.016667
0.637097 0.400000 0.000000
0.650748 0.404826 -0.016667
0.656440 0.404116 -0.033333
0.620968 0.400000 0.033333
0.620968 0.400000 0.016667
0.620968 0.400000 0.000000
0.634119 0.404783 -0.016667
0.639352 0.403939 -0.033333
0.604839 0.400000 0.033333
0.604839 0.400000 0.016667
0.604839 0.400000 0.000000
0.617349 0.404758 -0.016667
0.622081 0.403864 -0.033333
0.588710 0.400000 0.033333
0.588710 0.400000 0.016667
0.588710 0.400000 0.000000
0.600451 0.404741 -0.016667
0.604678 0.403825 -0.033333
0.572581 0.400000 0.033333
0.572581 0.400000 0.016667
0.572581 0.400000 0.000000
0.583454 0.404707 -0.016667
0.587193 0.403804 -0.033333
0.556452 0.400000 0.033333
0.556452 0.400000 0.016667
0.556452 0.400000 0.000000
0.566385 0.404664 -0.016667
0.569668 0.403776 -0.033333
0.540323 0.400000 0.033333
0.540323 0.400000 0.016667
0.540323 0.400000 0.000000
0.549272 0.404605 -0.016667
0.552143 0.403743 -0.033333
0.524194 0.400000 0.033333
0.524194 0.400000 0.016667
0.524194 0.400000 0.000000
0.532141 0.404539 -0.016667
0.534644 0.403697 -0.033333
0.508065 0.400000 0.033333
0.508065 0.400000 0.016667
0.508065 0.400000 0.000000
0.515015 0.404462 -0.016667
0.517196 0.403644 -0.033333
0.491935 0.400000 0.033333
0.491935 0.400000 0.016667
0.491935 0.400000 0.000000
0.497915 0.404380 -0.016667
0.499815 0.403583 -0.033333
0.475807 0.400000 0.033333
0.475807 0.400000 0.016667
0.475807 0.400000 0.000000
0.480858 0.404290 -0.016667
0.482516 0.403516 -0.033333
0.459677 0.400000 0.033333
0.459677 0.400000 0.016667
0.459677 0.400000 0.000000
0.463859 0.404197 -0.016667
0.465309 0.403443 -0.033333
0.443548 0.400000 0.033333
0.443548 0.400000 0.016667
0.443548 0.400000 0.000000
0.446930 0.404096 -0.016667
0.448202 0.403365 -0.033333
0.427419 0.400000 0.033333
0.427419 0.400000 0.016667
0.427419 0.400000 0.000000
0.430082 0.403990 -0.016667
0.431203 0.403281 -0.033333
0.411290 0.400000 0.033333
0.411290 0.400000 0.016667
0.411290 0.400000 0.000000
0.413323 0.403877 -0.016667
0.414317 0.403189 -0.033333
0.395161 0.400000 0.033333
0.395161 0.400000 0.016667
0.395161 0.400000 0.000000
0.396660 0.403756 -0.016667
0.397553 0.403091 -0.033333
0.379032 0.400000 0.033333
0.379032 0.400000 0.016667
0.379032 0.400000 0.000000
0.380106 0.403630 -0.016667
0.380910 0.402981 -0.033333
0.362903 0.400000 0.033333
0.362903 0.400000 0.016667
0.362903 0.400000 0.000000
0.363657 0.403498 -0.016667
0.364405 0.402869 -0.033333
0.346774 0.400000 0.033333
0.346774 0.400000 0.016667
0.346774 0.400000 0.000000
0.347332 0.403373 -0.016667
0.348015 0.402742 -0.033333
0.330645 0.400000 0.033333
0.330645 0.400000 0.016667
0.330645 0.400000 0.000000
0.331105 0.403250 -0.016667
0.331778 0.402622 -0.033333
0.314516 0.400000 0.033333
0.314516 0.400000 0.016667
0.314516 0.400000 0.000000
0.315019 0.403150 -0.016667
0.315616 0.402484 -0.033333
0.298387 0.400000 0.033333
0.298387 0.400000 0.016667
0.298387 0.400000 0.000000
0.298978 0.403064 -0.016667
0.299638 0.402328 -0.033333
0.282258 0.400000 0.033333
0.282258 0.400000 0.016667
0.282258 0.400000 0.000000
0.283035 0.402853 -0.016667
0.283770 0.402317 -0.033333
0.266129 0.400000 0.033333
0.266129 0.400000 0.016667
0.266129 0.400000 0.000000
0.267260 0.402782 -0.016667
0.267864 0.402183 -0.033333
0.250000 0.400000 0.033333
0.250000 0.400000 0.016667
0.250000 0.400000 0.000000
0.251417 0.402637 -0.016667
0.252223 0.402144 -0.033333
0.233871 0.400000 0.033333
0.233871 0.400000 0.016667
0.233871 0.400000 0.000000
0.235758 0.402528 -0.016667
0.236446 0.402153 -0.033333
0.217742 0.400000 0.033333
0.217742 0.400000 0.016667
0.217742 0.400000 0.000000
0.220066 0.402507 -0.016667
0.220785 0.402121 -0.033333
0.201613 0.400000 0.033333
0.201613 0.400000 0.016667
0.201613 0.400000 0.000000
0.204379 0.402511 -0.016667
0.205132 0.402122 -0.033333
0.185484 0.400000 0.033333
0.185484 0.400000 0.016667
0.185484 0.400000 0.000000
0.188687 0.402534 -0.016667
0.189500 0.402131 -0.033333
0.169355 0.400000 0.033333
0.169355 0.400000 0.016667
0.169355 0.400000 0.000000
0.172999 0.402560 -0.016667
0.173868 0.402154 -0.033333
0.153226 0.400000 0.033333
0.153226 0.400000 0.016667
0.153226 0.400000 0.000000
0.157310 0.402597 -0.016667
0.158248 0.402183 -0.033333
0.137097 0.400000 0.033333
0.137097 0.400000 0.016667
0.137097 0.400000 0.000000
0.141632 0.402640 -0.016667
0.142625 0.402227 -0.033333
0.120968 0.400000 0.033333
0.120968 0.400000 0.016667
0.120968 0.400000 0.000000
0.125957 0.402714 -0.016667
0.127002 0.402279 -0.033333
0.104839 0.400000 0.033333
0.104839 0.400000 0.016667
0.104839 0.400000 0.000000
0.110288 0.402803 -0.016667
0.111372 0.402390 -0.033333
0.088710 0.400000 0.033333
0.088710 0.400000 0.016667
0.088710 0.400000 0.000000
0.094684 0.403107 -0.016667
0.095579 0.402397 -0.033333
0.072581 0.400000 0.033333
0.072581 0.400000 0.016667
0.072581 0.400000 0.000000
0.078791 0.403327 -0.016667
0.080028 0.402497 -0.033333
0.056452 0.400000 0.033333
0.056452 0.400000 0.016667
0.056452 0.400000 0.000000
0.063016 0.403490 -0.016667
0.064149 0.402737 -0.033333
0.040323 0.400000 0.033333
0.040323 0.400000 0.016667
0.040323 0.400000 0.000000
0.047075 0.403786 -0.016667
0.048289 0.402827 -0.033333
0.024194 0.400000 0.033333
0.024194 0.400000 0.016667
0.024194 0.400000 0.000000
0.031025 0.403988 -0.016667
0.032337 0.403048 -0.033333
0.008065 0.400000 0.033333
0.008065 0.400000 0.016667
0.008065 0.400000 0.000000
0.014923 0.404196 -0.016667
0.016210 0.403253 -0.033333
-0.008065 0.400000 0.033333
-0.008065 0.400000 0.016667
-0.008065 0.400000 0.000000
-0.001291 0.404401 -0.016667
-0.000001 0.403445 -0.033333
-0.024194 0.400000 0.033333
-0.024194 0.400000 0.016667
-0.024194 0.400000 0.000000
-0.017590 0.404601 -0.016667
-0.016347 0.403631 -0.033333
-0.040323 0.400000 0.033333
-0.040323 0.400000 0.016667
-0.040323 0.400000 0.000000
-0.033981 0.404789 -0.016667
-0.032795 0.403797 -0.033333
-0.056452 0.400000 0.033333
-0.056452 0.400000 0.016667
-0.056452 0.400000 0.000000
-0.050456 0.404962 -0.016667
-0.049351 0.403950 -0.033333
-0.072581 0.400000 0.033333
-0.072581 0.400000 0.016667
-0.072581 0.400000 0.000000
-0.067007 0.405117 -0.016667
-0.066000 0.404084 -0.033333
-0.088710 0.400000 0.033333
-0.088710 0.400000 0.016667
-0.088710 0.400000 0.000000
-0.083631 0.405255 -0.016667
-0.082734 0.404202 -0.033333
-0.104839 0.400000 0.033333
-0.104839 0.400000 0.016667
-0.104839 0.400000 0.000000
-0.100317 0.405376 -0.016667
-0.099544 0.404303 -0.033333
-0.120968 0.400000 0.033333
-0.120968 0.400000 0.016667
-0.120968 0.400000 0.000000
-0.117063 0.405481 -0.016667
-0.116418 0.404390 -0.033333
-0.137097 0.400000 0.033333
-0.137097 0.400000 0.016667
-0.137097 0.400000 0.000000
-0.133859 0.405569 -0.016667
-0.133350 0.404461 -0.033333
-0.153226 0.400000 0.033333
-0.153226 0.400000 0.016667
-0.153226 0.400000 0.000000
-0.150701 0.405640 -0.016667
-0.150325 0.404516 -0.033333
-0.169355 0.400000 0.033333
-0.169355 0.400000 0.016667
-0.169355 0.400000 0.000000
-0.167575 0.405693 -0.016667
-0.167338 0.404553 -0.033333
-0.185484 0.400000 0.033333
-0.185484 0.400000 0.016667
-0.185484 0.400000 0.000000
-0.184473 0.405725 -0.016667
-0.184370 0.404569 -0.033333
-0.201613 0.400000 0.033333
-0.201613 0.400000 0.016667
-0.201613 0.400000 0.000000
-0.201376 0.405734 -0.016667
-0.201409 0.404561 -0.033333
-0.217742 0.400000 0.033333
-0.217742 0.400000 0.016667
-0.217742 0.400000 0.000000
-0.218270 0.405721 -0.016667
-0.218436 0.404529 -0.033333
-0.233871 0.400000 0.033333
-0.233871 0.400000 0.016667
-0.233871 0.400000 0.000000
-0.235133 0.405683 -0.016667
-0.235437 0.404474 -0.033333
-0.250000 0.400000 0.033333
-0.250000 0.400000 0.016667
-0.250000 0.400000 0.000000
-0.251952 0.405628 -0.016667
-0.252395 0.404402 -0.033333
-0.266129 0.400000 0.033333
-0.266129 0.400000 0.016667
-0.266129 0.400000 0.000000
-0.268715 0.405562 -0.016667
-0.269304 0.404322 -0.033333
-0.282258 0.400000 0.033333
-0.282258 0.400000 0.016667
-0.282258 0.400000 0.000000
-0.285422 0.405496 -0.016667
-0.286164 0.404244 -0.033333
-0.298387 0.400000 0.033333
-0.298387 0.400000 0.016667
-0.298387 0.400000 0.000000
-0.302082 0.405436 -0.016667
-0.302981 0.404178 -0.033333
-0.314516 0.400000 0.033333
-0.314516 0.400000 0.016667
-0.314516 0.400000 0.000000
-0.318707 0.405391 -0.016667
-0.319771 0.404127 -0.033333
-0.330645 0.400000 0.033333
-0.330645 0.400000 0.016667
-0.330645 0.400000 0.000000
-0.335319 0.405360 -0.016667
-0.336547 0.404098 -0.033333
-0.346774 0.400000 0.033333
-0.346774 0.400000 0.016667
-0.346774 0.400000 0.000000
-0.351930 0.405344 -0.016667
-0.353332 0.404083 -0.033333
-0.362903 0.400000 0.033333
-0.362903 0.400000 0.016667
-0.362903 0.400000 0.000000
-0.368561 0.405338 -0.016667
-0.370135 0.404083 -0.033333
-0.379032 0.400000 0.033333
-0.379032 0.400000 0.016667
-0.379032 0.400000 0.000000
-0.385213 0.405339 -0.016667
-0.386976 0.404089 -0.033333
-0.395161 0.400000 0.033333
-0.395161 0.400000 0.016667
-0.395161 0.400000 0.000000
-0.401899 0.405343 -0.016667
-0.403854 0.404099 -0.033333
-0.411290 0.400000 0.033333
-0.411290 0.400000 0.016667
-0.411290 0.400000 0.000000
-0.418612 0.405346 -0.016667
-0.420785 0.404110 -0.033333
-0.427419 0.400000 0.033333
-0.427419 0.400000 0.016667
-0.427419 0.400000 0.000000
-0.435359 0.405349 -0.016667
-0.437761 0.404117 -0.033333
-0.443548 0.400000 0.033333
-0.443548 0.400000 0.016667
-0.443548 0.400000 0.000000
-0.452128 0.405347 -0.016667
-0.454793 0.404120 -0.033333
-0.459677 0.400000 0.033333
-0.459677 0.400000 0.016667
-0.459677 0.400000 0.000000
-0.468922 0.405342 -0.016667
-0.471868 0.404115 -0.033333
-0.475807 0.400000 0.033333
-0.475807 0.400000 0.016667
-0.475807 0.400000 0.000000
-0.485725 0.405329 -0.016667
-0.488993 0.404103 -0.033333
-0.491935 0.400000 0.033333
-0.491935 0.400000 0.016667
-0.491935 0.400000 0.000000
-0.502538 0.405309 -0.016667
-0.506151 0.404078 -0.033333
-0.508065 0.400000 0.033333
-0.508065 0.400000 0.016667
-0.508065 0.400000 0.000000
-0.519342 0.405276 -0.016667
-0.523342 0.404041 -0.033333
-0.524194 0.400000 0.033333
-0.524194 0.400000 0.016667
-0.524194 0.400000 0.000000
-0.536134 0.405231 -0.016667
-0.540545 0.403985 -0.033333
-0.540323 0.400000 0.033333
-0.540323 0.400000 0.016667
-0.540323 0.400000 0.000000
-0.552892 0.405165 -0.016667
-0.557750 0.403911 -0.033333
-0.556452 0.400000 0.033333
-0.556452 0.400000 0.016667
-0.556452 0.400000 0.000000
-0.569611 0.405081 -0.016667
-0.574925 0.403812 -0.033333
-0.572581 0.400000 0.033333
-0.572581 0.400000 0.016667
-0.572581 0.400000 0.000000
-0.586269 0.404967 -0.016667
-0.592053 0.403698 -0.033333
-0.588710 0.400000 0.033333
-0.588710 0.400000 0.016667
-0.588710 0.400000 0.000000
-0.602859 0.404833 -0.016667
-0.609091 0.403571 -0.033333
-0.604839 0.400000 0.033333
-0.604839 0.400000 0.016667
-0.604839 0.400000 0.000000
-0.619361 0.404676 -0.016667
-0.626017 0.403461 -0.033333
-0.620968 0.400000 0.033333
-0.620968 0.400000 0.016667
-0.620968 0.400000 0.000000
-0.635773 0.404529 -0.016667
-0.642787 0.403389 -0.033333
-0.637097 0.400000 0.033333
-0.637097 0.400000 0.016667
-0.637097 0.400000 0.000000
-0.652082 0.404404 -0.016667
-0.659382 0.403419 -0.033333
-0.653226 0.400000 0.033333
-0.653226 0.400000 0.016667
-0.653226 0.400000 0.000000
-0.668282 0.404371 -0.016667
-0.675760 0.403585 -0.033333
-0.669355 0.400000 0.033333
-0.669355 0.400000 0.016667
-0.669355 0.400000 0.000000
-0.684364 0.404452 -0.016667
-0.691895 0.404020 -0.033333
-0.685484 0.400000 0.033333
-0.685484 0.400000 0.016667
-0.685484 0.400000 0.000000
-0.700262 0.404817 -0.016667
-0.707743 0.404757 -0.033333
-0.701613 0.400000 0.033333
-0.701613 0.400000 0.016667
-0.701613 0.400000 0.000000
-0.715982 0.405472 -0.016667
-0.723212 0.406188 -0.033333
-0.717742 0.400000 0.033333
-0.717742 0.400000 0.016667
-0.717742 0.400000 0.000000
-0.731027 0.407089 -0.016667
-0.738316 0.408131 -0.033333
-0.733871 0.400000 0.033333
-0.733871 0.400000 0.016667
-0.733871 0.400000 0.000000
-0.746335 0.408584 -0.016667
-0.752763 0.412279 -0.033333
0.747939 -0.538898 0.033333
0.768413 -0.541798 0.016667
0.778000 -0.537081 0.000000
0.788128 -0.539254 -0.016667
0.791312 -0.537542 -0.033333
0.776381 -0.531888 0.033333
0.786181 -0.530495 0.016667
0.795634 -0.527560 0.000000
0.797603 -0.523938 -0.016667
0.800477 -0.523330 -0.033333
0.800439 -0.519294 0.033333
0.804347 -0.516016 0.016667
0.806375 -0.511992 0.000000
0.808466 -0.509445 -0.016667
0.809030 -0.507940 -0.033333
0.818896 -0.502578 0.033333
0.818411 -0.499209 0.016667
0.818037 -0.495946 0.000000
0.817590 -0.493536 -0.016667
0.817572 -0.492259 -0.033333
0.831927 -0.483943 0.033333
0.829806 -0.481386 0.016667
0.827631 -0.478740 0.000000
0.826284 -0.476848 -0.016667
0.825484 -0.475738 -0.033333
0.842060 -0.464522 0.033333
0.839004 -0.462675 0.016667
0.835952 -0.460789 0.000000
0.833822 -0.459368 -0.016667
0.832640 -0.458522 -0.033333
0.849576 -0.444742 0.033333
0.846192 -0.443521 0.016667
0.842742 -0.442230 0.000000
0.840265 -0.441255 -0.016667
0.838815 -0.440669 -0.033333
0.855260 -0.424661 0.033333
0.851766 -0.423969 0.016667
0.848137 -0.423236 0.000000
0.845465 -0.422666 -0.016667
0.843895 -0.422318 -0.033333
0.859174 -0.404512 0.033333
0.855748 -0.404243 0.016667
0.852141 -0.403954 0.000000
0.849427 -0.403737 -0.016667
0.847807 -0.403611 -0.033333
0.861610 -0.384290 0.033333
0.858319 -0.384393 0.016667
0.854806 -0.384515 0.000000
0.852129 -0.384620 -0.016667
0.850523 -0.384688 -0.033333
0.862575 -0.364154 0.033333
0.859494 -0.364577 0.016667
0.856170 -0.365052 0.000000
0.853600 -0.365442 -0.016667
0.852046 -0.365696 -0.033333
0.862190 -0.344161 0.033333
0.859364 -0.344877 0.016667
0.856281 -0.345687 0.000000
0.853872 -0.346350 -0.016667
0.852409 -0.346769 -0.033333
0.860464 -0.324454 0.033333
0.857962 -0.325444 0.016667
0.855202 -0.326560 0.000000
0.853010 -0.327470 -0.016667
0.851672 -0.328049 -0.033333
0.857480 -0.305171 0.033333
0.855379 -0.306403 0.016667
0.853014 -0.307800 0.000000
0.851100 -0.308942 -0.016667
0.849925 -0.309658 -0.033333
0.853312 -0.286479 0.033333
0.851704 -0.287922 0.016667
0.849842 -0.289556 0.000000
0.848266 -0.290883 -0.016667
0.847291 -0.291719 -0.033333
0.848126 -0.268588 0.033333
0.847122 -0.270158 0.016667
0.845841 -0.271946 0.000000
0.844672 -0.273414 -0.016667
0.843939 -0.274325 -0.033333
0.842184 -0.251650 0.033333
0.841834 -0.253247 0.016667
0.841244 -0.255097 0.000000
0.840528 -0.256597 -0.016667
0.840056 -0.257532 -0.033333
0.835862 -0.235829 0.033333
0.836238 -0.237316 0.016667
0.836316 -0.239022 0.000000
0.836074 -0.240469 -0.016667
0.835890 -0.241362 -0.033333
0.829729 -0.221067 0.033333
0.830658 -0.222250 0.016667
0.831397 -0.223743 0.000000
0.831594 -0.224983 -0.016667
0.831642 -0.225751 -0.033333
0.824072 -0.206954 0.033333
0.825579 -0.207943 0.016667
0.826785 -0.209008 0.000000
0.827306 -0.209997 -0.016667
0.827577 -0.210641 -0.033333
0.819375 -0.193501 0.033333
0.821121 -0.193900 0.016667
0.822665 -0.194674 0.000000
0.823425 -0.195388 -0.016667
0.823799 -0.195814 -0.033333
0.815444 -0.179796 0.033333
0.817408 -0.180157 0.016667
0.819127 -0.180491 0.000000
0.819995 -0.180929 -0.016667
0.820443 -0.181262 -0.033333
0.812382 -0.166388 0.033333
0.814402 -0.166238 0.016667
0.816144 -0.166357 0.000000
0.817050 -0.166585 -0.016667
0.817513 -0.166736 -0.033333
0.810065 -0.152486 0.033333
0.811970 -0.152276 0.016667
0.813665 -0.152128 0.000000
0.814543 -0.152188 -0.016667
0.814979 -0.152273 -0.033333
0.808218 -0.138426 0.033333
0.810010 -0.138038 0.016667
0.811571 -0.137786 0.000000
0.812397 -0.137731 -0.016667
0.812801 -0.137731 -0.033333
0.806725 -0.124009 0.033333
0.808335 -0.123605 0.016667
0.809769 -0.123277 0.000000
0.810530 -0.123160 -0.016667
0.810890 -0.123126 -0.033333
0.805387 -0.109358 0.033333
0.806851 -0.108955 0.016667
0.808153 -0.108624 0.000000
0.808860 -0.108479 -0.016667
0.809186 -0.108424 -0.033333
0.804131 -0.094504 0.033333
0.805457 -0.094144 0.016667
0.806658 -0.093838 0.000000
0.807322 -0.093694 -0.016667
0.807621 -0.093636 -0.033333
0.802880 -0.079506 0.033333
0.804107 -0.079209 0.016667
0.805231 -0.078949 0.000000
0.805867 -0.078822 -0.016667
0.806150 -0.078771 -0.033333
0.801609 -0.064428 0.033333
0.802766 -0.064188 0.016667
0.803841 -0.063984 0.000000
0.804463 -0.063885 -0.016667
0.804736 -0.063845 -0.033333
0.800306 -0.049290 0.033333
0.801420 -0.049118 0.016667
0.802469 -0.048970 0.000000
0.803087 -0.048901 -0.016667
0.803357 -0.048877 -0.033333
0.798965 -0.034136 0.033333
0.800062 -0.034019 0.016667
0.801103 -0.033927 0.000000
0.801726 -0.033891 -0.016667
0.801998 -0.033881 -0.033333
0.797589 -0.018975 0.033333
0.798688 -0.018915 0.016667
0.799739 -0.018875 0.000000
0.800374 -0.018871 -0.016667
0.800651 -0.018878 -0.033333
0.796178 -0.003831 0.033333
0.797300 -0.003821 0.016667
0.798376 -0.003832 0.000000
0.799028 -0.003858 -0.016667
0.799311 -0.003879 -0.033333
0.794738 0.011287 0.033333
0.795900 0.011246 0.016667
0.797015 0.011188 0.000000
0.797689 0.011133 -0.016667
0.797980 0.011098 -0.033333
0.793271 0.026361 0.033333
0.794493 0.026274 0.016667
0.795660 0.026170 0.000000
0.796361 0.026088 -0.016667
0.796660 0.026042 -0.033333
0.791786 0.041378 0.033333
0.793085 0.041244 0.016667
0.794320 0.041097 0.000000
0.795051 0.040993 -0.016667
0.795357 0.040937 -0.033333
0.790289 0.056322 0.033333
0.791687 0.056142 0.016667
0.793003 0.055955 0.000000
0.793767 0.055832 -0.016667
0.794082 0.055770 -0.033333
0.788796 0.071169 0.033333
0.790312 0.070947 0.016667
0.791723 0.070726 0.000000
0.792524 0.070591 -0.016667
0.792847 0.070529 -0.033333
0.787321 0.085900 0.033333
0.788977 0.085640 0.016667
0.790501 0.085391 0.000000
0.791340 0.085254 -0.016667
0.791671 0.085199 -0.033333
0.785894 0.100480 0.033333
0.787713 0.100191 0.016667
0.789359 0.099932 0.000000
0.790239 0.099807 -0.016667
0.790578 0.099767 -0.033333
0.784555 0.114883 0.033333
0.786550 0.114582 0.016667
0.788335 0.114329 0.000000
0.789253 0.114237 -0.016667
0.789599 0.114226 -0.033333
0.783356 0.129070 0.033333
0.785548 0.128773 0.016667
0.787471 0.128566 0.000000
0.788423 0.128534 -0.016667
0.788775 0.128566 -0.033333
0.782386 0.143006 0.033333
0.784765 0.142766 0.016667
0.786825 0.142631 0.000000
0.787803 0.142691 -0.016667
0.788152 0.142793 -0.033333
0.781737 0.156686 0.033333
0.784297 0.156514 0.016667
0.786471 0.156523 0.000000
0.787449 0.156724 -0.016667
0.787793 0.156905 -0.033333
0.781553 0.170067 0.033333
0.784244 0.170073 0.016667
0.786480 0.170267 0.000000
0.787437 0.170633 -0.016667
0.787749 0.170945 -0.033333
0.781969 0.183259 0.033333
0.784710 0.183419 0.016667
0.786954 0.183872 0.000000
0.787822 0.184489 -0.016667
0.788079 0.184926 -0.033333
0.783098 0.196212 0.033333
0.785831 0.196672 0.016667
0.787933 0.197462 0.000000
0.788659 0.198316 -0.016667
0.788832 0.198923 -0.033333
0.785134 0.209118 0.033333
0.787604 0.209933 0.016667
0.789487 0.211036 0.000000
0.789974 0.212216 -0.016667
0.789984 0.213042 -0.033333
0.787916 0.222302 0.033333
0.790111 0.223270 0.016667
0.791568 0.224845 0.000000
0.791724 0.226335 -0.016667
0.791536 0.227289 -0.033333
0.791500 0.235530 0.033333
0.793233 0.237039 0.016667
0.794141 0.238909 0.000000
0.793818 0.240735 -0.016667
0.793359 0.241960 -0.033333
0.795756 0.249721 0.033333
0.796816 0.251366 0.016667
0.797002 0.253641 0.000000
0.796110 0.255663 -0.016667
0.795248 0.256996 -0.033333
0.800345 0.264701 0.033333
0.800662 0.266598 0.016667
0.799897 0.269011 0.000000
0.798244 0.271252 -0.016667
0.796971 0.272663 -0.033333
0.804484 0.281337 0.033333
0.803898 0.283186 0.016667
0.802220 0.285515 0.000000
0.799857 0.287546 -0.016667
0.798099 0.288926 -0.033333
0.807411 0.299074 0.033333
0.806129 0.300652 0.016667
0.803573 0.302674 0.000000
0.800471 0.304569 -0.016667
0.798336 0.305743 -0.033333
0.808370 0.318008 0.033333
0.806472 0.319224 0.016667
0.803338 0.320702 0.000000
0.799814 0.321989 -0.016667
0.797311 0.322941 -0.033333
0.807238 0.337125 0.033333
0.805178 0.337795 0.016667
0.801616 0.338719 0.000000
0.797493 0.339688 -0.016667
0.794888 0.340233 -0.033333
0.802857 0.356659 0.033333
0.800650 0.356949 0.016667
0.797265 0.357134 0.000000
0.793562 0.357145 -0.016667
0.790889 0.357338 -0.033333
0.796299 0.374791 0.033333
0.794926 0.374731 0.016667
0.791759 0.374429 0.000000
0.787572 0.374128 -0.016667
0.785555 0.373964 -0.033333
0.783817 0.391582 0.033333
0.781861 0.391582 0.016667
0.780754 0.391190 0.000000
0.780218 0.390225 -0.016667
0.779045 0.389701 -0.033333
0.774017 0.404069 0.033333
0.773682 0.405216 0.016667
0.771669 0.405942 0.000000
0.771181 0.404122 -0.016667
0.771508 0.405455 -0.033333
-0.768029 -0.518003 0.033333
-0.772796 -0.525178 0.016667
-0.776772 -0.525376 0.000000
-0.781817 -0.527871 -0.016667
-0.784461 -0.528797 -0.033333
-0.781709 -0.517915 0.033333
-0.788135 -0.516039 0.016667
-0.790201 -0.514525 0.000000
-0.792383 -0.514669 -0.016667
-0.793465 -0.514163 -0.033333
-0.800581 -0.506924 0.033333
-0.801778 -0.504024 0.016667
-0.802083 -0.501868 0.000000
-0.802171 -0.500029 -0.016667
-0.802666 -0.499317 -0.033333
-0.815483 -0.492283 0.033333
-0.814223 -0.489292 0.016667
-0.812677 -0.486520 0.000000
-0.811736 -0.484778 -0.016667
-0.811212 -0.483711 -0.033333
-0.827524 -0.474746 0.033333
-0.824918 -0.472385 0.016667
-0.822144 -0.470064 0.000000
-0.820183 -0.468329 -0.016667
-0.819168 -0.467363 -0.033333
-0.836782 -0.455950 0.033333
-0.833445 -0.454176 0.016667
-0.830024 -0.452362 0.000000
-0.827563 -0.451030 -0.016667
-0.826120 -0.450222 -0.033333
-0.843779 -0.436266 0.033333
-0.840174 -0.435127 0.016667
-0.836371 -0.433912 0.000000
-0.833556 -0.432965 -0.016667
-0.831916 -0.432397 -0.033333
-0.848623 -0.416201 0.033333
-0.844962 -0.415576 0.016667
-0.841089 -0.414897 0.000000
-0.838153 -0.414366 -0.016667
-0.836390 -0.414040 -0.033333
-0.851649 -0.395897 0.033333
-0.848078 -0.395749 0.016667
-0.844222 -0.395573 0.000000
-0.841259 -0.395422 -0.016667
-0.839478 -0.395331 -0.033333
-0.852857 -0.375628 0.033333
-0.849471 -0.375870 0.016667
-0.845785 -0.376127 0.000000
-0.842902 -0.376330 -0.016667
-0.841145 -0.376459 -0.033333
-0.852447 -0.355487 0.033333
-0.849305 -0.356093 0.016667
-0.845834 -0.356755 0.000000
-0.843089 -0.357278 -0.016667
-0.841413 -0.357608 -0.033333
-0.850413 -0.335715 0.033333
-0.847591 -0.336620 0.016667
-0.844433 -0.337627 0.000000
-0.841892 -0.338443 -0.016667
-0.840327 -0.338958 -0.033333
-0.846907 -0.316414 0.033333
-0.844460 -0.317599 0.016667
-0.841675 -0.318924 0.000000
-0.839390 -0.319994 -0.016667
-0.837981 -0.320673 -0.033333
-0.841974 -0.297836 0.033333
-0.839998 -0.299224 0.016667
-0.837675 -0.300794 0.000000
-0.835713 -0.302085 -0.016667
-0.834492 -0.302897 -0.033333
-0.835803 -0.280085 0.033333
-0.834365 -0.281633 0.016667
-0.832594 -0.283395 0.000000
-0.831010 -0.284836 -0.016667
-0.830022 -0.285750 -0.033333
-0.828540 -0.263409 0.033333
-0.827751 -0.264986 0.016667
-0.826611 -0.266810 0.000000
-0.825480 -0.268344 -0.016667
-0.824761 -0.269300 -0.033333
-0.820487 -0.247836 0.033333
-0.820373 -0.249346 0.016667
-0.819968 -0.251137 0.000000
-0.819343 -0.252631 -0.016667
-0.818932 -0.253577 -0.033333
-0.811946 -0.233456 0.033333
-0.812578 -0.234746 0.016667
-0.812927 -0.236289 0.000000
-0.812874 -0.237669 -0.016667
-0.812803 -0.238520 -0.033333
-0.803547 -0.219976 0.033333
-0.804805 -0.220926 0.016667
-0.805918 -0.222191 0.000000
-0.806414 -0.223290 -0.016667
-0.806648 -0.223985 -0.033333
-0.795909 -0.206917 0.033333
-0.797740 -0.207644 0.016667
-0.799396 -0.208446 0.000000
-0.800297 -0.209283 -0.016667
-0.800798 -0.209840 -0.033333
-0.789311 -0.194190 0.033333
-0.791490 -0.194351 0.016667
-0.793577 -0.194904 0.000000
-0.794782 -0.195481 -0.016667
-0.795424 -0.195820 -0.033333
-0.783739 -0.180958 0.033333
-0.786218 -0.181145 0.016667
-0.788585 -0.181317 0.000000
-0.789966 -0.181663 -0.016667
-0.790708 -0.181946 -0.033333
-0.779328 -0.167860 0.033333
-0.781963 -0.167651 0.016667
-0.784451 -0.167671 0.000000
-0.785915 -0.167844 -0.016667
-0.786692 -0.167974 -0.033333
-0.776013 -0.154298 0.033333
-0.778643 -0.154036 0.016667
-0.781145 -0.153863 0.000000
-0.782608 -0.153923 -0.016667
-0.783369 -0.153999 -0.033333
-0.773622 -0.140579 0.033333
-0.776160 -0.140213 0.016667
-0.778556 -0.139959 0.000000
-0.779967 -0.139916 -0.016667
-0.780687 -0.139932 -0.033333
-0.771941 -0.126627 0.033333
-0.774309 -0.126236 0.016667
-0.776558 -0.125923 0.000000
-0.777879 -0.125825 -0.016667
-0.778540 -0.125800 -0.033333
-0.770728 -0.112517 0.033333
-0.772918 -0.112121 0.016667
-0.774994 -0.111786 0.000000
-0.776220 -0.111646 -0.016667
-0.776820 -0.111597 -0.033333
-0.769803 -0.098252 0.033333
-0.771813 -0.097872 0.016667
-0.773733 -0.097543 0.000000
-0.774870 -0.097389 -0.016667
-0.775415 -0.097323 -0.033333
-0.769011 -0.083847 0.033333
-0.770876 -0.083513 0.016667
-0.772663 -0.083209 0.000000
-0.773730 -0.083052 -0.016667
-0.774233 -0.082984 -0.033333
-0.768263 -0.069342 0.033333
-0.770018 -0.069052 0.016667
-0.771709 -0.068790 0.000000
-0.772726 -0.068648 -0.016667
-0.773200 -0.068580 -0.033333
-0.767508 -0.054751 0.033333
-0.769187 -0.054519 0.016667
-0.770819 -0.054304 0.000000
-0.771808 -0.054182 -0.016667
-0.772264 -0.054122 -0.033333
-0.766723 -0.040104 0.033333
-0.768365 -0.039930 0.016667
-0.769966 -0.039766 0.000000
-0.770944 -0.039667 -0.016667
-0.771394 -0.039618 -0.033333
-0.765920 -0.025436 0.033333
-0.767545 -0.025307 0.016667
-0.769143 -0.025190 0.000000
-0.770123 -0.025117 -0.016667
-0.770572 -0.025076 -0.033333
-0.765105 -0.010738 0.033333
-0.766741 -0.010667 0.016667
-0.768352 -0.010593 0.000000
-0.769341 -0.010541 -0.016667
-0.769794 -0.010513 -0.033333
-0.764302 0.003940 0.033333
-0.765962 0.003982 0.016667
-0.767600 0.004016 0.000000
-0.768602 0.004045 -0.016667
-0.769057 0.004069 -0.033333
-0.763524 0.018631 0.033333
-0.765221 0.018621 0.016667
-0.766894 0.018622 0.000000
-0.767910 0.018636 -0.016667
-0.768368 0.018651 -0.033333
-0.762778 0.033285 0.033333
-0.764526 0.033248 0.016667
-0.766242 0.033217 0.000000
-0.767273 0.033218 -0.016667
-0.767733 0.033233 -0.033333
-0.762074 0.047926 0.033333
-0.763884 0.047848 0.016667
-0.765652 0.047792 0.000000
-0.766700 0.047786 -0.016667
-0.767160 0.047800 -0.033333
-0.761415 0.062517 0.033333
-0.763306 0.062413 0.016667
-0.765135 0.062337 0.000000
-0.766200 0.062329 -0.016667
-0.766661 0.062349 -0.033333
-0.760818 0.077065 0.033333
-0.762804 0.076932 0.016667
-0.764707 0.076844 0.000000
-0.765792 0.076844 -0.016667
-0.766252 0.076875 -0.033333
-0.760302 0.091545 0.033333
-0.762402 0.091395 0.016667
-0.764389 0.091306 0.000000
-0.765495 0.091325 -0.016667
-0.765957 0.091374 -0.033333
-0.759903 0.105954 0.033333
-0.762132 0.105796 0.016667
-0.764213 0.105720 0.000000
-0.765342 0.105771 -0.016667
-0.765804 0.105847 -0.033333
-0.759674 0.120276 0.033333
-0.762042 0.120125 0.016667
-0.764222 0.120082 0.000000
-0.765371 0.120184 -0.016667
-0.765833 0.120297 -0.033333
-0.759689 0.134513 0.033333
-0.762199 0.134388 0.016667
-0.764469 0.134399 0.000000
-0.765631 0.134568 -0.016667
-0.766087 0.134730 -0.033333
-0.760052 0.148650 0.033333
-0.762681 0.148577 0.016667
-0.765024 0.148672 0.000000
-0.766176 0.148934 -0.016667
-0.766618 0.149156 -0.033333
-0.760877 0.162708 0.033333
-0.763589 0.162708 0.016667
-0.765951 0.162920 0.000000
-0.767066 0.163290 -0.016667
-0.767475 0.163589 -0.033333
-0.762307 0.176652 0.033333
-0.765010 0.176783 0.016667
-0.767327 0.177138 0.000000
-0.768347 0.177660 -0.016667
-0.768693 0.178051 -0.033333
-0.764425 0.190566 0.033333
-0.767045 0.190810 0.016667
-0.769187 0.191390 0.000000
-0.770047 0.192068 -0.016667
-0.770302 0.192548 -0.033333
-0.767333 0.204323 0.033333
-0.769681 0.204894 0.016667
-0.771552 0.205663 0.000000
-0.772167 0.206533 -0.016667
-0.772258 0.207178 -0.033333
-0.770927 0.218364 0.033333
-0.772941 0.218973 0.016667
-0.774369 0.220081 0.000000
-0.774632 0.221180 -0.016667
-0.774521 0.221879 -0.033333
-0.775137 0.232338 0.033333
-0.776664 0.233394 0.016667
-0.777530 0.234697 0.000000
-0.777331 0.235990 -0.016667
-0.776942 0.236887 -0.033333
-0.779804 0.246898 0.033333
-0.780696 0.248061 0.016667
-0.780841 0.249699 0.000000
-0.780065 0.251172 -0.016667
-0.779312 0.252116 -0.033333
-0.784464 0.262159 0.033333
-0.784659 0.263519 0.016667
-0.783961 0.265205 0.000000
-0.782527 0.266758 -0.016667
-0.781372 0.267774 -0.033333
-0.788575 0.278262 0.033333
-0.788020 0.279602 0.016667
-0.786474 0.281327 0.000000
-0.784324 0.282847 -0.016667
-0.782767 0.283811 -0.033333
-0.791196 0.295408 0.033333
-0.790017 0.296621 0.016667
-0.787783 0.298082 0.000000
-0.785122 0.299376 -0.016667
-0.783183 0.300228 -0.033333
-0.792273 0.313040 0.033333
-0.790659 0.313970 0.016667
-0.787819 0.315151 0.000000
-0.784546 0.316214 -0.016667
-0.782373 0.316869 -0.033333
-0.790886 0.331059 0.033333
-0.788953 0.331688 0.016667
-0.785873 0.332440 0.000000
-0.782503 0.333091 -0.016667
-0.780104 0.333524 -0.033333
-0.787481 0.348662 0.033333
-0.785713 0.348985 0.016667
-0.782453 0.349363 0.000000
-0.778632 0.349711 -0.016667
-0.776404 0.349982 -0.033333
-0.780610 0.365136 0.033333
-0.778881 0.365222 0.016667
-0.776142 0.365447 0.000000
-0.773222 0.365763 -0.016667
-0.771196 0.365884 -0.033333
-0.771790 0.379441 0.033333
-0.771055 0.379801 0.016667
-0.768765 0.380360 0.000000
-0.765807 0.380414 -0.016667
-0.765050 0.381581 -0.033333
-0.757492 0.387852 0.033333
-0.756854 0.386109 0.016667
-0.756068 0.388202 0.000000
-0.757255 0.394935 -0.016667
-0.758317 0.396376 -0.033333
-0.754807 -0.499613 0.033333
-0.761236 -0.512395 0.016667
-0.764581 -0.518281 0.000000
-0.768245 -0.519481 -0.016667
-0.770974 -0.522069 -0.033333
-0.776409 -0.504338 0.033333
-0.777979 -0.505898 0.016667
-0.777325 -0.505208 0.000000
-0.779322 -0.506661 -0.016667
-0.779833 -0.507313 -0.033333
-0.791917 -0.496761 0.033333
-0.791025 -0.494256 0.016667
-0.789802 -0.493274 0.000000
-0.789179 -0.492933 -0.016667
-0.788929 -0.492806 -0.033333
-0.805746 -0.483697 0.033333
-0.803135 -0.481353 0.016667
-0.800239 -0.479455 0.000000
-0.798516 -0.478356 -0.016667
-0.797651 -0.477864 -0.033333
-0.816473 -0.467940 0.033333
-0.812989 -0.465882 0.016667
-0.809444 -0.464067 0.000000
-0.806948 -0.462918 -0.016667
-0.805539 -0.462256 -0.033333
-0.825136 -0.450477 0.033333
-0.821186 -0.449018 0.016667
-0.817086 -0.447565 0.000000
-0.814145 -0.446515 -0.016667
-0.812457 -0.445939 -0.033333
-0.831455 -0.432067 0.033333
-0.827411 -0.431114 0.016667
-0.823184 -0.430135 0.000000
-0.820030 -0.429404 -0.016667
-0.818150 -0.428965 -0.033333
-0.836015 -0.413075 0.033333
-0.831992 -0.412632 0.016667
-0.827707 -0.412125 0.000000
-0.824467 -0.411713 -0.016667
-0.822529 -0.411471 -0.033333
-0.838668 -0.393813 0.033333
-0.834816 -0.393787 0.016667
-0.830666 -0.393730 0.000000
-0.827456 -0.393663 -0.016667
-0.825506 -0.393620 -0.033333
-0.839725 -0.374445 0.033333
-0.836074 -0.374818 0.016667
-0.832083 -0.375180 0.000000
-0.828964 -0.375432 -0.016667
-0.827066 -0.375588 -0.033333
-0.839083 -0.355196 0.033333
-0.835719 -0.355904 0.016667
-0.831995 -0.356647 0.000000
-0.829034 -0.357209 -0.016667
-0.827214 -0.357552 -0.033333
-0.836923 -0.336181 0.033333
-0.833874 -0.337220 0.016667
-0.830454 -0.338322 0.000000
-0.827697 -0.339163 -0.016667
-0.826000 -0.339683 -0.033333
-0.833190 -0.317632 0.033333
-0.830553 -0.318944 0.016667
-0.827527 -0.320360 0.000000
-0.825040 -0.321459 -0.016667
-0.823495 -0.322134 -0.033333
-0.828026 -0.299653 0.033333
-0.825866 -0.301232 0.016667
-0.823320 -0.302927 0.000000
-0.821155 -0.304232 -0.016667
-0.819813 -0.305045 -0.033333
-0.821449 -0.282500 0.033333
-0.819914 -0.284246 0.016667
-0.817948 -0.286133 0.000000
-0.816194 -0.287609 -0.016667
-0.815093 -0.288508 -0.033333
-0.813663 -0.266235 0.033333
-0.812841 -0.268092 0.016667
-0.811596 -0.270102 0.000000
-0.810318 -0.271645 -0.016667
-0.809523 -0.272601 -0.033333
-0.804809 -0.251074 0.033333
-0.804877 -0.252853 0.016667
-0.804453 -0.254810 0.000000
-0.803773 -0.256376 -0.016667
-0.803331 -0.257292 -0.033333
-0.795361 -0.236894 0.033333
-0.796285 -0.238470 0.016667
-0.796844 -0.240296 0.000000
-0.796838 -0.241692 -0.016667
-0.796789 -0.242535 -0.033333
-0.785840 -0.223802 0.033333
-0.787680 -0.225049 0.016667
-0.789184 -0.226373 0.000000
-0.789882 -0.227533 -0.016667
-0.790263 -0.228188 -0.033333
-0.777964 -0.211219 0.033333
-0.780212 -0.211837 0.016667
-0.782288 -0.212840 0.000000
-0.783436 -0.213618 -0.016667
-0.784039 -0.214047 -0.033333
-0.771126 -0.198204 0.033333
-0.773772 -0.198827 0.016667
-0.776243 -0.199242 0.000000
-0.777638 -0.199722 -0.016667
-0.778413 -0.200052 -0.033333
-0.765518 -0.185525 0.033333
-0.768437 -0.185390 0.016667
-0.771089 -0.185570 0.000000
-0.772622 -0.185802 -0.016667
-0.773480 -0.185920 -0.033333
-0.761231 -0.172059 0.033333
-0.764103 -0.171823 0.016667
-0.766844 -0.171635 0.000000
-0.768424 -0.171715 -0.016667
-0.769276 -0.171774 -0.033333
-0.757949 -0.158373 0.033333
-0.760786 -0.157884 0.016667
-0.763437 -0.157556 0.000000
-0.764994 -0.157491 -0.016667
-0.765826 -0.157480 -0.033333
-0.755622 -0.144267 0.033333
-0.758281 -0.143712 0.016667
-0.760796 -0.143271 0.000000
-0.762264 -0.143148 -0.016667
-0.763037 -0.143096 -0.033333
-0.754000 -0.129933 0.033333
-0.756453 -0.129340 0.016667
-0.758764 -0.128868 0.000000
-0.760125 -0.128700 -0.016667
-0.760824 -0.128629 -0.033333
-0.752889 -0.115384 0.033333
-0.755100 -0.114820 0.016667
-0.757203 -0.114360 0.000000
-0.758445 -0.114181 -0.016667
-0.759067 -0.114099 -0.033333
-0.752052 -0.100698 0.033333
-0.754058 -0.100203 0.016667
-0.755966 -0.099783 0.000000
-0.757100 -0.099605 -0.016667
-0.757655 -0.099526 -0.033333
-0.751350 -0.085935 0.033333
-0.753181 -0.085507 0.016667
-0.754933 -0.085151 0.000000
-0.755981 -0.084991 -0.016667
-0.756481 -0.084914 -0.033333
-0.750669 -0.071104 0.033333
-0.752373 -0.070771 0.016667
-0.754016 -0.070480 0.000000
-0.755004 -0.070341 -0.016667
-0.755467 -0.070276 -0.033333
-0.749948 -0.056256 0.033333
-0.751581 -0.056000 0.016667
-0.753157 -0.055780 0.000000
-0.754110 -0.055668 -0.016667
-0.754554 -0.055613 -0.033333
-0.749186 -0.041402 0.033333
-0.750774 -0.041218 0.016667
-0.752326 -0.041061 0.000000
-0.753269 -0.040976 -0.016667
-0.753702 -0.040931 -0.033333
-0.748372 -0.026543 0.033333
-0.749962 -0.026434 0.016667
-0.751515 -0.026331 0.000000
-0.752460 -0.026268 -0.016667
-0.752895 -0.026235 -0.033333
-0.747549 -0.011718 0.033333
-0.749150 -0.011647 0.016667
-0.750725 -0.011594 0.000000
-0.751683 -0.011553 -0.016667
-0.752122 -0.011524 -0.033333
-0.746728 0.003123 0.033333
-0.748360 0.003128 0.016667
-0.749966 0.003145 0.000000
-0.750940 0.003170 -0.016667
-0.751386 0.003190 -0.033333
-0.745926 0.017928 0.033333
-0.747601 0.017905 0.016667
-0.749246 0.017882 0.000000
-0.750238 0.017892 -0.016667
-0.750689 0.017912 -0.033333
-0.745156 0.032747 0.033333
-0.746879 0.032668 0.016667
-0.748572 0.032614 0.000000
-0.749583 0.032613 -0.016667
-0.750038 0.032629 -0.033333
-0.744410 0.047539 0.033333
-0.746204 0.047422 0.016667
-0.747953 0.047335 0.000000
-0.748984 0.047326 -0.016667
-0.749444 0.047344 -0.033333
-0.743705 0.062323 0.033333
-0.745580 0.062157 0.016667
-0.747398 0.062040 0.000000
-0.748454 0.062028 -0.016667
-0.748919 0.062050 -0.033333
-0.743044 0.077076 0.033333
-0.745025 0.076867 0.016667
-0.746926 0.076725 0.000000
-0.748010 0.076717 -0.016667
-0.748482 0.076746 -0.033333
-0.742454 0.091798 0.033333
-0.744560 0.091547 0.016667
-0.746561 0.091386 0.000000
-0.747679 0.091389 -0.016667
-0.748160 0.091432 -0.033333
-0.741968 0.106469 0.033333
-0.744224 0.106185 0.016667
-0.746338 0.106018 0.000000
-0.747493 0.106045 -0.016667
-0.747985 0.106106 -0.033333
-0.741644 0.121084 0.033333
-0.744065 0.120779 0.016667
-0.746304 0.120619 0.000000
-0.747497 0.120681 -0.016667
-0.748000 0.120770 -0.033333
-0.741563 0.135614 0.033333
-0.744156 0.135307 0.016667
-0.746520 0.135182 0.000000
-0.747742 0.135299 -0.016667
-0.748255 0.135423 -0.033333
-0.741822 0.150042 0.033333
-0.744583 0.149767 0.016667
-0.747052 0.149705 0.000000
-0.748291 0.149892 -0.016667
-0.748802 0.150065 -0.033333
-0.742559 0.164314 0.033333
-0.745441 0.164122 0.016667
-0.747982 0.164169 0.000000
-0.749200 0.164464 -0.016667
-0.749695 0.164694 -0.033333
-0.743880 0.178429 0.033333
-0.746841 0.178367 0.016667
-0.749366 0.178586 0.000000
-0.750527 0.178999 -0.016667
-0.750979 0.179314 -0.033333
-0.745942 0.192299 0.033333
-0.748834 0.192486 0.016667
-0.751283 0.192911 0.000000
-0.752302 0.193519 -0.016667
-0.752659 0.193934 -0.033333
-0.748729 0.206077 0.033333
-0.751543 0.206446 0.016667
-0.753718 0.207238 0.000000
-0.754513 0.208032 -0.016667
-0.754757 0.208541 -0.033333
-0.752461 0.219506 0.033333
-0.754858 0.220467 0.016667
-0.756673 0.221506 0.000000
-0.757144 0.222546 -0.016667
-0.757155 0.223263 -0.033333
-0.756878 0.233384 0.033333
-0.758834 0.234377 0.016667
-0.760046 0.235909 0.000000
-0.760056 0.237215 -0.016667
-0.759779 0.237995 -0.033333
-0.761873 0.247205 0.033333
-0.763227 0.248732 0.016667
-0.763692 0.250474 0.000000
-0.763067 0.252035 -0.016667
-0.762421 0.253002 -0.033333
-0.767634 0.261881 0.033333
-0.767996 0.263511 0.016667
-0.767375 0.265540 0.000000
-0.765906 0.267189 -0.016667
-0.764750 0.268211 -0.033333
-0.772429 0.277596 0.033333
-0.771914 0.279223 0.016667
-0.770287 0.281111 0.000000
-0.768084 0.282739 -0.016667
-0.766451 0.283735 -0.033333
-0.775934 0.293992 0.033333
-0.774630 0.295420 0.016667
-0.772144 0.297143 0.000000
-0.769170 0.298606 -0.016667
-0.767142 0.299523 -0.033333
-0.777221 0.310965 0.033333
-0.775342 0.312088 0.016667
-0.772281 0.313453 0.000000
-0.768918 0.314694 -0.016667
-0.766532 0.315452 -0.033333
-0.776540 0.327971 0.033333
-0.774432 0.328752 0.016667
-0.770900 0.329764 0.000000
-0.766957 0.330746 -0.016667
-0.764467 0.331397 -0.033333
-0.772798 0.344416 0.033333
-0.770537 0.344797 0.016667
-0.767058 0.345566 0.000000
-0.763331 0.346560 -0.016667
-0.760777 0.347080 -0.033333
-0.766628 0.359890 0.033333
-0.764916 0.360147 0.016667
-0.761577 0.360815 0.000000
-0.757596 0.361597 -0.016667
-0.755714 0.362610 -0.033333
-0.755753 0.371897 0.033333
-0.754203 0.370940 0.016667
-0.752034 0.372573 0.000000
-0.750275 0.376496 -0.016667
-0.749422 0.377569 -0.033333
-0.739736 0.385573 0.033333
-0.738374 0.384618 0.016667
-0.737481 0.386262 0.000000
-0.741110 0.390344 -0.016667
-0.742944 0.393105 -0.033333
-0.736575 -0.491756 0.033333
-0.745086 -0.504522 0.016667
-0.750961 -0.511918 0.000000
-0.753874 -0.514112 -0.016667
-0.756800 -0.516316 -0.033333
-0.763164 -0.489795 0.033333
-0.764408 -0.496155 0.016667
-0.763258 -0.499035 0.000000
-0.764670 -0.500083 -0.016667
-0.765417 -0.501605 -0.033333
-0.780971 -0.487088 0.033333
-0.778332 -0.486228 0.016667
-0.775479 -0.486014 0.000000
-0.774971 -0.486683 -0.016667
-0.774424 -0.487174 -0.033333
-0.793779 -0.475389 0.033333
-0.790101 -0.473649 0.016667
-0.786497 -0.472918 0.000000
-0.784311 -0.472657 -0.016667
-0.783159 -0.472580 -0.033333
-0.804462 -0.461185 0.033333
-0.800024 -0.459680 0.016667
-0.795615 -0.458476 0.000000
-0.792734 -0.457845 -0.016667
-0.791119 -0.457575 -0.033333
-0.812360 -0.444959 0.033333
-0.807841 -0.443880 0.016667
-0.803233 -0.442919 0.000000
-0.799919 -0.442289 -0.016667
-0.797997 -0.441945 -0.033333
-0.818508 -0.427726 0.033333
-0.813945 -0.427113 0.016667
-0.809204 -0.426466 0.000000
-0.805723 -0.425985 -0.016667
-0.803666 -0.425731 -0.033333
-0.822625 -0.409787 0.033333
-0.818252 -0.409592 0.016667
-0.813615 -0.409355 0.000000
-0.810095 -0.409144 -0.016667
-0.807976 -0.409017 -0.033333
-0.825160 -0.391475 0.033333
-0.820967 -0.391687 0.016667
-0.816455 -0.391841 0.000000
-0.812985 -0.391910 -0.016667
-0.810885 -0.391953 -0.033333
-0.825954 -0.372997 0.033333
-0.822041 -0.373562 0.016667
-0.817763 -0.374109 0.000000
-0.814409 -0.374478 -0.016667
-0.812357 -0.374693 -0.033333
-0.825218 -0.354508 0.033333
-0.821582 -0.355432 0.016667
-0.817559 -0.356354 0.000000
-0.814367 -0.357009 -0.016667
-0.812410 -0.357402 -0.033333
-0.822844 -0.336213 0.033333
-0.819570 -0.337455 0.016667
-0.815884 -0.338737 0.000000
-0.812912 -0.339676 -0.016667
-0.811073 -0.340235 -0.033333
-0.818942 -0.318214 0.033333
-0.816075 -0.319798 0.016667
-0.812793 -0.321429 0.000000
-0.810089 -0.322621 -0.016667
-0.808419 -0.323342 -0.033333
-0.813441 -0.300747 0.033333
-0.811124 -0.302621 0.016667
-0.808351 -0.304558 0.000000
-0.806007 -0.305986 -0.016667
-0.804538 -0.306837 -0.033333
-0.806440 -0.283888 0.033333
-0.804806 -0.286066 0.016667
-0.802686 -0.288271 0.000000
-0.800764 -0.289862 -0.016667
-0.799580 -0.290832 -0.033333
-0.797937 -0.267922 0.033333
-0.797253 -0.270250 0.016667
-0.795920 -0.272605 0.000000
-0.794567 -0.274336 -0.016667
-0.793712 -0.275332 -0.033333
-0.788222 -0.252840 0.033333
-0.788628 -0.255213 0.016667
-0.788327 -0.257648 0.000000
-0.787623 -0.259356 -0.016667
-0.787191 -0.260377 -0.033333
-0.777572 -0.238934 0.033333
-0.779279 -0.241057 0.016667
-0.780142 -0.243263 0.000000
-0.780264 -0.244974 -0.016667
-0.780330 -0.245837 -0.033333
-0.766659 -0.226361 0.033333
-0.769402 -0.227895 0.016667
-0.771727 -0.229770 0.000000
-0.772906 -0.230976 -0.016667
-0.773460 -0.231662 -0.033333
-0.758631 -0.214021 0.033333
-0.761908 -0.215415 0.016667
-0.764726 -0.216366 0.000000
-0.766211 -0.217202 -0.016667
-0.767075 -0.217653 -0.033333
-0.752118 -0.202305 0.033333
-0.755657 -0.202356 0.016667
-0.758670 -0.202982 0.000000
-0.760347 -0.203394 -0.016667
-0.761314 -0.203559 -0.033333
-0.747081 -0.189289 0.033333
-0.750441 -0.189284 0.016667
-0.753593 -0.189208 0.000000
-0.755319 -0.189398 -0.016667
-0.756280 -0.189457 -0.033333
-0.742994 -0.176113 0.033333
-0.746378 -0.175592 0.016667
-0.749389 -0.175271 0.000000
-0.751093 -0.175187 -0.016667
-0.752057 -0.175152 -0.033333
-0.740045 -0.162301 0.033333
-0.743173 -0.161563 0.016667
-0.746048 -0.160973 0.000000
-0.747649 -0.160809 -0.016667
-0.748546 -0.160692 -0.033333
-0.737936 -0.148080 0.033333
-0.740789 -0.147179 0.016667
-0.743407 -0.146483 0.000000
-0.744904 -0.146237 -0.016667
-0.745716 -0.146100 -0.033333
-0.736509 -0.133419 0.033333
-0.739027 -0.132526 0.016667
-0.741383 -0.131807 0.000000
-0.742741 -0.131541 -0.016667
-0.743457 -0.131397 -0.033333
-0.735500 -0.118506 0.033333
-0.737732 -0.117687 0.016667
-0.739819 -0.117015 0.000000
-0.741038 -0.116751 -0.016667
-0.741668 -0.116617 -0.033333
-0.734763 -0.103433 0.033333
-0.736722 -0.102718 0.016667
-0.738581 -0.102142 0.000000
-0.739678 -0.101907 -0.016667
-0.740223 -0.101787 -0.033333
-0.734101 -0.088254 0.033333
-0.735865 -0.087700 0.016667
-0.737546 -0.087228 0.000000
-0.738546 -0.087029 -0.016667
-0.739032 -0.086934 -0.033333
-0.733428 -0.073079 0.033333
-0.735063 -0.072646 0.016667
-0.736624 -0.072296 0.000000
-0.737560 -0.072141 -0.016667
-0.738005 -0.072063 -0.033333
-0.732702 -0.057902 0.033333
-0.734252 -0.057608 0.016667
-0.735756 -0.057362 0.000000
-0.736661 -0.057246 -0.016667
-0.737081 -0.057190 -0.033333
-0.731882 -0.042773 0.033333
-0.733427 -0.042590 0.016667
-0.734913 -0.042435 0.000000
-0.735808 -0.042355 -0.016667
-0.736227 -0.042314 -0.033333
-0.731035 -0.027714 0.033333
-0.732578 -0.027599 0.016667
-0.734086 -0.027520 0.000000
-0.734993 -0.027469 -0.016667
-0.735411 -0.027437 -0.033333
-0.730162 -0.012667 0.033333
-0.731741 -0.012645 0.016667
-0.733283 -0.012614 0.000000
-0.734206 -0.012585 -0.016667
-0.734635 -0.012564 -0.033333
-0.729313 0.002310 0.033333
-0.730932 0.002306 0.016667
-0.732511 0.002284 0.000000
-0.733454 0.002294 -0.016667
-0.733891 0.002315 -0.033333
-0.728503 0.017319 0.033333
-0.730155 0.017238 0.016667
-0.731780 0.017180 0.000000
-0.732741 0.017176 -0.016667
-0.733185 0.017190 -0.033333
-0.727710 0.032303 0.033333
-0.729423 0.032178 0.016667
-0.731091 0.032073 0.000000
-0.732073 0.032054 -0.016667
-0.732524 0.032068 -0.033333
-0.726955 0.047310 0.033333
-0.728726 0.047113 0.016667
-0.730455 0.046964 0.000000
-0.731460 0.046932 -0.016667
-0.731916 0.046944 -0.033333
-0.726219 0.062310 0.033333
-0.728080 0.062046 0.016667
-0.729880 0.061848 0.000000
-0.730912 0.061807 -0.016667
-0.731378 0.061820 -0.033333
-0.725525 0.077310 0.033333
-0.727494 0.076970 0.016667
-0.729384 0.076724 0.000000
-0.730450 0.076678 -0.016667
-0.730928 0.076693 -0.033333
-0.724885 0.092290 0.033333
-0.726994 0.091876 0.016667
-0.728993 0.091586 0.000000
-0.730100 0.091541 -0.016667
-0.730593 0.091563 -0.033333
-0.724336 0.107241 0.033333
-0.726611 0.106756 0.016667
-0.728742 0.106429 0.000000
-0.729895 0.106394 -0.016667
-0.730407 0.106426 -0.033333
-0.723929 0.122133 0.033333
-0.726399 0.121587 0.016667
-0.728677 0.121242 0.000000
-0.729880 0.121230 -0.016667
-0.730414 0.121278 -0.033333
-0.723732 0.136933 0.033333
-0.726419 0.136355 0.016667
-0.728856 0.136012 0.000000
-0.730108 0.136039 -0.016667
-0.730662 0.136113 -0.033333
-0.723842 0.151578 0.033333
-0.726754 0.151007 0.016667
-0.729349 0.150715 0.000000
-0.730634 0.150811 -0.016667
-0.731205 0.150918 -0.033333
-0.724359 0.166011 0.033333
-0.727495 0.165516 0.016667
-0.730218 0.165333 0.000000
-0.731521 0.165521 -0.016667
-0.732094 0.165685 -0.033333
-0.725434 0.180128 0.033333
-0.728730 0.179815 0.016667
-0.731548 0.179825 0.000000
-0.732812 0.180166 -0.016667
-0.733370 0.180393 -0.033333
-0.727143 0.193936 0.033333
-0.730579 0.193887 0.016667
-0.733353 0.194207 0.000000
-0.734558 0.194701 -0.016667
-0.735063 0.195056 -0.033333
-0.729704 0.207314 0.033333
-0.733018 0.207741 0.016667
-0.735739 0.208376 0.000000
-0.736762 0.209185 -0.016667
-0.737138 0.209660 -0.033333
-0.732964 0.220590 0.033333
-0.736286 0.221240 0.016667
-0.738625 0.222540 0.000000
-0.739378 0.223593 -0.016667
-0.739615 0.224207 -0.033333
-0.737355 0.233171 0.033333
-0.740155 0.234916 0.016667
-0.742047 0.236539 0.000000
-0.742369 0.237974 -0.016667
-0.742312 0.238864 -0.033333
-0.742623 0.246519 0.033333
-0.744769 0.248369 0.016667
-0.745868 0.250763 0.000000
-0.745598 0.252497 -0.016667
-0.745077 0.253520 -0.033333
-0.749688 0.260538 0.033333
-0.750601 0.262815 0.016667
-0.750135 0.265269 0.000000
-0.748742 0.267290 -0.016667
-0.747663 0.268409 -0.033333
-0.755737 0.275837 0.033333
-0.755306 0.278031 0.016667
-0.753608 0.280478 0.000000
-0.751236 0.282361 -0.016667
-0.749578 0.283530 -0.033333
-0.759799 0.291981 0.033333
-0.758374 0.293871 0.016667
-0.755679 0.295981 0.000000
-0.752640 0.297770 -0.016667
-0.750484 0.298821 -0.033333
-0.761859 0.308466 0.033333
-0.759737 0.309952 0.016667
-0.756289 0.311724 0.000000
-0.752526 0.313279 -0.016667
-0.750069 0.314270 -0.033333
-0.761084 0.324891 0.033333
-0.758507 0.325867 0.016667
-0.754708 0.327289 0.000000
-0.750775 0.328812 -0.016667
-0.748076 0.329660 -0.033333
-0.757758 0.340937 0.033333
-0.755250 0.341558 0.016667
-0.751258 0.342668 0.000000
-0.746970 0.344000 -0.016667
-0.744524 0.345027 -0.033333
-0.750433 0.355168 0.033333
-0.747909 0.354931 0.016667
-0.744566 0.356387 0.000000
-0.741362 0.359134 -0.016667
-0.739398 0.360089 -0.033333
-0.738788 0.369950 0.033333
-0.736692 0.369729 0.016667
-0.734455 0.371053 0.000000
-0.733646 0.373610 -0.016667
-0.733297 0.375344 -0.033333
-0.722961 0.384914 0.033333
-0.721357 0.383925 0.016667
-0.720568 0.385403 0.000000
-0.724840 0.388963 -0.016667
-0.727061 0.390611 -0.033333
-0.718222 -0.488682 0.033333
-0.728258 -0.500909 0.016667
-0.735774 -0.507246 0.000000
-0.739152 -0.510006 -0.016667
-0.742055 -0.512052 -0.033333
-0.745561 -0.481188 0.033333
-0.747999 -0.489236 0.016667
-0.748237 -0.494042 0.000000
-0.749326 -0.495404 -0.016667
-0.750217 -0.497040 -0.033333
-0.766751 -0.475899 0.033333
-0.763607 -0.478909 0.016667
-0.760249 -0.480796 0.000000
-0.759567 -0.481594 -0.016667
-0.759161 -0.482568 -0.033333
-0.780689 -0.467773 0.033333
-0.775668 -0.467181 0.016667
-0.771303 -0.467352 0.000000
-0.769152 -0.467803 -0.016667
-0.767859 -0.468150 -0.033333
-0.790810 -0.454425 0.033333
-0.785671 -0.453736 0.016667
-0.780763 -0.453500 0.000000
-0.777603 -0.453446 -0.016667
-0.775851 -0.453476 -0.033333
-0.798822 -0.439619 0.033333
-0.793582 -0.439086 0.016667
-0.788398 -0.438663 0.000000
-0.784832 -0.438453 -0.016667
-0.782775 -0.438394 -0.033333
-0.804550 -0.423389 0.033333
-0.799553 -0.423210 0.016667
-0.794411 -0.423026 0.000000
-0.790650 -0.422873 -0.016667
-0.788432 -0.422804 -0.033333
-0.808630 -0.406483 0.033333
-0.803827 -0.406649 0.016667
-0.798776 -0.406739 0.000000
-0.794996 -0.406755 -0.016667
-0.792733 -0.406779 -0.033333
-0.810921 -0.389069 0.033333
-0.806413 -0.389568 0.016667
-0.801575 -0.390008 0.000000
-0.797857 -0.390267 -0.016667
-0.795602 -0.390413 -0.033333
-0.811670 -0.371401 0.033333
-0.807433 -0.372246 0.016667
-0.802817 -0.373033 0.000000
-0.799219 -0.373549 -0.016667
-0.797027 -0.373850 -0.033333
-0.810776 -0.353655 0.033333
-0.806865 -0.354823 0.016667
-0.802538 -0.355976 0.000000
-0.799112 -0.356771 -0.016667
-0.797005 -0.357229 -0.033333
-0.808321 -0.335943 0.033333
-0.804759 -0.337480 0.016667
-0.800764 -0.339006 0.000000
-0.797550 -0.340071 -0.016667
-0.795575 -0.340698 -0.033333
-0.804214 -0.318477 0.033333
-0.801100 -0.320358 0.016667
-0.797521 -0.322260 0.000000
-0.794602 -0.323602 -0.016667
-0.792785 -0.324382 -0.033333
-0.798465 -0.301308 0.033333
-0.795907 -0.303614 0.016667
-0.792884 -0.305894 0.000000
-0.790318 -0.307470 -0.016667
-0.788740 -0.308407 -0.033333
-0.790970 -0.284722 0.033333
-0.789244 -0.287398 0.016667
-0.786908 -0.289992 0.000000
-0.784851 -0.291794 -0.016667
-0.783548 -0.292825 -0.033333
-0.781764 -0.268754 0.033333
-0.781192 -0.271824 0.016667
-0.779798 -0.274686 0.000000
-0.778326 -0.276582 -0.016667
-0.777438 -0.277724 -0.033333
-0.770925 -0.253839 0.033333
-0.771990 -0.257021 0.016667
-0.771709 -0.259921 0.000000
-0.771049 -0.261967 -0.016667
-0.770626 -0.263002 -0.033333
-0.758913 -0.240075 0.033333
-0.761808 -0.242892 0.016667
-0.763056 -0.245922 0.000000
-0.763306 -0.247721 -0.016667
-0.763461 -0.248762 -0.033333
-0.745349 -0.228361 0.033333
-0.749983 -0.230805 0.016667
-0.753642 -0.232599 0.000000
-0.755465 -0.234099 -0.016667
-0.756427 -0.234676 -0.033333
-0.738160 -0.217980 0.033333
-0.742971 -0.218347 0.016667
-0.746702 -0.219769 0.000000
-0.748741 -0.220410 -0.016667
-0.749858 -0.220745 -0.033333
-0.732599 -0.205485 0.033333
-0.737020 -0.206150 0.016667
-0.740909 -0.206280 0.000000
-0.742905 -0.206672 -0.016667
-0.744065 -0.206769 -0.033333
-0.727893 -0.193321 0.033333
-0.732405 -0.192880 0.016667
-0.736001 -0.192721 0.000000
-0.737940 -0.192616 -0.016667
-0.739112 -0.192603 -0.033333
-0.724581 -0.180203 0.033333
-0.728594 -0.179265 0.016667
-0.732048 -0.178568 0.000000
-0.733805 -0.178407 -0.016667
-0.734894 -0.178195 -0.033333
-0.722155 -0.166400 0.033333
-0.725715 -0.165119 0.016667
-0.728801 -0.164181 0.000000
-0.730451 -0.163868 -0.016667
-0.731416 -0.163643 -0.033333
-0.720473 -0.151875 0.033333
-0.723530 -0.150548 0.016667
-0.726263 -0.149504 0.000000
-0.727748 -0.149138 -0.016667
-0.728596 -0.148898 -0.033333
-0.719300 -0.136956 0.033333
-0.721922 -0.135652 0.016667
-0.724288 -0.134625 0.000000
-0.725606 -0.134245 -0.016667
-0.726341 -0.134016 -0.033333
-0.718528 -0.121684 0.033333
-0.720720 -0.120517 0.016667
-0.722752 -0.119594 0.000000
-0.723914 -0.119239 -0.016667
-0.724526 -0.119039 -0.033333
-0.717879 -0.106192 0.033333
-0.719764 -0.105251 0.016667
-0.721519 -0.104468 0.000000
-0.722539 -0.104166 -0.016667
-0.723067 -0.104003 -0.033333
-0.717269 -0.090658 0.033333
-0.718914 -0.089897 0.016667
-0.720467 -0.089305 0.000000
-0.721393 -0.089062 -0.016667
-0.721845 -0.088932 -0.033333
-0.716583 -0.075069 0.033333
-0.718080 -0.074563 0.016667
-0.719520 -0.074131 0.000000
-0.720382 -0.073947 -0.016667
-0.720792 -0.073859 -0.033333
-0.715767 -0.059581 0.033333
-0.717233 -0.059241 0.016667
-0.718621 -0.058970 0.000000
-0.719451 -0.058845 -0.016667
-0.719850 -0.058780 -0.033333
-0.714884 -0.044170 0.033333
-0.716331 -0.043978 0.016667
-0.717739 -0.043835 0.000000
-0.718577 -0.043755 -0.016667
-0.718965 -0.043714 -0.033333
-0.713901 -0.028843 0.033333
-0.715424 -0.028788 0.016667
-0.716877 -0.028725 0.000000
-0.717730 -0.028684 -0.016667
-0.718140 -0.028658 -0.033333
-0.712968 -0.013661 0.033333
-0.714537 -0.013627 0.016667
-0.716044 -0.013644 0.000000
-0.716927 -0.013626 -0.016667
-0.717344 -0.013605 -0.033333
-0.712097 0.001558 0.033333
-0.713698 0.001483 0.016667
-0.715259 0.001434 0.000000
-0.716159 0.001426 -0.016667
-0.716588 0.001436 -0.033333
-0.711262 0.016720 0.033333
-0.712922 0.016614 0.016667
-0.714515 0.016500 0.000000
-0.715434 0.016473 -0.016667
-0.715874 0.016480 -0.033333
-0.710493 0.031939 0.033333
-0.712177 0.031740 0.016667
-0.713819 0.031573 0.000000
-0.714758 0.031521 -0.016667
-0.715203 0.031523 -0.033333
-0.709727 0.047166 0.033333
-0.711481 0.046880 0.016667
-0.713173 0.046643 0.000000
-0.714135 0.046571 -0.016667
-0.714589 0.046567 -0.033333
-0.708991 0.062419 0.033333
-0.710823 0.062025 0.016667
-0.712589 0.061715 0.000000
-0.713579 0.061622 -0.016667
-0.714042 0.061613 -0.033333
-0.708275 0.077675 0.033333
-0.710224 0.077170 0.016667
-0.712080 0.076783 0.000000
-0.713105 0.076673 -0.016667
-0.713584 0.076659 -0.033333
-0.707603 0.092932 0.033333
-0.709698 0.092308 0.016667
-0.711673 0.091842 0.000000
-0.712741 0.091719 -0.016667
-0.713240 0.091703 -0.033333
-0.706998 0.108164 0.033333
-0.709281 0.107419 0.016667
-0.711399 0.106883 0.000000
-0.712519 0.106755 -0.016667
-0.713044 0.106738 -0.033333
-0.706500 0.123343 0.033333
-0.709010 0.122489 0.016667
-0.711300 0.121890 0.000000
-0.712480 0.121768 -0.016667
-0.713036 0.121758 -0.033333
-0.706163 0.138416 0.033333
-0.708944 0.137470 0.016667
-0.711429 0.136841 0.000000
-0.712671 0.136746 -0.016667
-0.713262 0.136745 -0.033333
-0.706050 0.153316 0.033333
-0.709144 0.152330 0.016667
-0.711843 0.151708 0.000000
-0.713146 0.151663 -0.016667
-0.713772 0.151687 -0.033333
-0.706260 0.167935 0.033333
-0.709688 0.166980 0.016667
-0.712612 0.166449 0.000000
-0.713956 0.166499 -0.016667
-0.714614 0.166555 -0.033333
-0.706873 0.182176 0.033333
-0.710672 0.181373 0.016667
-0.713780 0.181033 0.000000
-0.715158 0.181213 -0.016667
-0.715829 0.181343 -0.033333
-0.708084 0.195880 0.033333
-0.712168 0.195408 0.016667
-0.715447 0.195403 0.000000
-0.716773 0.195808 -0.016667
-0.717448 0.196007 -0.033333
-0.709932 0.209080 0.033333
-0.714366 0.209082 0.016667
-0.717551 0.209623 0.000000
-0.718868 0.210185 -0.016667
-0.719476 0.210619 -0.033333
-0.712817 0.221559 0.033333
-0.717067 0.222524 0.016667
-0.720308 0.223434 0.000000
-0.721407 0.224526 -0.016667
-0.721847 0.225091 -0.033333
-0.716361 0.234174 0.033333
-0.720781 0.235199 0.016667
-0.723529 0.237340 0.000000
-0.724364 0.238704 -0.016667
-0.724575 0.239508 -0.033333
-0.721290 0.245400 0.033333
-0.725132 0.248303 0.016667
-0.727418 0.250859 0.000000
-0.727650 0.252964 -0.016667
-0.727468 0.254008 -0.033333
-0.731161 0.258810 0.033333
-0.732850 0.261821 0.016667
-0.732516 0.265144 0.000000
-0.731158 0.267312 -0.016667
-0.730137 0.268633 -0.033333
-0.738381 0.273878 0.033333
-0.738238 0.276894 0.016667
-0.736338 0.279810 0.000000
-0.733967 0.282124 -0.016667
-0.732277 0.283366 -0.033333
-0.743562 0.289803 0.033333
-0.741910 0.292358 0.016667
-0.738905 0.295010 0.000000
-0.735568 0.297065 -0.016667
-0.733369 0.298368 -0.033333
-0.745922 0.306163 0.033333
-0.743335 0.308047 0.016667
-0.739519 0.310257 0.000000
-0.735696 0.312257 -0.016667
-0.733072 0.313396 -0.033333
-0.745573 0.322487 0.033333
-0.742573 0.323820 0.016667
-0.738246 0.325584 0.000000
-0.733909 0.327364 -0.016667
-0.731234 0.328538 -0.033333
-0.741690 0.338013 0.033333
-0.738408 0.338553 0.016667
-0.734202 0.340197 0.000000
-0.730265 0.342534 -0.016667
-0.727702 0.343574 -0.033333
-0.734101 0.353657 0.033333
-0.731113 0.354032 0.016667
-0.727491 0.355327 0.000000
-0.724459 0.357362 -0.016667
-0.722742 0.358723 -0.033333
-0.722519 0.368929 0.033333
-0.720039 0.368549 0.016667
-0.717637 0.369897 0.000000
-0.716968 0.372616 -0.016667
-0.716752 0.373860 -0.033333
-0.706610 0.384633 0.033333
-0.704770 0.383743 0.016667
-0.703919 0.385132 0.000000
-0.708558 0.387943 -0.016667
-0.711000 0.389513 -0.033333
-0.700431 -0.487425 0.033333
-0.711579 -0.499054 0.016667
-0.720021 -0.504251 0.000000
-0.723918 -0.507023 -0.016667
-0.726896 -0.508861 -0.033333
-0.727230 -0.476819 0.033333
-0.730810 -0.485352 0.016667
-0.732257 -0.490400 0.000000
-0.733476 -0.491963 -0.016667
-0.734512 -0.493684 -0.033333
-0.749258 -0.468343 0.033333
-0.746964 -0.473410 0.016667
-0.744264 -0.476776 0.000000
-0.743509 -0.477860 -0.016667
-0.743184 -0.478994 -0.033333
-0.765319 -0.459545 0.033333
-0.759927 -0.461599 0.016667
-0.755263 -0.463189 0.000000
-0.753084 -0.463926 -0.016667
-0.751858 -0.464595 -0.033333
-0.776116 -0.448406 0.033333
-0.770144 -0.448728 0.016667
-0.764842 -0.449323 0.000000
-0.761668 -0.449803 -0.016667
-0.759843 -0.450131 -0.033333
-0.783977 -0.434368 0.033333
-0.778242 -0.434650 0.016667
-0.772693 -0.435000 0.000000
-0.768941 -0.435221 -0.016667
-0.766799 -0.435391 -0.033333
-0.789843 -0.419312 0.033333
-0.784326 -0.419669 0.016667
-0.778774 -0.419970 0.000000
-0.774815 -0.420157 -0.016667
-0.772494 -0.420300 -0.033333
-0.793766 -0.403279 0.033333
-0.788598 -0.403877 0.016667
-0.783206 -0.404381 0.000000
-0.779196 -0.404665 -0.016667
-0.776804 -0.404836 -0.033333
-0.796084 -0.386745 0.033333
-0.791210 -0.387607 0.016667
-0.786014 -0.388359 0.000000
-0.782061 -0.388816 -0.016667
-0.779678 -0.389085 -0.033333
-0.796758 -0.369854 0.033333
-0.792200 -0.370993 0.016667
-0.787253 -0.372063 0.000000
-0.783419 -0.372750 -0.016667
-0.781081 -0.373139 -0.033333
-0.795860 -0.352764 0.033333
-0.791623 -0.354242 0.016667
-0.786952 -0.355651 0.000000
-0.783272 -0.356588 -0.016667
-0.781026 -0.357126 -0.033333
-0.793355 -0.335665 0.033333
-0.789466 -0.337475 0.016667
-0.785118 -0.339261 0.000000
-0.781661 -0.340475 -0.016667
-0.779527 -0.341163 -0.033333
-0.789171 -0.318581 0.033333
-0.785718 -0.320845 0.016667
-0.781792 -0.323043 0.000000
-0.778601 -0.324524 -0.016667
-0.776649 -0.325378 -0.033333
-0.783222 -0.301783 0.033333
-0.780362 -0.304481 0.016667
-0.776971 -0.307104 0.000000
-0.774192 -0.308862 -0.016667
-0.772455 -0.309850 -0.033333
-0.775365 -0.285254 0.033333
-0.773371 -0.288544 0.016667
-0.770785 -0.291602 0.000000
-0.768497 -0.293550 -0.016667
-0.767108 -0.294692 -0.033333
-0.765434 -0.269407 0.033333
-0.764894 -0.273251 0.016667
-0.763283 -0.276570 0.000000
-0.761760 -0.278734 -0.016667
-0.760745 -0.279868 -0.033333
-0.753315 -0.254513 0.033333
-0.755073 -0.258717 0.016667
-0.754825 -0.262265 0.000000
-0.754123 -0.264271 -0.016667
-0.753718 -0.265538 -0.033333
-0.739551 -0.241404 0.033333
-0.744452 -0.245195 0.016667
-0.745666 -0.248298 0.000000
-0.746031 -0.250529 -0.016667
-0.746332 -0.251342 -0.033333
-0.722193 -0.232035 0.033333
-0.729513 -0.233412 0.016667
-0.734939 -0.236078 0.000000
-0.737888 -0.236814 -0.016667
-0.739047 -0.237605 -0.033333
-0.716373 -0.220366 0.033333
-0.723426 -0.222628 0.016667
-0.728530 -0.222845 0.000000
-0.731015 -0.223500 -0.016667
-0.732495 -0.223637 -0.033333
-0.711510 -0.210262 0.033333
-0.718531 -0.209674 0.016667
-0.722966 -0.209896 0.000000
-0.725308 -0.209590 -0.016667
-0.726796 -0.209726 -0.033333
-0.708480 -0.198136 0.033333
-0.714189 -0.196701 0.016667
-0.718518 -0.195876 0.000000
-0.720486 -0.195736 -0.016667
-0.721895 -0.195386 -0.033333
-0.706145 -0.184807 0.033333
-0.710970 -0.182940 0.016667
-0.714713 -0.181703 0.000000
-0.716562 -0.181329 -0.016667
-0.717771 -0.181001 -0.033333
-0.704426 -0.170488 0.033333
-0.708439 -0.168544 0.016667
-0.711701 -0.167140 0.000000
-0.713321 -0.166696 -0.016667
-0.714386 -0.166320 -0.033333
-0.703188 -0.155692 0.033333
-0.706493 -0.153714 0.016667
-0.709294 -0.152291 0.000000
-0.710726 -0.151815 -0.016667
-0.711623 -0.151455 -0.033333
-0.702400 -0.140355 0.033333
-0.705069 -0.138577 0.016667
-0.707401 -0.137217 0.000000
-0.708662 -0.136749 -0.016667
-0.709386 -0.136437 -0.033333
-0.701856 -0.124712 0.033333
-0.704018 -0.123188 0.016667
-0.705935 -0.121979 0.000000
-0.706985 -0.121565 -0.016667
-0.707600 -0.121298 -0.033333
-0.701407 -0.108879 0.033333
-0.703134 -0.107603 0.016667
-0.704706 -0.106655 0.000000
-0.705637 -0.106302 -0.016667
-0.706115 -0.106088 -0.033333
-0.700810 -0.092895 0.033333
-0.702267 -0.092012 0.016667
-0.703650 -0.091276 0.000000
-0.704471 -0.091000 -0.016667
-0.704880 -0.090848 -0.033333
-0.700074 -0.077042 0.033333
-0.701403 -0.076393 0.016667
-0.702667 -0.075899 0.000000
-0.703434 -0.075698 -0.016667
-0.703800 -0.075587 -0.033333
-0.699204 -0.061185 0.033333
-0.700484 -0.060846 0.016667
-0.701718 -0.060546 0.000000
-0.702473 -0.060399 -0.016667
-0.702821 -0.060341 -0.033333
-0.698105 -0.045502 0.033333
-0.699508 -0.045356 0.016667
-0.700796 -0.045220 0.000000
-0.701545 -0.045134 -0.016667
-0.701926 -0.045093 -0.033333
-0.697004 -0.030033 0.033333
-0.698483 -0.029939 0.016667
-0.699877 -0.029941 0.000000
-0.700681 -0.029884 -0.016667
-0.701059 -0.029864 -0.033333
-0.695956 -0.014565 0.033333
-0.697531 -0.014649 0.016667
-0.699024 -0.014663 0.000000
-0.699839 -0.014656 -0.016667
-0.700253 -0.014648 -0.033333
-0.695037 0.000729 0.033333
-0.696696 0.000688 0.016667
-0.698212 0.000583 0.000000
-0.699053 0.000562 -0.016667
-0.699485 0.000565 -0.033333
-0.694275 0.016159 0.033333
-0.695901 0.015996 0.016667
-0.697461 0.015840 0.000000
-0.698319 0.015774 -0.016667
-0.698755 0.015773 -0.033333
-0.693499 0.031609 0.033333
-0.695173 0.031336 0.016667
-0.696758 0.031088 0.000000
-0.697634 0.030992 -0.016667
-0.698078 0.030977 -0.033333
-0.692758 0.047100 0.033333
-0.694473 0.046688 0.016667
-0.696109 0.046342 0.000000
-0.697006 0.046210 -0.016667
-0.697456 0.046183 -0.033333
-0.692015 0.062608 0.033333
-0.693818 0.062050 0.016667
-0.695519 0.061597 0.000000
-0.696442 0.061431 -0.016667
-0.696904 0.061391 -0.033333
-0.691295 0.078136 0.033333
-0.693209 0.077417 0.016667
-0.695002 0.076850 0.000000
-0.695960 0.076650 -0.016667
-0.696439 0.076598 -0.033333
-0.690597 0.093669 0.033333
-0.692670 0.092776 0.016667
-0.694581 0.092094 0.000000
-0.695582 0.091866 -0.016667
-0.696085 0.091800 -0.033333
-0.689942 0.109191 0.033333
-0.692218 0.108119 0.016667
-0.694283 0.107317 0.000000
-0.695338 0.107067 -0.016667
-0.695873 0.106990 -0.033333
-0.689353 0.124669 0.033333
-0.691894 0.123410 0.016667
-0.694145 0.122503 0.000000
-0.695264 0.122242 -0.016667
-0.695840 0.122154 -0.033333
-0.688858 0.140057 0.033333
-0.691728 0.138630 0.016667
-0.694208 0.137627 0.000000
-0.695402 0.137370 -0.016667
-0.696027 0.137278 -0.033333
-0.688504 0.155279 0.033333
-0.691781 0.153704 0.016667
-0.694526 0.152656 0.000000
-0.695796 0.152429 -0.016667
-0.696478 0.152336 -0.033333
-0.688328 0.170239 0.033333
-0.692100 0.168592 0.016667
-0.695145 0.167546 0.000000
-0.696499 0.167381 -0.016667
-0.697240 0.167309 -0.033333
-0.688425 0.184793 0.033333
-0.692757 0.183162 0.016667
-0.696136 0.182250 0.000000
-0.697550 0.182202 -0.016667
-0.698352 0.182157 -0.033333
-0.688837 0.198788 0.033333
-0.693864 0.197364 0.016667
-0.697523 0.196725 0.000000
-0.699010 0.196833 -0.016667
-0.699843 0.196890 -0.033333
-0.689823 0.211960 0.033333
-0.695484 0.211008 0.016667
-0.699446 0.210917 0.000000
-0.700872 0.211309 -0.016667
-0.701749 0.211429 -0.033333
-0.691335 0.224312 0.033333
-0.698010 0.224123 0.016667
-0.701707 0.225013 0.000000
-0.703281 0.225387 -0.016667
-0.704026 0.226002 -0.033333
-0.694287 0.235130 0.033333
-0.700716 0.237318 0.016667
-0.704793 0.238272 0.000000
-0.706113 0.239622 -0.016667
-0.706631 0.240264 -0.033333
-0.697845 0.246885 0.033333
-0.704337 0.248608 0.016667
-0.708327 0.251995 0.000000
-0.709568 0.253485 -0.016667
-0.709485 0.254651 -0.033333
-0.711893 0.257740 0.033333
-0.715204 0.261779 0.016667
-0.714449 0.265205 0.000000
-0.713228 0.267833 -0.016667
-0.712366 0.268927 -0.033333
-0.721017 0.272318 0.033333
-0.720980 0.276287 0.016667
-0.718869 0.279788 0.000000
-0.716321 0.282072 -0.016667
-0.714626 0.283580 -0.033333
-0.727183 0.288216 0.033333
-0.725091 0.291396 0.016667
-0.721599 0.294469 0.000000
-0.718216 0.296863 -0.016667
-0.715860 0.298169 -0.033333
-0.730183 0.304595 0.033333
-0.726995 0.306957 0.016667
-0.722588 0.309527 0.000000
-0.718396 0.311681 -0.016667
-0.715752 0.313032 -0.033333
-0.729678 0.320833 0.033333
-0.725873 0.322272 0.016667
-0.721088 0.324394 0.000000
-0.716804 0.326702 -0.016667
-0.713987 0.327893 -0.033333
-0.725732 0.337025 0.033333
-0.721922 0.338011 0.016667
-0.717225 0.339612 0.000000
-0.713100 0.341604 -0.016667
-0.710623 0.342903 -0.033333
-0.718077 0.352747 0.033333
-0.714534 0.352919 0.016667
-0.710564 0.354349 0.000000
-0.707498 0.356784 -0.016667
-0.705771 0.357938 -0.033333
-0.706303 0.368594 0.033333
-0.703439 0.368311 0.016667
-0.700827 0.369568 0.000000
-0.700225 0.371960 -0.016667
-0.700089 0.373274 -0.033333
-0.690399 0.384596 0.033333
-0.688408 0.383682 0.016667
-0.687503 0.385010 0.000000
-0.692145 0.387584 -0.016667
-0.694713 0.388847 -0.033333
-0.683064 -0.486906 0.033333
-0.695023 -0.498021 0.016667
-0.703978 -0.502280 0.000000
-0.708316 -0.504910 -0.016667
-0.711367 -0.506570 -0.033333
-0.709096 -0.474666 0.033333
-0.713546 -0.483164 0.016667
-0.715808 -0.487984 0.000000
-0.717229 -0.489572 -0.016667
-0.718408 -0.491267 -0.033333
-0.730954 -0.463816 0.033333
-0.729545 -0.469962 0.016667
-0.727594 -0.473917 0.000000
-0.726955 -0.475160 -0.016667
-0.726734 -0.476419 -0.033333
-0.747754 -0.453690 0.033333
-0.742906 -0.457408 0.016667
-0.738578 -0.460066 0.000000
-0.736418 -0.461089 -0.016667
-0.735244 -0.461915 -0.033333
-0.759782 -0.442501 0.033333
-0.753607 -0.444572 0.016667
-0.748173 -0.446193 0.000000
-0.745000 -0.446974 -0.016667
-0.743208 -0.447532 -0.033333
-0.768138 -0.429836 0.033333
-0.761931 -0.430981 0.016667
-0.756143 -0.432021 0.000000
-0.752353 -0.432644 -0.016667
-0.750167 -0.433030 -0.033333
-0.774081 -0.415490 0.033333
-0.768209 -0.416551 0.016667
-0.762378 -0.417458 0.000000
-0.758278 -0.417973 -0.016667
-0.755891 -0.418288 -0.033333
-0.778167 -0.400400 0.033333
-0.772616 -0.401488 0.016667
-0.766899 -0.402412 0.000000
-0.762715 -0.402959 -0.016667
-0.760236 -0.403286 -0.033333
-0.780521 -0.384639 0.033333
-0.775302 -0.385888 0.016667
-0.769786 -0.386994 0.000000
-0.765628 -0.387663 -0.016667
-0.763129 -0.388042 -0.033333
-0.781265 -0.368487 0.033333
-0.776370 -0.369968 0.016667
-0.771079 -0.371311 0.000000
-0.767009 -0.372159 -0.016667
-0.764550 -0.372639 -0.033333
-0.780462 -0.352088 0.033333
-0.775843 -0.353833 0.016667
-0.770802 -0.355490 0.000000
-0.766881 -0.356564 -0.016667
-0.764485 -0.357162 -0.033333
-0.777983 -0.335504 0.033333
-0.773729 -0.337641 0.016667
-0.768989 -0.339657 0.000000
-0.765244 -0.340978 -0.016667
-0.762968 -0.341721 -0.033333
-0.773907 -0.318959 0.033333
-0.769997 -0.321486 0.016667
-0.765614 -0.323925 0.000000
-0.762157 -0.325524 -0.016667
-0.760026 -0.326405 -0.033333
-0.767874 -0.302369 0.033333
-0.764572 -0.305513 0.016667
-0.760740 -0.308432 0.000000
-0.757634 -0.310283 -0.016667
-0.755764 -0.311325 -0.033333
-0.759866 -0.286119 0.033333
-0.757418 -0.289866 0.016667
-0.754321 -0.293269 0.000000
-0.751833 -0.295395 -0.016667
-0.750265 -0.296501 -0.033333
-0.749316 -0.270219 0.033333
-0.748454 -0.274758 0.016667
-0.746575 -0.278680 0.000000
-0.744847 -0.280818 -0.016667
-0.743770 -0.282087 -0.033333
-0.735853 -0.255388 0.033333
-0.737959 -0.260712 0.016667
-0.737617 -0.264424 0.000000
-0.737012 -0.266956 -0.016667
-0.736505 -0.267754 -0.033333
-0.718800 -0.244179 0.033333
-0.726632 -0.246832 0.016667
-0.727929 -0.251921 0.000000
-0.728602 -0.252756 -0.016667
-0.728900 -0.254350 -0.033333
-0.696473 -0.235835 0.033333
-0.708130 -0.239278 0.016667
-0.716299 -0.238677 0.000000
-0.720037 -0.240267 -0.016667
-0.721669 -0.239866 -0.033333
-0.692784 -0.229356 0.033333
-0.704438 -0.226090 0.016667
-0.710022 -0.226943 0.000000
-0.713261 -0.226011 -0.016667
-0.715034 -0.226612 -0.033333
-0.691019 -0.217593 0.033333
-0.699905 -0.214116 0.016667
-0.705226 -0.212871 0.000000
-0.707613 -0.212731 -0.016667
-0.709437 -0.212191 -0.033333
-0.689452 -0.204151 0.033333
-0.696522 -0.200767 0.016667
-0.700907 -0.198948 0.000000
-0.703125 -0.198510 -0.016667
-0.704630 -0.198026 -0.033333
-0.688229 -0.189602 0.033333
-0.693734 -0.186449 0.016667
-0.697478 -0.184555 0.000000
-0.699357 -0.184043 -0.016667
-0.700671 -0.183480 -0.033333
-0.687102 -0.174466 0.033333
-0.691498 -0.171662 0.016667
-0.694675 -0.169807 0.000000
-0.696301 -0.169235 -0.016667
-0.697401 -0.168743 -0.033333
-0.686077 -0.158970 0.033333
-0.689769 -0.156513 0.016667
-0.692452 -0.154765 0.000000
-0.693816 -0.154209 -0.016667
-0.694748 -0.153765 -0.033333
-0.685569 -0.143524 0.033333
-0.688417 -0.141108 0.016667
-0.690715 -0.139490 0.000000
-0.691823 -0.139020 -0.016667
-0.692585 -0.138604 -0.033333
-0.685591 -0.127535 0.033333
-0.687609 -0.125450 0.016667
-0.689244 -0.124100 0.000000
-0.690258 -0.123672 -0.016667
-0.690784 -0.123349 -0.033333
-0.685312 -0.111101 0.033333
-0.686722 -0.109716 0.016667
-0.688097 -0.108605 0.000000
-0.688898 -0.108250 -0.016667
-0.689334 -0.108012 -0.033333
-0.684614 -0.094919 0.033333
-0.685874 -0.093878 0.016667
-0.687026 -0.093081 0.000000
-0.687734 -0.092793 -0.016667
-0.688086 -0.092625 -0.033333
-0.683798 -0.078806 0.033333
-0.684947 -0.078104 0.016667
-0.686013 -0.077542 0.000000
-0.686672 -0.077332 -0.016667
-0.686987 -0.077222 -0.033333
-0.682895 -0.062850 0.033333
-0.683953 -0.062363 0.016667
-0.685017 -0.062028 0.000000
-0.685674 -0.061891 -0.016667
-0.685983 -0.061809 -0.033333
-0.681728 -0.046811 0.033333
-0.682905 -0.046712 0.016667
-0.684006 -0.046578 0.000000
-0.684737 -0.046441 -0.016667
-0.685036 -0.046435 -0.033333
-0.680158 -0.031013 0.033333
-0.681736 -0.031209 0.016667
-0.683103 -0.031105 0.000000
-0.683788 -0.031050 -0.016667
-0.684186 -0.031046 -0.033333
-0.678998 -0.015745 0.033333
-0.680789 -0.015622 0.016667
-0.682188 -0.015691 0.000000
-0.682934 -0.015664 -0.016667
-0.683350 -0.015671 -0.033333
-0.678280 -0.000090 0.033333
-0.679910 -0.000142 0.016667
-0.681364 -0.000245 0.000000
-0.682135 -0.000305 -0.016667
-0.682555 -0.000296 -0.033333
-0.677493 0.015607 0.033333
-0.679151 0.015403 0.016667
-0.680597 0.015167 0.000000
-0.681389 0.015073 -0.016667
-0.681816 0.015056 -0.033333
-0.676762 0.031344 0.033333
-0.678417 0.030960 0.016667
-0.679891 0.030591 0.000000
-0.680698 0.030442 -0.016667
-0.681128 0.030413 -0.033333
-0.676011 0.047101 0.033333
-0.677728 0.046530 0.016667
-0.679238 0.046013 0.000000
-0.680063 0.045816 -0.016667
-0.680500 0.045767 -0.033333
-0.675280 0.062880 0.033333
-0.677068 0.062107 0.016667
-0.678642 0.061436 0.000000
-0.679494 0.061189 -0.016667
-0.679939 0.061121 -0.033333
-0.674547 0.078674 0.033333
-0.676460 0.077682 0.016667
-0.678116 0.076853 0.000000
-0.679001 0.076560 -0.016667
-0.679465 0.076470 -0.033333
-0.673831 0.094480 0.033333
-0.675906 0.093253 0.016667
-0.677677 0.092259 0.000000
-0.678609 0.091922 -0.016667
-0.679095 0.091812 -0.033333
-0.673131 0.110286 0.033333
-0.675436 0.108800 0.016667
-0.677351 0.107641 0.000000
-0.678338 0.107269 -0.016667
-0.678861 0.107134 -0.033333
-0.672458 0.126073 0.033333
-0.675061 0.124315 0.016667
-0.677166 0.122986 0.000000
-0.678223 0.122583 -0.016667
-0.678790 0.122426 -0.033333
-0.671825 0.141808 0.033333
-0.674828 0.139752 0.016667
-0.677157 0.138268 0.000000
-0.678297 0.137850 -0.016667
-0.678923 0.137666 -0.033333
-0.671240 0.157443 0.033333
-0.674747 0.155096 0.016667
-0.677364 0.153459 0.000000
-0.678601 0.153039 -0.016667
-0.679297 0.152836 -0.033333
-0.670732 0.172906 0.033333
-0.674889 0.170254 0.016667
-0.677830 0.168522 0.000000
-0.679177 0.168124 -0.016667
-0.679952 0.167900 -0.033333
-0.670299 0.188105 0.033333
-0.675271 0.185206 0.016667
-0.678600 0.183406 0.000000
-0.680069 0.183061 -0.016667
-0.680929 0.182843 -0.033333
-0.670011 0.202891 0.033333
-0.675981 0.199761 0.016667
-0.679738 0.198072 0.000000
-0.681316 0.197819 -0.016667
-0.682267 0.197615 -0.033333
-0.669822 0.217059 0.033333
-0.677125 0.213896 0.016667
-0.681267 0.212455 0.000000
-0.682989 0.212319 -0.016667
-0.683985 0.212273 -0.033333
-0.669986 0.230196 0.033333
-0.678735 0.227114 0.016667
-0.683395 0.226532 0.000000
-0.685056 0.226627 -0.016667
-0.686137 0.226691 -0.033333
-0.670188 0.242042 0.033333
-0.681438 0.239367 0.016667
-0.685660 0.240751 0.000000
-0.687852 0.240231 -0.016667
-0.688614 0.241401 -0.033333
-0.672230 0.249726 0.033333
-0.682867 0.253024 0.016667
-0.689298 0.252955 0.000000
-0.691226 0.254871 -0.016667
-0.691473 0.255144 -0.033333
-0.692085 0.259150 0.033333
-0.697543 0.262446 0.016667
-0.696034 0.267026 0.000000
-0.695173 0.268221 -0.016667
-0.694266 0.269878 -0.033333
-0.703819 0.272041 0.033333
-0.703504 0.276792 0.016667
-0.700915 0.280246 0.000000
-0.698517 0.282854 -0.016667
-0.696684 0.283826 -0.033333
-0.711284 0.287791 0.033333
-0.708393 0.291451 0.016667
-0.704187 0.294813 0.000000
-0.700489 0.297081 -0.016667
-0.698136 0.298492 -0.033333
-0.714513 0.304238 0.033333
-0.710321 0.306731 0.016667
-0.705183 0.309427 0.000000
-0.700901 0.311792 -0.016667
-0.698114 0.313049 -0.033333
-0.713896 0.320675 0.033333
-0.709390 0.322386 0.016667
-0.703934 0.324430 0.000000
-0.699327 0.326524 -0.016667
-0.696524 0.327833 -0.033333
-0.709781 0.336784 0.033333
-0.705203 0.337522 0.016667
-0.700029 0.339184 0.000000
-0.695822 0.341513 -0.016667
-0.693279 0.342694 -0.033333
-0.701786 0.352815 0.033333
-0.697761 0.353016 0.016667
-0.693474 0.354309 0.000000
-0.690373 0.356533 -0.016667
-0.688672 0.357779 -0.033333
-0.690025 0.368728 0.033333
-0.686874 0.368311 0.016667
-0.684078 0.369489 0.000000
-0.683365 0.371881 -0.016667
-0.683259 0.373051 -0.033333
-0.674094 0.384681 0.033333
-0.671998 0.383730 0.016667
-0.671057 0.385019 0.000000
-0.675627 0.387463 -0.016667
-0.678260 0.388644 -0.033333
-0.665980 -0.486691 0.033333
-0.678471 -0.497428 0.016667
-0.687722 -0.501007 0.000000
-0.692380 -0.503448 -0.016667
-0.695520 -0.504957 -0.033333
-0.691268 -0.473634 0.033333
-0.696299 -0.481954 0.016667
-0.699066 -0.486427 0.000000
-0.700699 -0.487968 -0.016667
-0.701996 -0.489626 -0.033333
-0.712543 -0.461336 0.033333
-0.711863 -0.467904 0.016667
-0.710526 -0.472038 0.000000
-0.710033 -0.473344 -0.016667
-0.709920 -0.474651 -0.033333
-0.729428 -0.449789 0.033333
-0.725213 -0.454658 0.016667
-0.721346 -0.457919 0.000000
-0.719293 -0.459104 -0.016667
-0.718192 -0.460052 -0.033333
-0.742016 -0.438274 0.033333
-0.736158 -0.441536 0.016667
-0.730923 -0.443927 0.000000
-0.727796 -0.444968 -0.016667
-0.726039 -0.445662 -0.033333
-0.751078 -0.425758 0.033333
-0.744777 -0.428073 0.016667
-0.738935 -0.429863 0.000000
-0.735145 -0.430746 -0.016667
-0.732974 -0.431297 -0.033333
-0.757425 -0.412345 0.033333
-0.751275 -0.414096 0.016667
-0.745272 -0.415541 0.000000
-0.741122 -0.416347 -0.016667
-0.738704 -0.416817 -0.033333
-0.761708 -0.397906 0.033333
-0.755868 -0.399549 0.016667
-0.749920 -0.400931 0.000000
-0.745614 -0.401716 -0.016667
-0.743075 -0.402165 -0.033333
-0.764243 -0.382924 0.033333
-0.758717 -0.384581 0.016667
-0.752911 -0.386013 0.000000
-0.748585 -0.386868 -0.016667
-0.746006 -0.387350 -0.033333
-0.765186 -0.367477 0.033333
-0.759913 -0.369263 0.016667
-0.754294 -0.370873 0.000000
-0.750027 -0.371862 -0.016667
-0.747453 -0.372407 -0.033333
-0.764482 -0.351725 0.033333
-0.759522 -0.353751 0.016667
-0.754108 -0.355601 0.000000
-0.749934 -0.356768 -0.016667
-0.747420 -0.357410 -0.033333
-0.762319 -0.335803 0.033333
-0.757533 -0.338122 0.016667
-0.752344 -0.340301 0.000000
-0.748342 -0.341685 -0.016667
-0.745905 -0.342434 -0.033333
-0.758262 -0.319723 0.033333
-0.753921 -0.322519 0.016667
-0.749042 -0.325082 0.000000
-0.745242 -0.326694 -0.016667
-0.742969 -0.327572 -0.033333
-0.752697 -0.303703 0.033333
-0.748610 -0.307020 0.016667
-0.744132 -0.310051 0.000000
-0.740724 -0.311908 -0.016667
-0.738651 -0.312876 -0.033333
-0.744464 -0.287733 0.033333
-0.741461 -0.291813 0.016667
-0.737704 -0.295357 0.000000
-0.734808 -0.297364 -0.016667
-0.733116 -0.298463 -0.033333
-0.734259 -0.272135 0.033333
-0.732369 -0.277103 0.016667
-0.729660 -0.280996 0.000000
-0.727738 -0.283308 -0.016667
-0.726485 -0.284199 -0.033333
-0.719124 -0.258250 0.033333
-0.721268 -0.262753 0.016667
-0.720351 -0.267659 0.000000
-0.719647 -0.269400 -0.016667
-0.719147 -0.270368 -0.033333
-0.699620 -0.247040 0.033333
-0.707671 -0.252392 0.016667
-0.709860 -0.254471 0.000000
-0.711093 -0.256341 -0.016667
-0.711381 -0.256258 -0.033333
-0.673740 -0.258641 0.033333
-0.687864 -0.241441 0.016667
-0.697688 -0.244598 0.000000
-0.702636 -0.241421 -0.016667
-0.703703 -0.243906 -0.033333
-0.672986 -0.242530 0.033333
-0.685183 -0.231355 0.016667
-0.691564 -0.229731 0.000000
-0.695689 -0.229050 -0.016667
-0.697354 -0.229070 -0.033333
-0.672233 -0.226419 0.033333
-0.682825 -0.218507 0.016667
-0.686805 -0.216039 0.000000
-0.690412 -0.215080 -0.016667
-0.691744 -0.215010 -0.033333
-0.671479 -0.210307 0.033333
-0.679975 -0.204067 0.016667
-0.683060 -0.201793 0.000000
-0.686078 -0.200895 -0.016667
-0.687128 -0.200525 -0.033333
-0.670725 -0.194196 0.033333
-0.677365 -0.189259 0.016667
-0.679972 -0.187091 0.000000
-0.682527 -0.186286 -0.016667
-0.683339 -0.185886 -0.033333
-0.669972 -0.178084 0.033333
-0.675267 -0.174025 0.016667
-0.677468 -0.172101 0.000000
-0.679601 -0.171388 -0.016667
-0.680257 -0.170972 -0.033333
-0.669218 -0.161973 0.033333
-0.673508 -0.158596 0.016667
-0.675475 -0.156884 0.000000
-0.677218 -0.156231 -0.016667
-0.677747 -0.155883 -0.033333
-0.668464 -0.145861 0.033333
-0.672304 -0.142977 0.016667
-0.673917 -0.141471 0.000000
-0.675256 -0.140921 -0.016667
-0.675732 -0.140609 -0.033333
-0.669891 -0.129301 0.033333
-0.671210 -0.127282 0.016667
-0.672734 -0.125887 0.000000
-0.673608 -0.125520 -0.016667
-0.674102 -0.125187 -0.033333
-0.669289 -0.112819 0.033333
-0.670524 -0.111381 0.016667
-0.671584 -0.110300 0.000000
-0.672299 -0.109977 -0.016667
-0.672666 -0.109745 -0.033333
-0.668569 -0.096535 0.033333
-0.669592 -0.095472 0.016667
-0.670541 -0.094664 0.000000
-0.671128 -0.094405 -0.016667
-0.671428 -0.094247 -0.033333
-0.667661 -0.080386 0.033333
-0.668613 -0.079602 0.016667
-0.669502 -0.079021 0.000000
-0.670050 -0.078832 -0.016667
-0.670316 -0.078721 -0.033333
-0.666588 -0.064353 0.033333
-0.667587 -0.063793 0.016667
-0.668446 -0.063403 0.000000
-0.669032 -0.063259 -0.016667
-0.669288 -0.063198 -0.033333
-0.665590 -0.048471 0.033333
-0.666364 -0.048076 0.016667
-0.667425 -0.047783 0.000000
-0.668049 -0.047727 -0.016667
-0.668322 -0.047661 -0.033333
-0.663189 -0.033084 0.033333
-0.665388 -0.032237 0.016667
-0.666345 -0.032286 0.000000
-0.667167 -0.032137 -0.016667
-0.667371 -0.032197 -0.033333
-0.662435 -0.016973 0.033333
-0.664323 -0.016665 0.016667
-0.665429 -0.016646 0.000000
-0.666287 -0.016671 -0.016667
-0.666510 -0.016650 -0.033333
-0.661682 -0.000861 0.033333
-0.663499 -0.000950 0.016667
-0.664578 -0.001097 0.000000
-0.665470 -0.001146 -0.016667
-0.665706 -0.001167 -0.033333
-0.660928 0.015250 0.033333
-0.662733 0.014774 0.016667
-0.663810 0.014476 0.000000
-0.664713 0.014354 -0.016667
-0.664952 0.014329 -0.033333
-0.660174 0.031361 0.033333
-0.662007 0.030512 0.016667
-0.663099 0.030040 0.000000
-0.664012 0.029863 -0.016667
-0.664256 0.029811 -0.033333
-0.659421 0.047473 0.033333
-0.661313 0.046251 0.016667
-0.662438 0.045605 0.000000
-0.663372 0.045366 -0.016667
-0.663615 0.045295 -0.033333
-0.658667 0.063584 0.033333
-0.660659 0.061988 0.016667
-0.661831 0.061164 0.000000
-0.662795 0.060868 -0.016667
-0.663043 0.060773 -0.033333
-0.657914 0.079696 0.033333
-0.660047 0.077723 0.016667
-0.661286 0.076712 0.000000
-0.662296 0.076361 -0.016667
-0.662548 0.076245 -0.033333
-0.657160 0.095807 0.033333
-0.659500 0.093443 0.016667
-0.660819 0.092245 0.000000
-0.661890 0.091843 -0.016667
-0.662153 0.091702 -0.033333
-0.656406 0.111919 0.033333
-0.659020 0.109150 0.016667
-0.660448 0.107752 0.000000
-0.661602 0.107303 -0.016667
-0.661876 0.107139 -0.033333
-0.655653 0.128030 0.033333
-0.658648 0.124818 0.016667
-0.660197 0.123221 0.000000
-0.661455 0.122731 -0.016667
-0.661749 0.122539 -0.033333
-0.654899 0.144142 0.033333
-0.658377 0.140449 0.016667
-0.660092 0.138634 0.000000
-0.661484 0.138105 -0.016667
-0.661799 0.137891 -0.033333
-0.654145 0.160253 0.033333
-0.658279 0.155995 0.016667
-0.660162 0.153966 0.000000
-0.661717 0.153408 -0.016667
-0.662063 0.153165 -0.033333
-0.653391 0.176365 0.033333
-0.658321 0.171462 0.016667
-0.660447 0.169188 0.000000
-0.662193 0.168601 -0.016667
-0.662577 0.168345 -0.033333
-0.652638 0.192476 0.033333
-0.658633 0.186752 0.016667
-0.660977 0.184268 0.000000
-0.662948 0.183658 -0.016667
-0.663380 0.183390 -0.033333
-0.651884 0.208587 0.033333
-0.659125 0.201912 0.016667
-0.661814 0.199150 0.000000
-0.664016 0.198526 -0.016667
-0.664521 0.198299 -0.033333
-0.651130 0.224699 0.033333
-0.660019 0.216700 0.016667
-0.662999 0.213812 0.000000
-0.665435 0.213175 -0.016667
-0.666054 0.213008 -0.033333
-0.650376 0.240810 0.033333
-0.660941 0.231240 0.016667
-0.664583 0.228067 0.000000
-0.667286 0.227506 -0.016667
-0.668039 0.227660 -0.033333
-0.649623 0.256922 0.033333
-0.661180 0.244027 0.016667
-0.666881 0.241892 0.000000
-0.669712 0.241771 -0.016667
-0.670482 0.241999 -0.033333
-0.648869 0.273033 0.033333
-0.662029 0.254020 0.016667
-0.670456 0.257074 0.000000
-0.673149 0.254716 -0.016667
-0.673115 0.257103 -0.033333
-0.672867 0.262059 0.033333
-0.678014 0.266706 0.016667
-0.677232 0.268101 0.000000
-0.677038 0.270223 -0.016667
-0.676122 0.269998 -0.033333
-0.687491 0.274184 0.033333
-0.686654 0.278432 0.016667
-0.682808 0.282039 0.000000
-0.680403 0.283713 -0.016667
-0.678670 0.284734 -0.033333
-0.696221 0.289525 0.033333
-0.691601 0.293098 0.016667
-0.686369 0.295866 0.000000
-0.682593 0.297998 -0.016667
-0.680161 0.299001 -0.033333
-0.698789 0.305746 0.033333
-0.693660 0.308103 0.016667
-0.687646 0.310344 0.000000
-0.683063 0.312330 -0.016667
-0.680297 0.313535 -0.033333
-0.697964 0.321806 0.033333
-0.692378 0.323054 0.016667
-0.686346 0.324819 0.000000
-0.681679 0.326987 -0.016667
-0.678818 0.328126 -0.033333
-0.693274 0.337794 0.033333
-0.688140 0.338325 0.016667
-0.682579 0.339662 0.000000
-0.678294 0.341731 -0.016667
-0.675783 0.342940 -0.033333
-0.685199 0.353504 0.033333
-0.680773 0.353372 0.016667
-0.676260 0.354500 0.000000
-0.673087 0.356771 -0.016667
-0.671398 0.357920 -0.033333
-0.673350 0.369152 0.033333
-0.670039 0.368592 0.016667
-0.667151 0.369644 0.000000
-0.666379 0.372003 -0.016667
-0.666299 0.373171 -0.033333
-0.657613 0.384844 0.033333
-0.655472 0.383814 0.016667
-0.654553 0.385076 0.000000
-0.658962 0.387557 -0.016667
-0.661622 0.388640 -0.033333
-0.649066 -0.486621 0.033333
-0.661864 -0.497145 0.016667
-0.671261 -0.500224 0.000000
-0.676157 -0.502485 -0.016667
-0.679368 -0.503863 -0.033333
-0.673655 -0.473159 0.033333
-0.679014 -0.481313 0.016667
-0.682108 -0.485503 0.000000
-0.683922 -0.486956 -0.016667
-0.685329 -0.488578 -0.033333
-0.694254 -0.460065 0.033333
-0.694068 -0.466786 0.016667
-0.693170 -0.470892 0.000000
-0.692840 -0.472209 -0.016667
-0.692825 -0.473541 -0.033333
-0.710770 -0.447566 0.033333
-0.707166 -0.453012 0.016667
-0.703743 -0.456572 0.000000
-0.701819 -0.457852 -0.016667
-0.700797 -0.458864 -0.033333
-0.723545 -0.435337 0.033333
-0.718129 -0.439564 0.016667
-0.713195 -0.442469 0.000000
-0.710164 -0.443660 -0.016667
-0.708465 -0.444459 -0.033333
-0.733015 -0.422936 0.033333
-0.726902 -0.426077 0.016667
-0.721191 -0.428415 0.000000
-0.717449 -0.429509 -0.016667
-0.715308 -0.430167 -0.033333
-0.739812 -0.409774 0.033333
-0.733608 -0.412310 0.016667
-0.727577 -0.414285 0.000000
-0.723423 -0.415287 -0.016667
-0.721011 -0.415868 -0.033333
-0.744434 -0.396054 0.033333
-0.738406 -0.398205 0.016667
-0.732315 -0.399970 0.000000
-0.727954 -0.400948 -0.016667
-0.725390 -0.401495 -0.033333
-0.747245 -0.381685 0.033333
-0.741438 -0.383733 0.016667
-0.735418 -0.385475 0.000000
-0.730982 -0.386474 -0.016667
-0.728347 -0.387023 -0.033333
-0.748381 -0.366940 0.033333
-0.742825 -0.369003 0.016667
-0.736918 -0.370810 0.000000
-0.732484 -0.371891 -0.016667
-0.729839 -0.372479 -0.033333
-0.748040 -0.351871 0.033333
-0.742604 -0.354070 0.016667
-0.736833 -0.356051 0.000000
-0.732467 -0.357256 -0.016667
-0.729842 -0.357899 -0.033333
-0.745973 -0.336621 0.033333
-0.740818 -0.339068 0.016667
-0.735192 -0.341276 0.000000
-0.730921 -0.342633 -0.016667
-0.728377 -0.343352 -0.033333
-0.742573 -0.321243 0.033333
-0.737395 -0.324071 0.016667
-0.731958 -0.326594 0.000000
-0.727893 -0.328108 -0.016667
-0.725456 -0.328890 -0.033333
-0.736886 -0.305963 0.033333
-0.732322 -0.309265 0.016667
-0.727165 -0.312112 0.000000
-0.723373 -0.313749 -0.016667
-0.721178 -0.314593 -0.033333
-0.729988 -0.290682 0.033333
-0.725379 -0.294821 0.016667
-0.720722 -0.297967 0.000000
-0.717504 -0.299672 -0.016667
-0.715600 -0.300455 -0.033333
-0.718989 -0.276836 0.033333
-0.716706 -0.281035 0.016667
-0.712739 -0.284427 0.000000
-0.710313 -0.285828 -0.016667
-0.709017 -0.286551 -0.033333
-0.706861 -0.262994 0.033333
-0.705984 -0.269469 0.016667
-0.703074 -0.271209 0.000000
-0.702295 -0.272395 -0.016667
-0.701498 -0.272723 -0.033333
-0.687551 -0.264741 0.033333
-0.691645 -0.258652 0.016667
-0.692366 -0.258612 0.000000
-0.693371 -0.259276 -0.016667
-0.693938 -0.258792 -0.033333
-0.657629 -0.259395 0.033333
-0.671234 -0.249786 0.016667
-0.680190 -0.246437 0.000000
-0.684742 -0.245412 -0.016667
-0.686466 -0.245646 -0.033333
-0.656875 -0.243284 0.033333
-0.666178 -0.234003 0.016667
-0.673958 -0.233187 0.000000
-0.678000 -0.231460 -0.016667
-0.679928 -0.231693 -0.033333
-0.656121 -0.227172 0.033333
-0.664696 -0.219728 0.016667
-0.669380 -0.218614 0.000000
-0.672822 -0.217654 -0.016667
-0.674510 -0.217132 -0.033333
-0.655367 -0.211061 0.033333
-0.662418 -0.205581 0.016667
-0.665990 -0.203921 0.000000
-0.668660 -0.203156 -0.016667
-0.670076 -0.202649 -0.033333
-0.654614 -0.194949 0.033333
-0.660361 -0.190673 0.016667
-0.663152 -0.189041 0.000000
-0.665320 -0.188344 -0.016667
-0.666450 -0.187869 -0.033333
-0.653860 -0.178838 0.033333
-0.658456 -0.175437 0.016667
-0.660830 -0.173895 0.000000
-0.662597 -0.173270 -0.016667
-0.663493 -0.172882 -0.033333
-0.653106 -0.162727 0.033333
-0.656923 -0.159911 0.016667
-0.658952 -0.158559 0.000000
-0.660374 -0.158001 -0.016667
-0.661089 -0.157682 -0.033333
-0.652353 -0.146615 0.033333
-0.655820 -0.144173 0.016667
-0.657468 -0.143128 0.000000
-0.658551 -0.142515 -0.016667
-0.659127 -0.142391 -0.033333
-0.653741 -0.130171 0.033333
-0.655027 -0.128536 0.016667
-0.656223 -0.127387 0.000000
-0.657074 -0.127096 -0.016667
-0.657469 -0.126823 -0.033333
-0.653325 -0.114014 0.033333
-0.654273 -0.112655 0.016667
-0.655169 -0.111719 0.000000
-0.655768 -0.111487 -0.016667
-0.656092 -0.111285 -0.033333
-0.652496 -0.097787 0.033333
-0.653367 -0.096765 0.016667
-0.654124 -0.096026 0.000000
-0.654615 -0.095835 -0.016667
-0.654864 -0.095704 -0.033333
-0.651489 -0.081680 0.033333
-0.652339 -0.080880 0.016667
-0.653069 -0.080327 0.000000
-0.653531 -0.080176 -0.016667
-0.653750 -0.080091 -0.033333
-0.650409 -0.065638 0.033333
-0.651217 -0.065053 0.016667
-0.652004 -0.064623 0.000000
-0.652489 -0.064527 -0.016667
-0.652710 -0.064465 -0.033333
-0.648976 -0.049859 0.033333
-0.650055 -0.049217 0.016667
-0.650915 -0.048943 0.000000
-0.651498 -0.048886 -0.016667
-0.651721 -0.048837 -0.033333
-0.647077 -0.033838 0.033333
-0.648864 -0.033445 0.016667
-0.649916 -0.033260 0.000000
-0.650523 -0.033250 -0.016667
-0.650807 -0.033225 -0.033333
-0.646324 -0.017726 0.033333
-0.647875 -0.017599 0.016667
-0.648941 -0.017607 0.000000
-0.649650 -0.017611 -0.016667
-0.649913 -0.017626 -0.033333
-0.645570 -0.001615 0.033333
-0.647057 -0.001761 0.016667
-0.648087 -0.001918 0.000000
-0.648818 -0.002003 -0.016667
-0.649092 -0.002011 -0.033333
-0.644816 0.014496 0.033333
-0.646291 0.014092 0.016667
-0.647313 0.013756 0.000000
-0.648048 0.013617 -0.016667
-0.648328 0.013584 -0.033333
-0.644063 0.030608 0.033333
-0.645557 0.029940 0.016667
-0.646595 0.029432 0.000000
-0.647339 0.029227 -0.016667
-0.647618 0.029179 -0.033333
-0.643309 0.046719 0.033333
-0.644854 0.045781 0.016667
-0.645926 0.045097 0.000000
-0.646684 0.044834 -0.016667
-0.646968 0.044766 -0.033333
-0.642556 0.062831 0.033333
-0.644183 0.061614 0.016667
-0.645309 0.060752 0.000000
-0.646093 0.060431 -0.016667
-0.646381 0.060346 -0.033333
-0.641802 0.078942 0.033333
-0.643558 0.077428 0.016667
-0.644754 0.076392 0.000000
-0.645572 0.076017 -0.016667
-0.645873 0.075914 -0.033333
-0.641048 0.095054 0.033333
-0.642979 0.093225 0.016667
-0.644271 0.092010 0.000000
-0.645138 0.091587 -0.016667
-0.645455 0.091464 -0.033333
-0.640295 0.111165 0.033333
-0.642476 0.108990 0.016667
-0.643878 0.107602 0.000000
-0.644807 0.107133 -0.016667
-0.645153 0.106989 -0.033333
-0.639541 0.127276 0.033333
-0.642043 0.124723 0.016667
-0.643591 0.123155 0.000000
-0.644605 0.122642 -0.016667
-0.644983 0.122480 -0.033333
-0.638787 0.143388 0.033333
-0.641731 0.140397 0.016667
-0.643435 0.138654 0.000000
-0.644549 0.138106 -0.016667
-0.644980 0.137914 -0.033333
-0.638034 0.159499 0.033333
-0.641512 0.156009 0.016667
-0.643434 0.154083 0.000000
-0.644675 0.153495 -0.016667
-0.645165 0.153283 -0.033333
-0.637280 0.175611 0.033333
-0.641481 0.171504 0.016667
-0.643609 0.169416 0.000000
-0.645009 0.168799 -0.016667
-0.645579 0.168548 -0.033333
-0.636526 0.191722 0.033333
-0.641547 0.186874 0.016667
-0.644006 0.184621 0.000000
-0.645580 0.183974 -0.016667
-0.646256 0.183702 -0.033333
-0.635772 0.207834 0.033333
-0.641898 0.201970 0.016667
-0.644620 0.199672 0.000000
-0.646441 0.199004 -0.016667
-0.647239 0.198694 -0.033333
-0.635019 0.223945 0.033333
-0.642238 0.216774 0.016667
-0.645534 0.214495 0.000000
-0.647626 0.213844 -0.016667
-0.648592 0.213553 -0.033333
-0.634265 0.240056 0.033333
-0.642708 0.230779 0.016667
-0.646681 0.229224 0.000000
-0.649320 0.228482 -0.016667
-0.650342 0.228186 -0.033333
-0.633511 0.256168 0.033333
-0.641938 0.245005 0.016667
-0.648761 0.244074 0.000000
-0.651603 0.242449 -0.016667
-0.652557 0.243080 -0.033333
-0.632757 0.272279 0.033333
-0.645192 0.261574 0.016667
-0.652316 0.257545 0.000000
-0.654730 0.256745 -0.016667
-0.655309 0.257538 -0.033333
-0.660282 0.280684 0.033333
-0.660536 0.272636 0.016667
-0.658878 0.270562 0.000000
-0.658624 0.271414 -0.016667
-0.658137 0.271063 -0.033333
-0.674402 0.281971 0.033333
-0.669424 0.284362 0.016667
-0.664482 0.284034 0.000000
-0.662240 0.285212 -0.016667
-0.660467 0.285461 -0.033333
-0.680348 0.295088 0.033333
-0.674480 0.296738 0.016667
-0.668234 0.297868 0.000000
-0.664416 0.299073 -0.016667
-0.662081 0.299883 -0.033333
-0.682674 0.309382 0.033333
-0.676033 0.310553 0.016667
-0.669532 0.311663 0.000000
-0.665022 0.313342 -0.016667
-0.662269 0.314197 -0.033333
-0.680960 0.324528 0.033333
-0.674779 0.324944 0.016667
-0.668400 0.325950 0.000000
-0.663724 0.327685 -0.016667
-0.660955 0.328732 -0.033333
-0.676074 0.339571 0.033333
-0.670495 0.339397 0.016667
-0.664797 0.340309 0.000000
-0.660556 0.342330 -0.016667
-0.658098 0.343400 -0.033333
-0.667833 0.354666 0.033333
-0.663283 0.354150 0.016667
-0.658730 0.354991 0.000000
-0.655607 0.357167 -0.016667
-0.653986 0.358306 -0.033333
-0.656205 0.369753 0.033333
-0.652874 0.368966 0.016667
-0.650027 0.369892 0.000000
-0.649221 0.372316 -0.016667
-0.649181 0.373431 -0.033333
-0.640852 0.385046 0.033333
-0.638748 0.383937 0.016667
-0.637915 0.385169 0.000000
-0.642148 0.387743 -0.016667
-0.644820 0.388800 -0.033333
-0.632245 -0.486626 0.033333
-0.645168 -0.497087 0.016667
-0.654612 -0.499806 0.000000
-0.659667 -0.501903 -0.016667
-0.662932 -0.503169 -0.033333
-0.656165 -0.472983 0.033333
-0.661656 -0.481057 0.016667
-0.664956 -0.485034 0.000000
-0.666930 -0.486390 -0.016667
-0.668428 -0.487980 -0.033333
-0.676059 -0.459474 0.033333
-0.676175 -0.466259 0.016667
-0.675599 -0.470305 0.000000
-0.675421 -0.471596 -0.016667
-0.675500 -0.472936 -0.033333
-0.692060 -0.446419 0.033333
-0.688914 -0.452181 0.016667
-0.685853 -0.455850 0.000000
-0.684075 -0.457173 -0.016667
-0.683135 -0.458227 -0.033333
-0.704639 -0.433728 0.033333
-0.699711 -0.438471 0.016667
-0.695109 -0.441664 0.000000
-0.692197 -0.442953 -0.016667
-0.690566 -0.443810 -0.033333
-0.714294 -0.421043 0.033333
-0.708498 -0.424898 0.016667
-0.703004 -0.427627 0.000000
-0.699352 -0.428838 -0.016667
-0.697263 -0.429573 -0.033333
-0.721397 -0.408181 0.033333
-0.715315 -0.411268 0.016667
-0.709377 -0.413608 0.000000
-0.705272 -0.414755 -0.016667
-0.702889 -0.415408 -0.033333
-0.726355 -0.394794 0.033333
-0.720273 -0.397445 0.016667
-0.714162 -0.399545 0.000000
-0.709802 -0.400640 -0.016667
-0.707245 -0.401247 -0.033333
-0.729452 -0.381064 0.033333
-0.723496 -0.383423 0.016667
-0.717349 -0.385381 0.000000
-0.712864 -0.386471 -0.016667
-0.710216 -0.387061 -0.033333
-0.730924 -0.366930 0.033333
-0.725060 -0.369197 0.016667
-0.718951 -0.371138 0.000000
-0.714428 -0.372255 -0.016667
-0.711738 -0.372848 -0.033333
-0.730767 -0.352595 0.033333
-0.725051 -0.354858 0.016667
-0.718986 -0.356845 0.000000
-0.714472 -0.358021 -0.016667
-0.711797 -0.358635 -0.033333
-0.729224 -0.338062 0.033333
-0.723443 -0.340476 0.016667
-0.717447 -0.342583 0.000000
-0.713014 -0.343823 -0.016667
-0.710380 -0.344457 -0.033333
-0.725857 -0.323632 0.033333
-0.720274 -0.326199 0.016667
-0.714337 -0.328431 0.000000
-0.710037 -0.329719 -0.016667
-0.707536 -0.330367 -0.033333
-0.721220 -0.309153 0.033333
-0.715342 -0.312195 0.016667
-0.709604 -0.314510 0.000000
-0.705613 -0.315783 -0.016667
-0.703289 -0.316385 -0.033333
-0.713919 -0.295798 0.033333
-0.708758 -0.298689 0.016667
-0.703227 -0.300976 0.000000
-0.699745 -0.302018 -0.016667
-0.697822 -0.302562 -0.033333
-0.705219 -0.282595 0.033333
-0.699908 -0.286545 0.016667
-0.695147 -0.287719 0.000000
-0.692721 -0.288506 -0.016667
-0.691170 -0.288857 -0.033333
-0.692106 -0.277289 0.033333
-0.688990 -0.274829 0.016667
-0.685625 -0.274735 0.000000
-0.684503 -0.275368 -0.016667
-0.683920 -0.275012 -0.033333
-0.669322 -0.270360 0.033333
-0.673679 -0.265300 0.016667
-0.675022 -0.261750 0.000000
-0.675624 -0.262163 -0.016667
-0.676342 -0.261315 -0.033333
-0.641517 -0.260149 0.033333
-0.654559 -0.251469 0.016667
-0.662972 -0.250219 0.000000
-0.667278 -0.247643 -0.016667
-0.668868 -0.248252 -0.033333
-0.640764 -0.244037 0.033333
-0.650363 -0.237154 0.016667
-0.656586 -0.235296 0.000000
-0.660524 -0.234154 -0.016667
-0.662623 -0.233687 -0.033333
-0.640010 -0.227926 0.033333
-0.646999 -0.221779 0.016667
-0.652299 -0.220624 0.000000
-0.655450 -0.219711 -0.016667
-0.657289 -0.219313 -0.033333
-0.639256 -0.211815 0.033333
-0.645266 -0.206817 0.016667
-0.648920 -0.205667 0.000000
-0.651518 -0.205059 -0.016667
-0.652979 -0.204570 -0.033333
-0.638502 -0.195703 0.033333
-0.643377 -0.191762 0.016667
-0.646320 -0.190560 0.000000
-0.648329 -0.190078 -0.016667
-0.649512 -0.189672 -0.033333
-0.637749 -0.179592 0.033333
-0.641808 -0.176406 0.016667
-0.644149 -0.175300 0.000000
-0.645764 -0.174882 -0.016667
-0.646695 -0.174550 -0.033333
-0.636995 -0.163480 0.033333
-0.640379 -0.160842 0.016667
-0.642402 -0.159896 0.000000
-0.643673 -0.159494 -0.016667
-0.644401 -0.159276 -0.033333
-0.636241 -0.147369 0.033333
-0.639439 -0.145101 0.016667
-0.640979 -0.144392 0.000000
-0.641967 -0.143951 -0.016667
-0.642512 -0.143884 -0.033333
-0.637454 -0.130962 0.033333
-0.638687 -0.129484 0.016667
-0.639820 -0.128629 0.000000
-0.640536 -0.128455 -0.016667
-0.640935 -0.128260 -0.033333
-0.637148 -0.114847 0.033333
-0.638024 -0.113683 0.016667
-0.638763 -0.112920 0.000000
-0.639302 -0.112798 -0.016667
-0.639572 -0.112655 -0.033333
-0.636348 -0.098790 0.033333
-0.637100 -0.097820 0.016667
-0.637745 -0.097201 0.000000
-0.638159 -0.097097 -0.016667
-0.638370 -0.097006 -0.033333
-0.635333 -0.082694 0.033333
-0.636059 -0.081963 0.016667
-0.636690 -0.081464 0.000000
-0.637078 -0.081383 -0.016667
-0.637260 -0.081329 -0.033333
-0.634099 -0.066709 0.033333
-0.634933 -0.066088 0.016667
-0.635604 -0.065725 0.000000
-0.636031 -0.065671 -0.016667
-0.636215 -0.065631 -0.033333
-0.632747 -0.050613 0.033333
-0.633697 -0.050258 0.016667
-0.634538 -0.049974 0.000000
-0.635006 -0.049961 -0.016667
-0.635230 -0.049933 -0.033333
-0.630966 -0.034591 0.033333
-0.632560 -0.034372 0.016667
-0.633485 -0.034234 0.000000
-0.634051 -0.034252 -0.016667
-0.634277 -0.034234 -0.033333
-0.630212 -0.018480 0.033333
-0.631548 -0.018468 0.016667
-0.632540 -0.018489 0.000000
-0.633134 -0.018543 -0.016667
-0.633395 -0.018544 -0.033333
-0.629459 -0.002368 0.033333
-0.630728 -0.002555 0.016667
-0.631674 -0.002742 0.000000
-0.632298 -0.002837 -0.016667
-0.632556 -0.002859 -0.033333
-0.628705 0.013743 0.033333
-0.629953 0.013347 0.016667
-0.630893 0.013011 0.000000
-0.631516 0.012857 -0.016667
-0.631778 0.012828 -0.033333
-0.627952 0.029854 0.033333
-0.629209 0.029242 0.016667
-0.630164 0.028752 0.000000
-0.630793 0.028548 -0.016667
-0.631055 0.028503 -0.033333
-0.627198 0.045966 0.033333
-0.628488 0.045123 0.016667
-0.629483 0.044482 0.000000
-0.630124 0.044228 -0.016667
-0.630389 0.044170 -0.033333
-0.626444 0.062077 0.033333
-0.627800 0.060984 0.016667
-0.628852 0.060195 0.000000
-0.629513 0.059894 -0.016667
-0.629786 0.059825 -0.033333
-0.625691 0.078189 0.033333
-0.627145 0.076825 0.016667
-0.628277 0.075885 0.000000
-0.628970 0.075546 -0.016667
-0.629255 0.075464 -0.033333
-0.624937 0.094300 0.033333
-0.626546 0.092635 0.016667
-0.627772 0.091550 0.000000
-0.628505 0.091175 -0.016667
-0.628812 0.091083 -0.033333
-0.624183 0.110411 0.033333
-0.625996 0.108415 0.016667
-0.627350 0.107181 0.000000
-0.628138 0.106780 -0.016667
-0.628471 0.106673 -0.033333
-0.623430 0.126523 0.033333
-0.625533 0.124146 0.016667
-0.627026 0.122777 0.000000
-0.627879 0.122349 -0.016667
-0.628258 0.122227 -0.033333
-0.622676 0.142634 0.033333
-0.625140 0.139825 0.016667
-0.626811 0.138323 0.000000
-0.627763 0.137870 -0.016667
-0.628184 0.137735 -0.033333
-0.621922 0.158746 0.033333
-0.624881 0.155430 0.016667
-0.626733 0.153799 0.000000
-0.627794 0.153340 -0.016667
-0.628292 0.153169 -0.033333
-0.621169 0.174857 0.033333
-0.624691 0.170945 0.016667
-0.626810 0.169200 0.000000
-0.628013 0.168719 -0.016667
-0.628597 0.168532 -0.033333
-0.620415 0.190968 0.033333
-0.624694 0.186325 0.016667
-0.627044 0.184490 0.000000
-0.628449 0.184010 -0.016667
-0.629140 0.183772 -0.033333
-0.619661 0.207080 0.033333
-0.624674 0.201532 0.016667
-0.627503 0.199653 0.000000
-0.629130 0.199164 -0.016667
-0.629974 0.198905 -0.033333
-0.618907 0.223191 0.033333
-0.624900 0.216453 0.016667
-0.628134 0.214704 0.000000
-0.630174 0.214179 -0.016667
-0.631134 0.213871 -0.033333
-0.618154 0.239303 0.033333
-0.624653 0.231286 0.016667
-0.629303 0.229712 0.000000
-0.631597 0.228912 -0.016667
-0.632738 0.228810 -0.033333
-0.617400 0.255414 0.033333
-0.626133 0.246787 0.016667
-0.630997 0.244476 0.000000
-0.633700 0.243596 -0.016667
-0.634873 0.243483 -0.033333
-0.616646 0.271526 0.033333
-0.628316 0.260924 0.016667
-0.634444 0.259919 0.000000
-0.636800 0.257397 -0.016667
-0.637263 0.258499 -0.033333
-0.639714 0.283865 0.033333
-0.640955 0.277318 0.016667
-0.640822 0.272298 0.000000
-0.640336 0.272627 -0.016667
-0.640048 0.272012 -0.033333
-0.655802 0.295141 0.033333
-0.650406 0.288588 0.016667
-0.646104 0.285987 0.000000
-0.643779 0.286495 -0.016667
-0.642408 0.286369 -0.033333
-0.662404 0.302765 0.033333
-0.655445 0.300870 0.016667
-0.649625 0.299512 0.000000
-0.646100 0.300366 -0.016667
-0.643842 0.300687 -0.033333
-0.664290 0.314736 0.033333
-0.657402 0.313566 0.016667
-0.650997 0.313268 0.000000
-0.646700 0.314337 -0.016667
-0.644133 0.315023 -0.033333
-0.662550 0.327917 0.033333
-0.656166 0.326927 0.016667
-0.649990 0.327050 0.000000
-0.645556 0.328581 -0.016667
-0.642916 0.329408 -0.033333
-0.657636 0.341814 0.033333
-0.652154 0.340840 0.016667
-0.646623 0.341194 0.000000
-0.642584 0.342986 -0.016667
-0.640275 0.343992 -0.033333
-0.649698 0.355967 0.033333
-0.645271 0.354971 0.016667
-0.640911 0.355525 0.000000
-0.637932 0.357693 -0.016667
-0.636418 0.358764 -0.033333
-0.638496 0.370397 0.033333
-0.635325 0.369396 0.016667
-0.632651 0.370187 0.000000
-0.631895 0.372674 -0.016667
-0.631925 0.373783 -0.033333
-0.623830 0.385253 0.033333
-0.621822 0.384060 0.016667
-0.621148 0.385269 0.000000
-0.625192 0.387990 -0.016667
-0.627859 0.389015 -0.033333
-0.615466 -0.486680 0.033333
-0.628371 -0.497201 0.016667
-0.637778 -0.499657 0.000000
-0.642932 -0.501615 -0.016667
-0.646227 -0.502787 -0.033333
-0.638717 -0.472978 0.033333
-0.644196 -0.481068 0.016667
-0.647630 -0.484903 0.000000
-0.649734 -0.486157 -0.016667
-0.651310 -0.487723 -0.033333
-0.657901 -0.459284 0.033333
-0.658174 -0.466140 0.016667
-0.657840 -0.470123 0.000000
-0.657806 -0.471376 -0.016667
-0.657971 -0.472716 -0.033333
-0.673301 -0.445949 0.033333
-0.670497 -0.451891 0.016667
-0.667738 -0.455607 0.000000
-0.666106 -0.456938 -0.016667
-0.665253 -0.458013 -0.033333
-0.685545 -0.432974 0.033333
-0.681025 -0.438044 0.016667
-0.676729 -0.441381 0.000000
-0.673960 -0.442714 -0.016667
-0.672408 -0.443612 -0.033333
-0.695102 -0.420184 0.033333
-0.689688 -0.424414 0.016667
-0.684461 -0.427362 0.000000
-0.680930 -0.428647 -0.016667
-0.678910 -0.429424 -0.033333
-0.702351 -0.407303 0.033333
-0.696509 -0.410858 0.016667
-0.690752 -0.413455 0.000000
-0.686741 -0.414670 -0.016667
-0.684415 -0.415367 -0.033333
-0.707542 -0.394310 0.033333
-0.701555 -0.397278 0.016667
-0.695526 -0.399577 0.000000
-0.691226 -0.400740 -0.016667
-0.688709 -0.401378 -0.033333
-0.710914 -0.380990 0.033333
-0.704901 -0.383599 0.016667
-0.698753 -0.385704 0.000000
-0.694292 -0.386823 -0.016667
-0.691664 -0.387422 -0.033333
-0.712613 -0.367506 0.033333
-0.706633 -0.369846 0.016667
-0.700429 -0.371813 0.000000
-0.695890 -0.372912 -0.016667
-0.693212 -0.373487 -0.033333
-0.712807 -0.353815 0.033333
-0.706768 -0.356043 0.016667
-0.700551 -0.357941 0.000000
-0.696002 -0.359024 -0.016667
-0.693312 -0.359578 -0.033333
-0.711386 -0.340179 0.033333
-0.705354 -0.342289 0.016667
-0.699114 -0.344129 0.000000
-0.694607 -0.345190 -0.016667
-0.691972 -0.345720 -0.033333
-0.708564 -0.326540 0.033333
-0.702274 -0.328715 0.016667
-0.696084 -0.330458 0.000000
-0.691734 -0.331450 -0.016667
-0.689194 -0.331930 -0.033333
-0.703796 -0.313639 0.033333
-0.697554 -0.315472 0.016667
-0.691423 -0.317008 0.000000
-0.687374 -0.317828 -0.016667
-0.685076 -0.318234 -0.033333
-0.697304 -0.301116 0.033333
-0.690750 -0.302998 0.016667
-0.685090 -0.303758 0.000000
-0.681674 -0.304352 -0.016667
-0.679640 -0.304640 -0.033333
-0.687610 -0.292509 0.033333
-0.681985 -0.290771 0.016667
-0.677149 -0.290683 0.000000
-0.674621 -0.291130 -0.016667
-0.673243 -0.290969 -0.033333
-0.672070 -0.282826 0.033333
-0.670236 -0.279917 0.016667
-0.667833 -0.277678 0.000000
-0.666575 -0.277843 -0.016667
-0.666022 -0.277428 -0.033333
-0.651006 -0.272575 0.033333
-0.655356 -0.267393 0.016667
-0.657154 -0.264971 0.000000
-0.657959 -0.264472 -0.016667
-0.658589 -0.263603 -0.033333
-0.625406 -0.260902 0.033333
-0.638013 -0.253196 0.016667
-0.645794 -0.252163 0.000000
-0.649828 -0.250069 -0.016667
-0.651387 -0.250309 -0.033333
-0.624652 -0.244791 0.033333
-0.633464 -0.238180 0.016667
-0.639666 -0.237364 0.000000
-0.643246 -0.236059 -0.016667
-0.645250 -0.235788 -0.033333
-0.623898 -0.228680 0.033333
-0.630597 -0.223417 0.016667
-0.635226 -0.222243 0.000000
-0.638336 -0.221592 -0.016667
-0.640111 -0.221102 -0.033333
-0.623145 -0.212568 0.033333
-0.628284 -0.208075 0.016667
-0.632069 -0.207138 0.000000
-0.634491 -0.206682 -0.016667
-0.635960 -0.206298 -0.033333
-0.622391 -0.196457 0.033333
-0.626708 -0.192770 0.016667
-0.629528 -0.191869 0.000000
-0.631472 -0.191578 -0.016667
-0.632621 -0.191243 -0.033333
-0.621637 -0.180345 0.033333
-0.625178 -0.177305 0.016667
-0.627514 -0.176495 0.000000
-0.629027 -0.176265 -0.016667
-0.629933 -0.176028 -0.033333
-0.620884 -0.164234 0.033333
-0.623942 -0.161692 0.016667
-0.625853 -0.161015 0.000000
-0.627050 -0.160803 -0.016667
-0.627744 -0.160658 -0.033333
-0.620130 -0.148123 0.033333
-0.623019 -0.145933 0.016667
-0.624522 -0.145476 0.000000
-0.625419 -0.145189 -0.016667
-0.625945 -0.145209 -0.033333
-0.621168 -0.131708 0.033333
-0.622351 -0.130342 0.016667
-0.623399 -0.129678 0.000000
-0.624059 -0.129656 -0.016667
-0.624420 -0.129520 -0.033333
-0.620864 -0.115643 0.033333
-0.621693 -0.114553 0.016667
-0.622387 -0.113966 0.000000
-0.622854 -0.113954 -0.016667
-0.623106 -0.113872 -0.033333
-0.620133 -0.099593 0.033333
-0.620814 -0.098737 0.016667
-0.621377 -0.098230 0.000000
-0.621742 -0.098218 -0.016667
-0.621921 -0.098179 -0.033333
-0.619102 -0.083583 0.033333
-0.619779 -0.082877 0.016667
-0.620332 -0.082477 0.000000
-0.620668 -0.082469 -0.016667
-0.620823 -0.082449 -0.033333
-0.617914 -0.067496 0.033333
-0.618644 -0.067020 0.016667
-0.619257 -0.066707 0.000000
-0.619618 -0.066711 -0.016667
-0.619783 -0.066708 -0.033333
-0.616586 -0.051455 0.033333
-0.617428 -0.051125 0.016667
-0.618175 -0.050928 0.000000
-0.618604 -0.050953 -0.016667
-0.618783 -0.050951 -0.033333
-0.614855 -0.035345 0.033333
-0.616290 -0.035232 0.016667
-0.617143 -0.035127 0.000000
-0.617624 -0.035199 -0.016667
-0.617839 -0.035188 -0.033333
-0.614101 -0.019234 0.033333
-0.615288 -0.019287 0.016667
-0.616182 -0.019343 0.000000
-0.616715 -0.019428 -0.016667
-0.616934 -0.019441 -0.033333
-0.613347 -0.003122 0.033333
-0.614450 -0.003343 0.016667
-0.615319 -0.003547 0.000000
-0.615859 -0.003667 -0.016667
-0.616091 -0.003690 -0.033333
-0.612594 0.012989 0.033333
-0.613667 0.012593 0.016667
-0.614525 0.012244 0.000000
-0.615069 0.012088 -0.016667
-0.615298 0.012055 -0.033333
-0.611840 0.029101 0.033333
-0.612903 0.028517 0.016667
-0.613786 0.028025 0.000000
-0.614328 0.027832 -0.016667
-0.614561 0.027792 -0.033333
-0.611087 0.045212 0.033333
-0.612160 0.044419 0.016667
-0.613089 0.043790 0.000000
-0.613639 0.043560 -0.016667
-0.613878 0.043517 -0.033333
-0.610333 0.061324 0.033333
-0.611438 0.060294 0.016667
-0.612438 0.059529 0.000000
-0.613005 0.059273 -0.016667
-0.613253 0.059224 -0.033333
-0.609579 0.077435 0.033333
-0.610757 0.076132 0.016667
-0.611842 0.075244 0.000000
-0.612432 0.074962 -0.016667
-0.612699 0.074914 -0.033333
-0.608826 0.093546 0.033333
-0.610117 0.091938 0.016667
-0.611310 0.090924 0.000000
-0.611936 0.090629 -0.016667
-0.612225 0.090578 -0.033333
-0.608072 0.109658 0.033333
-0.609544 0.107705 0.016667
-0.610856 0.106572 0.000000
-0.611529 0.106268 -0.016667
-0.611848 0.106216 -0.033333
-0.607318 0.125769 0.033333
-0.609016 0.123433 0.016667
-0.610494 0.122175 0.000000
-0.611226 0.121880 -0.016667
-0.611585 0.121814 -0.033333
-0.606565 0.141880 0.033333
-0.608583 0.139093 0.016667
-0.610240 0.137747 0.000000
-0.611036 0.137446 -0.016667
-0.611465 0.137372 -0.033333
-0.605811 0.157992 0.033333
-0.608230 0.154677 0.016667
-0.610082 0.153275 0.000000
-0.611010 0.152953 -0.016667
-0.611478 0.152885 -0.033333
-0.605057 0.174103 0.033333
-0.608027 0.170202 0.016667
-0.610061 0.168716 0.000000
-0.611131 0.168423 -0.016667
-0.611692 0.168298 -0.033333
-0.604303 0.190215 0.033333
-0.607840 0.185622 0.016667
-0.610198 0.184103 0.000000
-0.611444 0.183782 -0.016667
-0.612121 0.183655 -0.033333
-0.603550 0.206326 0.033333
-0.607852 0.200958 0.016667
-0.610463 0.199381 0.000000
-0.612019 0.199067 -0.016667
-0.612801 0.198877 -0.033333
-0.602796 0.222438 0.033333
-0.607682 0.216145 0.016667
-0.611054 0.214608 0.000000
-0.612870 0.214195 -0.016667
-0.613830 0.214021 -0.033333
-0.602042 0.238549 0.033333
-0.608191 0.231494 0.016667
-0.611949 0.229718 0.000000
-0.614192 0.229227 -0.016667
-0.615273 0.228994 -0.033333
-0.601288 0.254660 0.033333
-0.608970 0.246126 0.016667
-0.613797 0.245048 0.000000
-0.616116 0.243878 -0.016667
-0.617157 0.243991 -0.033333
-0.600535 0.270772 0.033333
-0.611644 0.261328 0.016667
-0.616893 0.260078 0.000000
-0.618919 0.258237 -0.016667
-0.619466 0.258997 -0.033333
-0.620248 0.284002 0.033333
-0.622038 0.276688 0.016667
-0.622428 0.273637 0.000000
-0.622231 0.273384 -0.016667
-0.621998 0.272699 -0.033333
-0.633533 0.295836 0.033333
-0.630290 0.290822 0.016667
-0.627470 0.287295 0.000000
-0.625445 0.287383 -0.016667
-0.624163 0.287191 -0.033333
-0.640638 0.308519 0.033333
-0.635619 0.303118 0.016667
-0.630851 0.300883 0.000000
-0.627551 0.301320 -0.016667
-0.625643 0.301464 -0.033333
-0.643628 0.319014 0.033333
-0.637663 0.315783 0.016667
-0.632136 0.314381 0.000000
-0.628245 0.315284 -0.016667
-0.625863 0.315734 -0.033333
-0.642511 0.330999 0.033333
-0.636850 0.328743 0.016667
-0.631259 0.328106 0.000000
-0.627188 0.329339 -0.016667
-0.624783 0.330082 -0.033333
-0.638204 0.343766 0.033333
-0.633196 0.342033 0.016667
-0.628158 0.341922 0.000000
-0.624440 0.343642 -0.016667
-0.622317 0.344552 -0.033333
-0.630822 0.357125 0.033333
-0.626796 0.355738 0.016667
-0.622811 0.356034 0.000000
-0.620088 0.358176 -0.016667
-0.618734 0.359232 -0.033333
-0.620352 0.370966 0.033333
-0.617454 0.369763 0.016667
-0.615072 0.370452 0.000000
-0.614424 0.373038 -0.016667
-0.614538 0.374128 -0.033333
-0.606571 0.385434 0.033333
-0.604724 0.384175 0.016667
-0.604258 0.385358 0.000000
-0.608116 0.388234 -0.016667
-0.610771 0.389252 -0.033333
-0.598698 -0.486766 0.033333
-0.611467 -0.497438 0.016667
-0.620772 -0.499709 0.000000
-0.625972 -0.501550 -0.016667
-0.629274 -0.502645 -0.033333
-0.621264 -0.473079 0.033333
-0.626624 -0.481272 0.016667
-0.630139 -0.485014 0.000000
-0.632348 -0.486174 -0.016667
-0.633985 -0.487720 -0.033333
-0.639716 -0.459331 0.033333
-0.640056 -0.466299 0.016667
-0.639913 -0.470240 0.000000
-0.640012 -0.471445 -0.016667
-0.640255 -0.472781 -0.033333
-0.654486 -0.445900 0.033333
-0.651929 -0.451984 0.016667
-0.649428 -0.455713 0.000000
-0.647946 -0.457033 -0.016667
-0.647180 -0.458119 -0.033333
-0.666278 -0.432818 0.033333
-0.662116 -0.438076 0.016667
-0.658112 -0.441492 0.000000
-0.655497 -0.442838 -0.016667
-0.654035 -0.443756 -0.033333
-0.675622 -0.419956 0.033333
-0.670565 -0.424446 0.016667
-0.665619 -0.427514 0.000000
-0.662240 -0.428824 -0.016667
-0.660305 -0.429627 -0.033333
-0.682816 -0.407202 0.033333
-0.677286 -0.410978 0.016667
-0.671772 -0.413701 0.000000
-0.667897 -0.414950 -0.016667
-0.665648 -0.415666 -0.033333
-0.688103 -0.394365 0.033333
-0.682323 -0.397578 0.016667
-0.676477 -0.399997 0.000000
-0.672293 -0.401172 -0.016667
-0.669845 -0.401819 -0.033333
-0.691630 -0.381503 0.033333
-0.685730 -0.384209 0.016667
-0.679694 -0.386353 0.000000
-0.675326 -0.387462 -0.016667
-0.672760 -0.388051 -0.033333
-0.693537 -0.368493 0.033333
-0.687540 -0.370841 0.016667
-0.681401 -0.372764 0.000000
-0.676938 -0.373803 -0.016667
-0.674307 -0.374340 -0.033333
-0.693853 -0.355517 0.033333
-0.687794 -0.357518 0.016667
-0.681582 -0.359231 0.000000
-0.677090 -0.360197 -0.016667
-0.674454 -0.360682 -0.033333
-0.692681 -0.342548 0.033333
-0.686439 -0.344304 0.016667
-0.680213 -0.345790 0.000000
-0.675780 -0.346655 -0.016667
-0.673177 -0.347076 -0.033333
-0.689782 -0.330024 0.033333
-0.683468 -0.331292 0.016667
-0.677263 -0.332474 0.000000
-0.672989 -0.333192 -0.016667
-0.670518 -0.333531 -0.033333
-0.685153 -0.317820 0.033333
-0.678628 -0.318675 0.016667
-0.672694 -0.319284 0.000000
-0.668785 -0.319816 -0.016667
-0.666485 -0.320054 -0.033333
-0.677862 -0.307511 0.033333
-0.671916 -0.306206 0.016667
-0.666515 -0.306214 0.000000
-0.663153 -0.306587 -0.016667
-0.661282 -0.306541 -0.033333
-0.667110 -0.296190 0.033333
-0.662796 -0.294502 0.016667
-0.658787 -0.293243 0.000000
-0.656328 -0.293283 -0.016667
-0.654981 -0.293135 -0.033333
-0.652477 -0.285582 0.033333
-0.651285 -0.281991 0.016667
-0.649536 -0.280330 0.000000
-0.648537 -0.280063 -0.016667
-0.648001 -0.279434 -0.033333
-0.633133 -0.273861 0.033333
-0.637407 -0.269418 0.016667
-0.639364 -0.266971 0.000000
-0.640140 -0.266615 -0.016667
-0.640859 -0.265618 -0.033333
-0.609294 -0.261656 0.033333
-0.621672 -0.254445 0.016667
-0.628790 -0.254041 0.000000
-0.632456 -0.251893 -0.016667
-0.633843 -0.252236 -0.033333
-0.608541 -0.245545 0.033333
-0.616876 -0.239652 0.016667
-0.622685 -0.238862 0.000000
-0.626084 -0.237840 -0.016667
-0.627973 -0.237506 -0.033333
-0.607787 -0.229433 0.033333
-0.613856 -0.224413 0.016667
-0.618429 -0.223726 0.000000
-0.621304 -0.223127 -0.016667
-0.622997 -0.222754 -0.033333
-0.607033 -0.213322 0.033333
-0.611818 -0.209223 0.016667
-0.615259 -0.208403 0.000000
-0.617613 -0.208135 -0.016667
-0.619002 -0.207782 -0.033333
-0.606279 -0.197211 0.033333
-0.610073 -0.193725 0.016667
-0.612868 -0.193040 0.000000
-0.614692 -0.192889 -0.016667
-0.615801 -0.192646 -0.033333
-0.605526 -0.181099 0.033333
-0.608726 -0.178187 0.016667
-0.610913 -0.177566 0.000000
-0.612367 -0.177495 -0.016667
-0.613224 -0.177329 -0.033333
-0.604772 -0.164988 0.033333
-0.607494 -0.162510 0.016667
-0.609352 -0.162028 0.000000
-0.610472 -0.161959 -0.016667
-0.611133 -0.161894 -0.033333
-0.604018 -0.148876 0.033333
-0.606662 -0.146737 0.016667
-0.608065 -0.146447 0.000000
-0.608919 -0.146297 -0.016667
-0.609404 -0.146385 -0.033333
-0.604876 -0.132470 0.033333
-0.605980 -0.131138 0.016667
-0.606994 -0.130626 0.000000
-0.607601 -0.130727 -0.016667
-0.607942 -0.130651 -0.033333
-0.604574 -0.116380 0.033333
-0.605358 -0.115370 0.016667
-0.606003 -0.114901 0.000000
-0.606437 -0.114995 -0.016667
-0.606663 -0.114967 -0.033333
-0.603854 -0.100372 0.033333
-0.604494 -0.099553 0.016667
-0.605019 -0.099160 0.000000
-0.605345 -0.099234 -0.016667
-0.605507 -0.099238 -0.033333
-0.602883 -0.084327 0.033333
-0.603490 -0.083719 0.016667
-0.603990 -0.083395 0.000000
-0.604287 -0.083456 -0.016667
-0.604423 -0.083479 -0.033333
-0.601724 -0.068296 0.033333
-0.602376 -0.067841 0.016667
-0.602923 -0.067611 0.000000
-0.603249 -0.067672 -0.016667
-0.603387 -0.067697 -0.033333
-0.600437 -0.052191 0.033333
-0.601179 -0.051954 0.016667
-0.601856 -0.051806 0.000000
-0.602232 -0.051879 -0.016667
-0.602394 -0.051906 -0.033333
-0.598743 -0.036099 0.033333
-0.600057 -0.036042 0.016667
-0.600820 -0.035977 0.000000
-0.601262 -0.036094 -0.016667
-0.601437 -0.036096 -0.033333
-0.597989 -0.019987 0.033333
-0.599048 -0.020080 0.016667
-0.599870 -0.020166 0.000000
-0.600338 -0.020283 -0.016667
-0.600535 -0.020307 -0.033333
-0.597236 -0.003876 0.033333
-0.598208 -0.004117 0.016667
-0.598995 -0.004345 0.000000
-0.599480 -0.004483 -0.016667
-0.599677 -0.004512 -0.033333
-0.596482 0.012236 0.033333
-0.597408 0.011840 0.016667
-0.598194 0.011472 0.000000
-0.598673 0.011308 -0.016667
-0.598873 0.011278 -0.033333
-0.595729 0.028347 0.033333
-0.596630 0.027786 0.016667
-0.597435 0.027272 0.000000
-0.597917 0.027089 -0.016667
-0.598117 0.027055 -0.033333
-0.594975 0.044458 0.033333
-0.595846 0.043712 0.016667
-0.596727 0.043044 0.000000
-0.597196 0.042858 -0.016667
-0.597421 0.042810 -0.033333
-0.594221 0.060570 0.033333
-0.595067 0.059577 0.016667
-0.596063 0.058801 0.000000
-0.596521 0.058591 -0.016667
-0.596784 0.058558 -0.033333
-0.593468 0.076681 0.033333
-0.594336 0.075388 0.016667
-0.595440 0.074521 0.000000
-0.595915 0.074301 -0.016667
-0.596204 0.074281 -0.033333
-0.592714 0.092793 0.033333
-0.593667 0.091153 0.016667
-0.594880 0.090205 0.000000
-0.595383 0.089984 -0.016667
-0.595702 0.089978 -0.033333
-0.591960 0.108904 0.033333
-0.593047 0.106885 0.016667
-0.594395 0.105845 0.000000
-0.594939 0.105647 -0.016667
-0.595289 0.105642 -0.033333
-0.591207 0.125015 0.033333
-0.592499 0.122577 0.016667
-0.594001 0.121455 0.000000
-0.594590 0.121278 -0.016667
-0.594986 0.121277 -0.033333
-0.590453 0.141127 0.033333
-0.591989 0.138238 0.016667
-0.593715 0.137015 0.000000
-0.594349 0.136898 -0.016667
-0.594813 0.136856 -0.033333
-0.589699 0.157238 0.033333
-0.591570 0.153805 0.016667
-0.593564 0.152585 0.000000
-0.594208 0.152449 -0.016667
-0.594811 0.152410 -0.033333
-0.588946 0.173350 0.033333
-0.591332 0.169289 0.016667
-0.593433 0.168165 0.000000
-0.594296 0.167891 -0.016667
-0.594903 0.167968 -0.033333
-0.588192 0.189461 0.033333
-0.591250 0.184850 0.016667
-0.593403 0.183574 0.000000
-0.594574 0.183379 -0.016667
-0.595185 0.183353 -0.033333
-0.587438 0.205572 0.033333
-0.591050 0.200295 0.016667
-0.593620 0.198949 0.000000
-0.595019 0.198760 -0.016667
-0.595755 0.198679 -0.033333
-0.586684 0.221684 0.033333
-0.591140 0.215755 0.016667
-0.594039 0.214259 0.000000
-0.595773 0.214051 -0.016667
-0.596647 0.213899 -0.033333
-0.585931 0.237795 0.033333
-0.591290 0.230850 0.016667
-0.594962 0.229633 0.000000
-0.596937 0.229147 -0.016667
-0.597917 0.229055 -0.033333
-0.585177 0.253907 0.033333
-0.592253 0.246158 0.016667
-0.596591 0.244893 0.000000
-0.598686 0.244064 -0.016667
-0.599662 0.244125 -0.033333
-0.584423 0.270018 0.033333
-0.595117 0.260958 0.016667
-0.599442 0.260394 0.000000
-0.601298 0.258430 -0.016667
-0.601665 0.259311 -0.033333
-0.601818 0.283623 0.033333
-0.603595 0.277248 0.016667
-0.604382 0.273810 0.000000
-0.604152 0.273817 -0.016667
-0.604053 0.273186 -0.033333
-0.613302 0.296652 0.033333
-0.611089 0.290536 0.016667
-0.608776 0.287942 0.000000
-0.607097 0.287993 -0.016667
-0.606038 0.287654 -0.033333
-0.619768 0.308031 0.033333
-0.615648 0.304067 0.016667
-0.611906 0.301627 0.000000
-0.609088 0.301935 -0.016667
-0.607323 0.302061 -0.033333
-0.622246 0.320769 0.033333
-0.617832 0.316865 0.016667
-0.613172 0.315198 0.000000
-0.609666 0.315909 -0.016667
-0.607600 0.316309 -0.033333
-0.621871 0.332644 0.033333
-0.617162 0.329744 0.016667
-0.612372 0.328735 0.000000
-0.608734 0.329953 -0.016667
-0.606559 0.330608 -0.033333
-0.618190 0.345032 0.033333
-0.613924 0.342858 0.016667
-0.609503 0.342473 0.000000
-0.606178 0.344135 -0.016667
-0.604290 0.345031 -0.033333
-0.611573 0.357923 0.033333
-0.608044 0.356244 0.016667
-0.604548 0.356393 0.000000
-0.602133 0.358583 -0.016667
-0.600952 0.359622 -0.033333
-0.601921 0.371370 0.033333
-0.599383 0.370029 0.016667
-0.597344 0.370652 0.000000
-0.596847 0.373336 -0.016667
-0.597062 0.374434 -0.033333
-0.589172 0.385569 0.033333
-0.587515 0.384258 0.016667
-0.587286 0.385423 0.000000
-0.590956 0.388457 -0.016667
-0.593576 0.389460 -0.033333
-0.581921 -0.486875 0.033333
-0.594459 -0.497762 0.016667
-0.603604 -0.499906 0.000000
-0.608807 -0.501654 -0.016667
-0.612093 -0.502687 -0.033333
-0.603772 -0.473245 0.033333
-0.608938 -0.481608 0.016667
-0.612495 -0.485297 0.000000
-0.614785 -0.486372 -0.016667
-0.616468 -0.487906 -0.033333
-0.621472 -0.459524 0.033333
-0.621819 -0.466650 0.016667
-0.621833 -0.470565 0.000000
-0.622053 -0.471721 -0.016667
-0.622367 -0.473052 -0.033333
-0.635581 -0.446104 0.033333
-0.633218 -0.452331 0.016667
-0.630949 -0.456071 0.000000
-0.629615 -0.457365 -0.016667
-0.628936 -0.458455 -0.033333
-0.646879 -0.433027 0.033333
-0.643019 -0.438431 0.016667
-0.639292 -0.441885 0.000000
-0.636845 -0.443223 -0.016667
-0.635478 -0.444151 -0.033333
-0.655885 -0.420206 0.033333
-0.651184 -0.424837 0.016667
-0.646535 -0.427965 0.000000
-0.643329 -0.429278 -0.016667
-0.641493 -0.430090 -0.033333
-0.662923 -0.407523 0.033333
-0.657727 -0.411464 0.016667
-0.652497 -0.414252 0.000000
-0.648795 -0.415499 -0.016667
-0.646645 -0.416220 -0.033333
-0.668155 -0.394948 0.033333
-0.662674 -0.398239 0.016667
-0.657087 -0.400688 0.000000
-0.653067 -0.401855 -0.016667
-0.650715 -0.402495 -0.033333
-0.671720 -0.382349 0.033333
-0.666053 -0.385107 0.016667
-0.660248 -0.387243 0.000000
-0.656037 -0.388313 -0.016667
-0.653560 -0.388880 -0.033333
-0.673678 -0.369832 0.033333
-0.667890 -0.372062 0.016667
-0.661948 -0.373885 0.000000
-0.657635 -0.374853 -0.016667
-0.655097 -0.375349 -0.033333
-0.674091 -0.357329 0.033333
-0.668164 -0.359108 0.016667
-0.662160 -0.360617 0.000000
-0.657826 -0.361465 -0.016667
-0.655273 -0.361884 -0.033333
-0.672855 -0.345085 0.033333
-0.666869 -0.346283 0.016667
-0.660856 -0.347435 0.000000
-0.656581 -0.348144 -0.016667
-0.654083 -0.348474 -0.033333
-0.669951 -0.333025 0.033333
-0.663866 -0.333659 0.016667
-0.658003 -0.334342 0.000000
-0.653921 -0.334883 -0.016667
-0.651518 -0.335114 -0.033333
-0.664829 -0.321806 0.033333
-0.659138 -0.321127 0.016667
-0.653589 -0.321326 0.000000
-0.649824 -0.321700 -0.016667
-0.647686 -0.321742 -0.033333
-0.657409 -0.309863 0.033333
-0.652339 -0.308996 0.016667
-0.647601 -0.308387 0.000000
-0.644432 -0.308461 -0.016667
-0.642619 -0.308434 -0.033333
-0.647188 -0.298944 0.033333
-0.643535 -0.296407 0.016667
-0.640050 -0.295428 0.000000
-0.637844 -0.295298 -0.016667
-0.636596 -0.294913 -0.033333
-0.633361 -0.287283 0.033333
-0.632564 -0.284050 0.016667
-0.631210 -0.282217 0.000000
-0.630323 -0.281944 -0.016667
-0.629898 -0.281324 -0.033333
-0.615536 -0.274853 0.033333
-0.619577 -0.270762 0.016667
-0.621557 -0.268741 0.000000
-0.622362 -0.268349 -0.016667
-0.623028 -0.267369 -0.033333
-0.593183 -0.262410 0.033333
-0.605203 -0.255574 0.016667
-0.611754 -0.255457 0.000000
-0.615084 -0.253518 -0.016667
-0.616349 -0.253883 -0.033333
-0.592429 -0.246299 0.033333
-0.600326 -0.240638 0.016667
-0.605832 -0.240257 0.000000
-0.608974 -0.239294 -0.016667
-0.610714 -0.239056 -0.033333
-0.591676 -0.230187 0.033333
-0.597368 -0.225549 0.016667
-0.601636 -0.224927 0.000000
-0.604369 -0.224519 -0.016667
-0.605951 -0.224168 -0.033333
-0.590922 -0.214076 0.033333
-0.595261 -0.210117 0.016667
-0.598602 -0.209570 0.000000
-0.600797 -0.209391 -0.016667
-0.602109 -0.209121 -0.033333
-0.590168 -0.197964 0.033333
-0.593673 -0.194664 0.016667
-0.596247 -0.194088 0.000000
-0.597997 -0.194076 -0.016667
-0.599038 -0.193884 -0.033333
-0.589414 -0.181853 0.033333
-0.592273 -0.179021 0.016667
-0.594392 -0.178559 0.000000
-0.595755 -0.178600 -0.016667
-0.596568 -0.178503 -0.033333
-0.588661 -0.165741 0.033333
-0.591145 -0.163325 0.016667
-0.592872 -0.162963 0.000000
-0.593942 -0.163012 -0.016667
-0.594561 -0.163005 -0.033333
-0.587907 -0.149630 0.033333
-0.590288 -0.147515 0.016667
-0.591643 -0.147351 0.000000
-0.592442 -0.147305 -0.016667
-0.592902 -0.147452 -0.033333
-0.588606 -0.133209 0.033333
-0.589642 -0.131922 0.016667
-0.590593 -0.131505 0.000000
-0.591171 -0.131707 -0.016667
-0.591488 -0.131680 -0.033333
-0.588269 -0.117132 0.033333
-0.589003 -0.116139 0.016667
-0.589630 -0.115770 0.000000
-0.590035 -0.115951 -0.016667
-0.590246 -0.115965 -0.033333
-0.587581 -0.101096 0.033333
-0.588174 -0.100338 0.016667
-0.588664 -0.100020 0.000000
-0.588967 -0.100167 -0.016667
-0.589114 -0.100214 -0.033333
-0.586640 -0.085086 0.033333
-0.587192 -0.084496 0.016667
-0.587654 -0.084249 0.000000
-0.587927 -0.084374 -0.016667
-0.588047 -0.084428 -0.033333
-0.585533 -0.069025 0.033333
-0.586112 -0.068634 0.016667
-0.586606 -0.068455 0.000000
-0.586900 -0.068567 -0.016667
-0.587023 -0.068625 -0.033333
-0.584287 -0.052965 0.033333
-0.584939 -0.052735 0.016667
-0.585550 -0.052639 0.000000
-0.585895 -0.052756 -0.016667
-0.586031 -0.052803 -0.033333
-0.582632 -0.036852 0.033333
-0.583831 -0.036825 0.016667
-0.584528 -0.036794 0.000000
-0.584922 -0.036947 -0.016667
-0.585081 -0.036966 -0.033333
-0.581878 -0.020741 0.033333
-0.582829 -0.020854 0.016667
-0.583574 -0.020968 0.000000
-0.584002 -0.021113 -0.016667
-0.584168 -0.021147 -0.033333
-0.581124 -0.004629 0.033333
-0.581978 -0.004879 0.016667
-0.582700 -0.005132 0.000000
-0.583131 -0.005287 -0.016667
-0.583306 -0.005322 -0.033333
-0.580371 0.011482 0.033333
-0.581172 0.011091 0.016667
-0.581882 0.010699 0.000000
-0.582314 0.010528 -0.016667
-0.582485 0.010497 -0.033333
-0.579617 0.027594 0.033333
-0.580372 0.027053 0.016667
-0.581108 0.026509 0.000000
-0.581535 0.026331 -0.016667
-0.581713 0.026301 -0.033333
-0.578864 0.043705 0.033333
-0.579562 0.043001 0.016667
-0.580361 0.042271 0.000000
-0.580796 0.042131 -0.016667
-0.580986 0.042069 -0.033333
-0.577944 0.059819 0.033333
-0.578754 0.058834 0.016667
-0.579644 0.058040 0.000000
-0.580104 0.057868 -0.016667
-0.580310 0.057847 -0.033333
-0.577143 0.075779 0.033333
-0.577978 0.074618 0.016667
-0.578976 0.073755 0.000000
-0.579469 0.073585 -0.016667
-0.579696 0.073591 -0.033333
-0.576351 0.091688 0.033333
-0.577273 0.090345 0.016667
-0.578374 0.089425 0.000000
-0.578909 0.089278 -0.016667
-0.579156 0.089305 -0.033333
-0.575618 0.107588 0.033333
-0.576637 0.106034 0.016667
-0.577859 0.105057 0.000000
-0.578431 0.104947 -0.016667
-0.578709 0.104991 -0.033333
-0.574861 0.123518 0.033333
-0.576066 0.121706 0.016667
-0.577435 0.120650 0.000000
-0.578051 0.120603 -0.016667
-0.578366 0.120639 -0.033333
-0.574178 0.139527 0.033333
-0.575561 0.137361 0.016667
-0.577126 0.136227 0.000000
-0.577769 0.136237 -0.016667
-0.578150 0.136253 -0.033333
-0.573359 0.155671 0.033333
-0.575177 0.153042 0.016667
-0.576906 0.151747 0.000000
-0.577613 0.151883 -0.016667
-0.578065 0.151791 -0.033333
-0.572834 0.172596 0.033333
-0.574913 0.168275 0.016667
-0.576753 0.167588 0.000000
-0.577621 0.167200 -0.016667
-0.578111 0.167552 -0.033333
-0.572081 0.188707 0.033333
-0.574679 0.184010 0.016667
-0.576732 0.182950 0.000000
-0.577778 0.182848 -0.016667
-0.578346 0.182913 -0.033333
-0.571327 0.204818 0.033333
-0.574578 0.199627 0.016667
-0.576839 0.198376 0.000000
-0.578150 0.198328 -0.016667
-0.578810 0.198306 -0.033333
-0.570573 0.220930 0.033333
-0.574471 0.215015 0.016667
-0.577237 0.213821 0.000000
-0.578784 0.213688 -0.016667
-0.579572 0.213636 -0.033333
-0.569819 0.237041 0.033333
-0.574727 0.230452 0.016667
-0.578010 0.229197 0.000000
-0.579818 0.228931 -0.016667
-0.580709 0.228872 -0.033333
-0.569065 0.253153 0.033333
-0.575595 0.245508 0.016667
-0.579532 0.244667 0.000000
-0.581402 0.243903 -0.016667
-0.582230 0.244064 -0.033333
-0.568312 0.269264 0.033333
-0.578339 0.260494 0.016667
-0.582100 0.260116 0.000000
-0.583707 0.258421 -0.016667
-0.584056 0.259383 -0.033333
-0.583751 0.282925 0.033333
-0.585432 0.276584 0.016667
-0.586351 0.273844 0.000000
-0.586261 0.273917 -0.016667
-0.586157 0.273306 -0.033333
-0.593512 0.296269 0.033333
-0.591950 0.290895 0.016667
-0.590288 0.288014 0.000000
-0.588845 0.288157 -0.016667
-0.587926 0.287991 -0.033333
-0.599466 0.309112 0.033333
-0.596323 0.303964 0.016667
-0.593052 0.301877 0.000000
-0.590593 0.302291 -0.016667
-0.589114 0.302349 -0.033333
-0.602007 0.320705 0.033333
-0.598061 0.317173 0.016667
-0.594175 0.315507 0.000000
-0.591148 0.316274 -0.016667
-0.589283 0.316684 -0.033333
-0.601394 0.333180 0.033333
-0.597563 0.330146 0.016667
-0.593444 0.329111 0.000000
-0.590235 0.330307 -0.016667
-0.588343 0.330977 -0.033333
-0.598217 0.345578 0.033333
-0.594594 0.343201 0.016667
-0.590797 0.342750 0.000000
-0.587876 0.344479 -0.016667
-0.586212 0.345365 -0.033333
-0.592210 0.358334 0.033333
-0.589216 0.356509 0.016667
-0.586205 0.356608 0.000000
-0.584118 0.358859 -0.016667
-0.583127 0.359917 -0.033333
-0.583410 0.371608 0.033333
-0.581232 0.370168 0.016667
-0.579551 0.370772 0.000000
-0.579215 0.373564 -0.016667
-0.579520 0.374665 -0.033333
-0.571703 0.385652 0.033333
-0.570260 0.384315 0.016667
-0.570268 0.385462 0.000000
-0.573741 0.388634 -0.016667
-0.576316 0.389630 -0.033333
-0.565124 -0.486999 0.033333
-0.577348 -0.498142 0.016667
-0.586285 -0.500209 0.000000
-0.591456 -0.501880 -0.016667
-0.594703 -0.502869 -0.033333
-0.586224 -0.473452 0.033333
-0.591142 -0.482032 0.016667
-0.594709 -0.485699 0.000000
-0.597059 -0.486700 -0.016667
-0.598770 -0.488226 -0.033333
-0.603145 -0.459804 0.033333
-0.603465 -0.467125 0.016667
-0.603613 -0.471030 0.000000
-0.603942 -0.472142 -0.016667
-0.604319 -0.473467 -0.033333
-0.616578 -0.446459 0.033333
-0.614375 -0.452846 0.016667
-0.612321 -0.456595 0.000000
-0.611132 -0.457860 -0.016667
-0.610539 -0.458951 -0.033333
-0.627340 -0.433454 0.033333
-0.623759 -0.438989 0.016667
-0.620303 -0.442470 0.000000
-0.618029 -0.443788 -0.016667
-0.616762 -0.444720 -0.033333
-0.635966 -0.420714 0.033333
-0.631595 -0.425463 0.016667
-0.627248 -0.428623 0.000000
-0.624235 -0.429919 -0.016667
-0.622507 -0.430734 -0.033333
-0.642735 -0.408174 0.033333
-0.637899 -0.412191 0.016667
-0.632987 -0.415003 0.000000
-0.629485 -0.416234 -0.016667
-0.627449 -0.416952 -0.033333
-0.647826 -0.395746 0.033333
-0.642693 -0.399110 0.016667
-0.637421 -0.401566 0.000000
-0.633607 -0.402703 -0.016667
-0.631370 -0.403332 -0.033333
-0.651310 -0.383457 0.033333
-0.645990 -0.386178 0.016667
-0.640495 -0.388270 0.000000
-0.636488 -0.389298 -0.016667
-0.634130 -0.389842 -0.033333
-0.653246 -0.371216 0.033333
-0.647785 -0.373363 0.016667
-0.642163 -0.375093 0.000000
-0.638060 -0.375993 -0.016667
-0.635637 -0.376450 -0.033333
-0.653597 -0.359151 0.033333
-0.648072 -0.360665 0.016667
-0.642397 -0.362007 0.000000
-0.638273 -0.362767 -0.016667
-0.635847 -0.363132 -0.033333
-0.652357 -0.347177 0.033333
-0.646779 -0.348087 0.016667
-0.641162 -0.349002 0.000000
-0.637116 -0.349601 -0.016667
-0.634727 -0.349866 -0.033333
-0.649246 -0.335560 0.033333
-0.643890 -0.335582 0.016667
-0.638438 -0.336057 0.000000
-0.634563 -0.336486 -0.016667
-0.632319 -0.336612 -0.033333
-0.644348 -0.323562 0.033333
-0.639192 -0.323272 0.016667
-0.634195 -0.323156 0.000000
-0.630683 -0.323343 -0.016667
-0.628632 -0.323388 -0.033333
-0.637205 -0.312428 0.033333
-0.632737 -0.310698 0.016667
-0.628427 -0.310219 0.000000
-0.625508 -0.310240 -0.016667
-0.623836 -0.310026 -0.033333
-0.627357 -0.300610 0.033333
-0.624295 -0.298346 0.016667
-0.621248 -0.297149 0.000000
-0.619212 -0.296964 -0.016667
-0.618082 -0.296628 -0.033333
-0.614589 -0.288503 0.033333
-0.613908 -0.285384 0.016667
-0.612823 -0.283868 0.000000
-0.612095 -0.283557 -0.016667
-0.611693 -0.282916 -0.033333
-0.598096 -0.275742 0.033333
-0.601823 -0.271941 0.016667
-0.603779 -0.270103 0.000000
-0.604543 -0.269854 -0.016667
-0.605206 -0.268910 -0.033333
-0.577072 -0.263164 0.033333
-0.588720 -0.256481 0.016667
-0.594688 -0.256730 0.000000
-0.597731 -0.254872 -0.016667
-0.598836 -0.255334 -0.033333
-0.576318 -0.247052 0.033333
-0.583807 -0.241652 0.016667
-0.588988 -0.241396 0.000000
-0.591889 -0.240594 -0.016667
-0.593501 -0.240399 -0.033333
-0.575564 -0.230941 0.033333
-0.580878 -0.226416 0.016667
-0.584929 -0.226047 0.000000
-0.587476 -0.225717 -0.016667
-0.588941 -0.225436 -0.033333
-0.574811 -0.214829 0.033333
-0.578858 -0.211061 0.016667
-0.581966 -0.210582 0.000000
-0.584045 -0.210535 -0.016667
-0.585269 -0.210304 -0.033333
-0.574057 -0.198718 0.033333
-0.577244 -0.195482 0.016667
-0.579711 -0.195070 0.000000
-0.581347 -0.195140 -0.016667
-0.582323 -0.195007 -0.033333
-0.573303 -0.182607 0.033333
-0.575937 -0.179858 0.016667
-0.577897 -0.179475 0.000000
-0.579194 -0.179616 -0.016667
-0.579954 -0.179564 -0.033333
-0.572549 -0.166495 0.033333
-0.574789 -0.164103 0.016667
-0.576440 -0.163847 0.000000
-0.577443 -0.163979 -0.016667
-0.578025 -0.164022 -0.033333
-0.571796 -0.150384 0.033333
-0.573973 -0.148290 0.016667
-0.575232 -0.148205 0.000000
-0.575995 -0.148238 -0.016667
-0.576423 -0.148432 -0.033333
-0.572342 -0.133966 0.033333
-0.573295 -0.132677 0.016667
-0.574211 -0.132338 0.000000
-0.574757 -0.132617 -0.016667
-0.575056 -0.132627 -0.033333
-0.571980 -0.117863 0.033333
-0.572668 -0.116902 0.016667
-0.573261 -0.116591 0.000000
-0.573648 -0.116840 -0.016667
-0.573847 -0.116893 -0.033333
-0.571296 -0.101842 0.033333
-0.571844 -0.101089 0.016667
-0.572314 -0.100835 0.000000
-0.572601 -0.101043 -0.016667
-0.572738 -0.101120 -0.033333
-0.570395 -0.085810 0.033333
-0.570896 -0.085259 0.016667
-0.571323 -0.085059 0.000000
-0.571578 -0.085234 -0.016667
-0.571689 -0.085319 -0.033333
-0.569328 -0.069782 0.033333
-0.569841 -0.069391 0.016667
-0.570294 -0.069261 0.000000
-0.570567 -0.069417 -0.016667
-0.570675 -0.069495 -0.033333
-0.568121 -0.053703 0.033333
-0.568700 -0.053503 0.016667
-0.569257 -0.053439 0.000000
-0.569570 -0.053590 -0.016667
-0.569694 -0.053660 -0.033333
-0.566520 -0.037606 0.033333
-0.567612 -0.037590 0.016667
-0.568243 -0.037586 0.000000
-0.568607 -0.037770 -0.016667
-0.568742 -0.037801 -0.033333
-0.565767 -0.021494 0.033333
-0.566615 -0.021615 0.016667
-0.567297 -0.021753 0.000000
-0.567682 -0.021919 -0.016667
-0.567831 -0.021964 -0.033333
-0.565013 -0.005383 0.033333
-0.565764 -0.005633 0.016667
-0.566415 -0.005909 0.000000
-0.566808 -0.006080 -0.016667
-0.566957 -0.006119 -0.033333
-0.564260 0.010729 0.033333
-0.564944 0.010346 0.016667
-0.565588 0.009929 0.000000
-0.565974 0.009749 -0.016667
-0.566124 0.009719 -0.033333
-0.563506 0.026840 0.033333
-0.564134 0.026320 0.016667
-0.564786 0.025740 0.000000
-0.565177 0.025567 -0.016667
-0.565329 0.025537 -0.033333
-0.562752 0.042951 0.033333
-0.563276 0.042272 0.016667
-0.564004 0.041500 0.000000
-0.564408 0.041378 -0.016667
-0.564577 0.041318 -0.033333
-0.561640 0.059048 0.033333
-0.562412 0.058096 0.016667
-0.563241 0.057266 0.000000
-0.563684 0.057118 -0.016667
-0.563870 0.057111 -0.033333
-0.560682 0.075023 0.033333
-0.561574 0.073839 0.016667
-0.562523 0.072975 0.000000
-0.563017 0.072836 -0.016667
-0.563222 0.072866 -0.033333
-0.559866 0.090911 0.033333
-0.560825 0.089528 0.016667
-0.561883 0.088629 0.000000
-0.562421 0.088530 -0.016667
-0.562652 0.088589 -0.033333
-0.559096 0.106789 0.033333
-0.560173 0.105180 0.016667
-0.561335 0.104243 0.000000
-0.561916 0.104206 -0.016667
-0.562170 0.104282 -0.033333
-0.558424 0.122714 0.033333
-0.559612 0.120822 0.016667
-0.560896 0.119834 0.000000
-0.561508 0.119867 -0.016667
-0.561795 0.119947 -0.033333
-0.557749 0.138726 0.033333
-0.559155 0.136486 0.016667
-0.560556 0.135393 0.000000
-0.561210 0.135535 -0.016667
-0.561535 0.135567 -0.033333
-0.557261 0.155044 0.033333
-0.558793 0.152111 0.016667
-0.560330 0.150970 0.000000
-0.561016 0.151184 -0.016667
-0.561410 0.151150 -0.033333
-0.556723 0.171842 0.033333
-0.558538 0.167380 0.016667
-0.560136 0.166851 0.000000
-0.560998 0.166526 -0.016667
-0.561382 0.166963 -0.033333
-0.555969 0.187953 0.033333
-0.558306 0.183190 0.016667
-0.560093 0.182265 0.000000
-0.561074 0.182220 -0.016667
-0.561571 0.182378 -0.033333
-0.555215 0.204065 0.033333
-0.558071 0.198805 0.016667
-0.560184 0.197743 0.000000
-0.561355 0.197772 -0.016667
-0.561948 0.197820 -0.033333
-0.554462 0.220176 0.033333
-0.558013 0.214376 0.016667
-0.560479 0.213206 0.000000
-0.561893 0.213218 -0.016667
-0.562603 0.213216 -0.033333
-0.553708 0.236287 0.033333
-0.558165 0.229688 0.016667
-0.561173 0.228697 0.000000
-0.562800 0.228515 -0.016667
-0.563576 0.228535 -0.033333
-0.552954 0.252399 0.033333
-0.558951 0.244934 0.016667
-0.562532 0.244155 0.000000
-0.564179 0.243585 -0.016667
-0.564937 0.243819 -0.033333
-0.552200 0.268510 0.033333
-0.561566 0.259762 0.016667
-0.564770 0.259749 0.000000
-0.566258 0.258160 -0.016667
-0.566491 0.259217 -0.033333
-0.565952 0.282198 0.033333
-0.567482 0.276088 0.016667
-0.568506 0.273473 0.000000
-0.568421 0.273747 -0.016667
-0.568386 0.273288 -0.033333
-0.574441 0.295771 0.033333
-0.573203 0.290199 0.016667
-0.571873 0.287852 0.000000
-0.570704 0.288147 -0.016667
-0.569913 0.287970 -0.033333
-0.579477 0.308387 0.033333
-0.576948 0.304008 0.016667
-0.574333 0.301810 0.000000
-0.572226 0.302302 -0.016667
-0.570912 0.302502 -0.033333
-0.581679 0.321186 0.033333
-0.578656 0.317083 0.016667
-0.575288 0.315546 0.000000
-0.572642 0.316409 -0.016667
-0.571056 0.316829 -0.033333
-0.581372 0.333251 0.033333
-0.578062 0.330180 0.016667
-0.574567 0.329170 0.000000
-0.571791 0.330475 -0.016667
-0.570118 0.331172 -0.033333
-0.578382 0.345742 0.033333
-0.575367 0.343288 0.016667
-0.572103 0.342859 0.000000
-0.569574 0.344645 -0.016667
-0.568150 0.345565 -0.033333
-0.572957 0.358490 0.033333
-0.570418 0.356579 0.016667
-0.567868 0.356690 0.000000
-0.566100 0.359028 -0.016667
-0.565280 0.360099 -0.033333
-0.564913 0.371712 0.033333
-0.563096 0.370223 0.016667
-0.561743 0.370829 0.000000
-0.561563 0.373711 -0.016667
-0.561955 0.374824 -0.033333
-0.554242 0.385697 0.033333
-0.553003 0.384346 0.016667
-0.553235 0.385481 0.000000
-0.556506 0.388770 -0.016667
-0.559011 0.389747 -0.033333
-0.548301 -0.487134 0.033333
-0.560140 -0.498558 0.016667
-0.568828 -0.500583 0.000000
-0.573937 -0.502194 -0.016667
-0.577125 -0.503153 -0.033333
-0.568610 -0.473681 0.033333
-0.573240 -0.482512 0.016667
-0.576793 -0.486177 0.000000
-0.579182 -0.487116 -0.016667
-0.580908 -0.488639 -0.033333
-0.584727 -0.460132 0.033333
-0.585004 -0.467675 0.016667
-0.585265 -0.471584 0.000000
-0.585691 -0.472657 -0.016667
-0.586123 -0.473977 -0.033333
-0.597469 -0.446894 0.033333
-0.595412 -0.453458 0.016667
-0.593561 -0.457225 0.000000
-0.592513 -0.458459 -0.016667
-0.592003 -0.459549 -0.033333
-0.607685 -0.433995 0.033333
-0.604359 -0.439668 0.016667
-0.601169 -0.443174 0.000000
-0.599072 -0.444466 -0.016667
-0.597908 -0.445398 -0.033333
-0.615884 -0.421367 0.033333
-0.611839 -0.426221 0.016667
-0.607800 -0.429405 0.000000
-0.604988 -0.430679 -0.016667
-0.603376 -0.431492 -0.033333
-0.622353 -0.408946 0.033333
-0.617870 -0.413048 0.016667
-0.613290 -0.415875 0.000000
-0.610008 -0.417082 -0.016667
-0.608095 -0.417793 -0.033333
-0.627221 -0.396704 0.033333
-0.622471 -0.400091 0.016667
-0.617548 -0.402541 0.000000
-0.613962 -0.403650 -0.016667
-0.611856 -0.404266 -0.033333
-0.630574 -0.384567 0.033333
-0.625644 -0.387301 0.016667
-0.620511 -0.389367 0.000000
-0.616743 -0.390354 -0.016667
-0.614516 -0.390876 -0.033333
-0.632412 -0.372590 0.033333
-0.627385 -0.374651 0.016667
-0.622137 -0.376314 0.000000
-0.618274 -0.377165 -0.016667
-0.615992 -0.377591 -0.033333
-0.632742 -0.360676 0.033333
-0.627656 -0.362109 0.016667
-0.622388 -0.363358 0.000000
-0.618517 -0.364054 -0.016667
-0.616223 -0.364380 -0.033333
-0.631440 -0.348943 0.033333
-0.626441 -0.349642 0.016667
-0.621236 -0.350465 0.000000
-0.617435 -0.350996 -0.016667
-0.615204 -0.351206 -0.033333
-0.628563 -0.337072 0.033333
-0.623619 -0.337276 0.016667
-0.618652 -0.337607 0.000000
-0.615050 -0.337940 -0.016667
-0.612922 -0.338055 -0.033333
-0.623773 -0.325738 0.033333
-0.619218 -0.324773 0.016667
-0.614621 -0.324723 0.000000
-0.611361 -0.324899 -0.016667
-0.609469 -0.324824 -0.033333
-0.616906 -0.313785 0.033333
-0.613036 -0.312415 0.016667
-0.609175 -0.311763 0.000000
-0.606471 -0.311722 -0.016667
-0.604918 -0.311564 -0.033333
-0.607849 -0.301902 0.033333
-0.605073 -0.299605 0.016667
-0.602361 -0.298637 0.000000
-0.600535 -0.298455 -0.016667
-0.599481 -0.298064 -0.033333
-0.596006 -0.289542 0.033333
-0.595376 -0.286578 0.016667
-0.594454 -0.285170 0.000000
-0.593812 -0.284941 -0.016667
-0.593466 -0.284354 -0.033333
-0.580770 -0.276564 0.033333
-0.584117 -0.272871 0.016667
-0.586003 -0.271298 0.000000
-0.586738 -0.271142 -0.016667
-0.587345 -0.270243 -0.033333
-0.560960 -0.263917 0.033333
-0.572141 -0.257319 0.016667
-0.577594 -0.257793 0.000000
-0.580356 -0.256069 -0.016667
-0.581346 -0.256608 -0.033333
-0.560206 -0.247806 0.033333
-0.567294 -0.242469 0.016667
-0.572149 -0.242435 0.000000
-0.574824 -0.241722 -0.016667
-0.576293 -0.241591 -0.033333
-0.559453 -0.231695 0.033333
-0.564440 -0.227307 0.016667
-0.568236 -0.227014 0.000000
-0.570610 -0.226800 -0.016667
-0.571968 -0.226560 -0.033333
-0.558699 -0.215583 0.033333
-0.562450 -0.211857 0.016667
-0.565386 -0.211534 0.000000
-0.567326 -0.211555 -0.016667
-0.568460 -0.211374 -0.033333
-0.557945 -0.199472 0.033333
-0.560904 -0.196319 0.016667
-0.563195 -0.195961 0.000000
-0.564736 -0.196121 -0.016667
-0.565645 -0.196023 -0.033333
-0.557192 -0.183360 0.033333
-0.559591 -0.180627 0.016667
-0.561450 -0.180344 0.000000
-0.562662 -0.180550 -0.016667
-0.563371 -0.180539 -0.033333
-0.556438 -0.167249 0.033333
-0.558495 -0.164883 0.016667
-0.560023 -0.164681 0.000000
-0.560973 -0.164882 -0.016667
-0.561516 -0.164960 -0.033333
-0.555684 -0.151137 0.033333
-0.557651 -0.149037 0.016667
-0.558850 -0.149022 0.000000
-0.559566 -0.149112 -0.016667
-0.559968 -0.149342 -0.033333
-0.556093 -0.134709 0.033333
-0.556980 -0.133434 0.016667
-0.557838 -0.133135 0.000000
-0.558359 -0.133473 -0.016667
-0.558640 -0.133514 -0.033333
-0.555692 -0.118612 0.033333
-0.556328 -0.117642 0.016667
-0.556902 -0.117380 0.000000
-0.557273 -0.117682 -0.016667
-0.557460 -0.117760 -0.033333
-0.555016 -0.102571 0.033333
-0.555523 -0.101837 0.016667
-0.555968 -0.101618 0.000000
-0.556244 -0.101872 -0.016667
-0.556374 -0.101975 -0.033333
-0.554139 -0.086558 0.033333
-0.554592 -0.086000 0.016667
-0.554995 -0.085839 0.000000
-0.555239 -0.086055 -0.016667
-0.555341 -0.086160 -0.033333
-0.553111 -0.070516 0.033333
-0.553570 -0.070144 0.016667
-0.553987 -0.070038 0.000000
-0.554241 -0.070228 -0.016667
-0.554341 -0.070327 -0.033333
-0.551948 -0.054465 0.033333
-0.552458 -0.054252 0.016667
-0.552965 -0.054214 0.000000
-0.553258 -0.054396 -0.016667
-0.553366 -0.054477 -0.033333
-0.550409 -0.038359 0.033333
-0.551392 -0.038343 0.016667
-0.551967 -0.038360 0.000000
-0.552299 -0.038566 -0.016667
-0.552421 -0.038609 -0.033333
-0.549655 -0.022248 0.033333
-0.550408 -0.022366 0.016667
-0.551024 -0.022523 0.000000
-0.551378 -0.022709 -0.016667
-0.551506 -0.022759 -0.033333
-0.548902 -0.006136 0.033333
-0.549552 -0.006380 0.016667
-0.550141 -0.006676 0.000000
-0.550495 -0.006861 -0.016667
-0.550626 -0.006903 -0.033333
-0.548148 0.009975 0.033333
-0.548727 0.009605 0.016667
-0.549299 0.009163 0.000000
-0.549649 0.008976 -0.016667
-0.549777 0.008945 -0.033333
-0.547394 0.026086 0.033333
-0.547897 0.025584 0.016667
-0.548473 0.024974 0.000000
-0.548827 0.024800 -0.016667
-0.548961 0.024773 -0.033333
-0.546641 0.042198 0.033333
-0.546995 0.041541 0.016667
-0.547650 0.040727 0.000000
-0.548029 0.040618 -0.016667
-0.548181 0.040557 -0.033333
-0.545303 0.058302 0.033333
-0.546055 0.057343 0.016667
-0.546837 0.056495 0.000000
-0.547267 0.056352 -0.016667
-0.547443 0.056361 -0.033333
-0.544233 0.074250 0.033333
-0.545139 0.073080 0.016667
-0.546069 0.072189 0.000000
-0.546561 0.072070 -0.016667
-0.546763 0.072118 -0.033333
-0.543328 0.090144 0.033333
-0.544345 0.088748 0.016667
-0.545385 0.087831 0.000000
-0.545933 0.087763 -0.016667
-0.546160 0.087845 -0.033333
-0.542581 0.106025 0.033333
-0.543680 0.104386 0.016667
-0.544815 0.103434 0.000000
-0.545400 0.103438 -0.016667
-0.545651 0.103544 -0.033333
-0.541917 0.121948 0.033333
-0.543140 0.120019 0.016667
-0.544359 0.119009 0.000000
-0.544974 0.119108 -0.016667
-0.545246 0.119213 -0.033333
-0.541408 0.138010 0.033333
-0.542728 0.135657 0.016667
-0.544021 0.134578 0.000000
-0.544656 0.134781 -0.016667
-0.544957 0.134848 -0.033333
-0.541017 0.154228 0.033333
-0.542419 0.151289 0.016667
-0.543782 0.150160 0.000000
-0.544450 0.150450 -0.016667
-0.544790 0.150454 -0.033333
-0.540612 0.171088 0.033333
-0.542205 0.166535 0.016667
-0.543591 0.166087 0.000000
-0.544386 0.165804 -0.016667
-0.544733 0.166309 -0.033333
-0.539858 0.187200 0.033333
-0.541921 0.182331 0.016667
-0.543527 0.181526 0.000000
-0.544421 0.181543 -0.016667
-0.544851 0.181752 -0.033333
-0.539104 0.203311 0.033333
-0.541695 0.198040 0.016667
-0.543563 0.197024 0.000000
-0.544628 0.197142 -0.016667
-0.545158 0.197243 -0.033333
-0.538350 0.219422 0.033333
-0.541551 0.213556 0.016667
-0.543803 0.212547 0.000000
-0.545073 0.212634 -0.016667
-0.545697 0.212690 -0.033333
-0.537596 0.235534 0.033333
-0.541668 0.228997 0.016667
-0.544383 0.228040 0.000000
-0.545840 0.227993 -0.016667
-0.546541 0.228074 -0.033333
-0.536843 0.251645 0.033333
-0.542338 0.244140 0.016667
-0.545568 0.243571 0.000000
-0.547051 0.243112 -0.016667
-0.547696 0.243413 -0.033333
-0.536089 0.267757 0.033333
-0.544719 0.259025 0.016667
-0.547524 0.259168 0.000000
-0.548840 0.257744 -0.016667
-0.549055 0.258913 -0.033333
-0.548351 0.281407 0.033333
-0.549695 0.275262 0.016667
-0.550729 0.273009 0.000000
-0.550714 0.273421 -0.016667
-0.550679 0.273024 -0.033333
-0.555602 0.295059 0.033333
-0.554678 0.289760 0.016667
-0.553647 0.287439 0.000000
-0.552655 0.287880 -0.016667
-0.551987 0.287851 -0.033333
-0.560045 0.308146 0.033333
-0.557974 0.303391 0.016667
-0.555739 0.301537 0.000000
-0.553940 0.302188 -0.016667
-0.552825 0.302388 -0.033333
-0.561929 0.320514 0.033333
-0.559304 0.316878 0.016667
-0.556522 0.315369 0.000000
-0.554258 0.316329 -0.016667
-0.552860 0.316839 -0.033333
-0.561424 0.333209 0.033333
-0.558788 0.330022 0.016667
-0.555794 0.329091 0.000000
-0.553393 0.330474 -0.016667
-0.551973 0.331206 -0.033333
-0.558802 0.345696 0.033333
-0.556248 0.343206 0.016667
-0.553492 0.342812 0.000000
-0.551332 0.344691 -0.016667
-0.550108 0.345636 -0.033333
-0.553823 0.358493 0.033333
-0.551723 0.356551 0.016667
-0.549579 0.356689 0.000000
-0.548108 0.359093 -0.016667
-0.547458 0.360188 -0.033333
-0.546521 0.371739 0.033333
-0.545016 0.370219 0.016667
-0.543965 0.370841 0.000000
-0.543930 0.373796 -0.016667
-0.544386 0.374910 -0.033333
-0.536815 0.385714 0.033333
-0.535779 0.384364 0.016667
-0.536206 0.385484 0.000000
-0.539271 0.388865 -0.016667
-0.541698 0.389822 -0.033333
-0.531450 -0.487277 0.033333
-0.542840 -0.498991 0.016667
-0.551248 -0.501006 0.000000
-0.556267 -0.502566 -0.016667
-0.559379 -0.503509 -0.033333
-0.550926 -0.473921 0.033333
-0.555244 -0.483021 0.016667
-0.558762 -0.486699 0.000000
-0.561172 -0.487589 -0.016667
-0.562897 -0.489113 -0.033333
-0.566216 -0.460483 0.033333
-0.566444 -0.468265 0.016667
-0.566803 -0.472188 0.000000
-0.567315 -0.473229 -0.016667
-0.567794 -0.474545 -0.033333
-0.578265 -0.447367 0.033333
-0.576344 -0.454120 0.016667
-0.574685 -0.457911 0.000000
-0.573773 -0.459117 -0.016667
-0.573344 -0.460207 -0.033333
-0.587923 -0.434584 0.033333
-0.584845 -0.440406 0.016667
-0.581915 -0.443940 0.000000
-0.579994 -0.445206 -0.016667
-0.578933 -0.446138 -0.033333
-0.595691 -0.422071 0.033333
-0.591953 -0.427042 0.016667
-0.588221 -0.430250 0.000000
-0.585617 -0.431500 -0.016667
-0.584123 -0.432310 -0.033333
-0.601821 -0.409776 0.033333
-0.597694 -0.413958 0.016667
-0.593453 -0.416801 0.000000
-0.590398 -0.417985 -0.016667
-0.588616 -0.418689 -0.033333
-0.606457 -0.397646 0.033333
-0.602082 -0.401099 0.016667
-0.597520 -0.403555 0.000000
-0.594178 -0.404638 -0.016667
-0.592208 -0.405242 -0.033333
-0.609639 -0.385677 0.033333
-0.605121 -0.388417 0.016667
-0.600366 -0.390470 0.000000
-0.596848 -0.391429 -0.016667
-0.594767 -0.391934 -0.033333
-0.611400 -0.373791 0.033333
-0.606791 -0.375867 0.016667
-0.601942 -0.377510 0.000000
-0.598341 -0.378325 -0.016667
-0.596202 -0.378729 -0.033333
-0.611685 -0.362041 0.033333
-0.607081 -0.363414 0.016667
-0.602216 -0.364634 0.000000
-0.598606 -0.365294 -0.016667
-0.596469 -0.365592 -0.033333
-0.610516 -0.350271 0.033333
-0.605920 -0.351034 0.016667
-0.601156 -0.351807 0.000000
-0.597631 -0.352294 -0.016667
-0.595534 -0.352491 -0.033333
-0.607683 -0.338768 0.033333
-0.603317 -0.338608 0.016667
-0.598742 -0.338977 0.000000
-0.595397 -0.339307 -0.016667
-0.593432 -0.339358 -0.033333
-0.603194 -0.326814 0.033333
-0.599129 -0.326255 0.016667
-0.594970 -0.326102 0.000000
-0.591956 -0.326231 -0.016667
-0.590189 -0.326200 -0.033333
-0.596901 -0.315106 0.033333
-0.593361 -0.313579 0.016667
-0.589848 -0.313098 0.000000
-0.587375 -0.313089 -0.016667
-0.585933 -0.312869 -0.033333
-0.588453 -0.302972 0.033333
-0.585952 -0.300802 0.016667
-0.583487 -0.299863 0.000000
-0.581805 -0.299733 -0.016667
-0.580843 -0.299390 -0.033333
-0.577576 -0.290447 0.033333
-0.576906 -0.287523 0.016667
-0.576096 -0.286323 0.000000
-0.575534 -0.286154 -0.016667
-0.575200 -0.285593 -0.033333
-0.563497 -0.277359 0.033333
-0.566450 -0.273733 0.016667
-0.568244 -0.272316 0.000000
-0.568919 -0.272273 -0.016667
-0.569489 -0.271433 -0.033333
-0.544849 -0.264671 0.033333
-0.555533 -0.258061 0.016667
-0.560469 -0.258766 0.000000
-0.562982 -0.257116 -0.016667
-0.563847 -0.257735 -0.033333
-0.544095 -0.248560 0.033333
-0.550763 -0.243278 0.016667
-0.555306 -0.243346 0.000000
-0.557756 -0.242737 -0.016667
-0.559106 -0.242655 -0.033333
-0.543341 -0.232448 0.033333
-0.548006 -0.228070 0.016667
-0.551559 -0.227915 0.000000
-0.553763 -0.227769 -0.016667
-0.555006 -0.227573 -0.033333
-0.542588 -0.216337 0.033333
-0.546083 -0.212668 0.016667
-0.548820 -0.212390 0.000000
-0.550628 -0.212493 -0.016667
-0.551679 -0.212343 -0.033333
-0.541834 -0.200225 0.033333
-0.544561 -0.197072 0.016667
-0.546713 -0.196806 0.000000
-0.548149 -0.197020 -0.016667
-0.548990 -0.196956 -0.033333
-0.541080 -0.184114 0.033333
-0.543295 -0.181404 0.016667
-0.545018 -0.181155 0.000000
-0.546155 -0.181422 -0.016667
-0.546814 -0.181439 -0.033333
-0.540327 -0.168003 0.033333
-0.542196 -0.165622 0.016667
-0.543634 -0.165480 0.000000
-0.544521 -0.165727 -0.016667
-0.545027 -0.165833 -0.033333
-0.539573 -0.151891 0.033333
-0.541364 -0.149785 0.016667
-0.542476 -0.149803 0.000000
-0.543154 -0.149937 -0.016667
-0.543529 -0.150195 -0.033333
-0.539849 -0.135465 0.033333
-0.540662 -0.134166 0.016667
-0.541478 -0.133904 0.000000
-0.541973 -0.134286 -0.016667
-0.542237 -0.134345 -0.033333
-0.539413 -0.119351 0.033333
-0.540005 -0.118383 0.016667
-0.540549 -0.118140 0.000000
-0.540906 -0.118482 -0.016667
-0.541084 -0.118581 -0.033333
-0.538734 -0.103320 0.033333
-0.539198 -0.102567 0.016667
-0.539626 -0.102375 0.000000
-0.539894 -0.102665 -0.016667
-0.540017 -0.102784 -0.033333
-0.537880 -0.087293 0.033333
-0.538291 -0.086740 0.016667
-0.538669 -0.086594 0.000000
-0.538903 -0.086841 -0.016667
-0.539001 -0.086963 -0.033333
-0.536886 -0.071271 0.033333
-0.537292 -0.070880 0.016667
-0.537679 -0.070794 0.000000
-0.537922 -0.071011 -0.016667
-0.538013 -0.071121 -0.033333
-0.535764 -0.055209 0.033333
-0.536214 -0.054997 0.016667
-0.536677 -0.054970 0.000000
-0.536950 -0.055173 -0.016667
-0.537048 -0.055266 -0.033333
-0.534297 -0.039113 0.033333
-0.535171 -0.039085 0.016667
-0.535692 -0.039117 0.000000
-0.536000 -0.039341 -0.016667
-0.536106 -0.039391 -0.033333
-0.533544 -0.023001 0.033333
-0.534200 -0.023108 0.016667
-0.534757 -0.023281 0.000000
-0.535078 -0.023479 -0.016667
-0.535192 -0.023535 -0.033333
-0.532790 -0.006890 0.033333
-0.533345 -0.007121 0.016667
-0.533869 -0.007434 0.000000
-0.534191 -0.007629 -0.016667
-0.534303 -0.007672 -0.033333
-0.532037 0.009222 0.033333
-0.532510 0.008866 0.016667
-0.533016 0.008404 0.000000
-0.533328 0.008210 -0.016667
-0.533440 0.008181 -0.033333
-0.531283 0.025333 0.033333
-0.531666 0.024848 0.016667
-0.532161 0.024212 0.000000
-0.532483 0.024036 -0.016667
-0.532601 0.024011 -0.033333
-0.530530 0.041444 0.033333
-0.530705 0.040804 0.016667
-0.531299 0.039958 0.000000
-0.531650 0.039856 -0.016667
-0.531793 0.039796 -0.033333
-0.528959 0.057541 0.033333
-0.529693 0.056596 0.016667
-0.530431 0.055721 0.000000
-0.530851 0.055584 -0.016667
-0.531021 0.055604 -0.033333
-0.527755 0.073497 0.033333
-0.528691 0.072315 0.016667
-0.529610 0.071408 0.000000
-0.530106 0.071298 -0.016667
-0.530309 0.071362 -0.033333
-0.526804 0.089384 0.033333
-0.527851 0.087975 0.016667
-0.528886 0.087038 0.000000
-0.529443 0.086987 -0.016667
-0.529675 0.087087 -0.033333
-0.526026 0.105269 0.033333
-0.527172 0.103600 0.016667
-0.528289 0.102629 0.000000
-0.528886 0.102661 -0.016667
-0.529139 0.102787 -0.033333
-0.525437 0.121206 0.033333
-0.526654 0.119219 0.016667
-0.527829 0.118200 0.000000
-0.528442 0.118331 -0.016667
-0.528712 0.118461 -0.033333
-0.524991 0.137234 0.033333
-0.526284 0.134848 0.016667
-0.527494 0.133763 0.000000
-0.528117 0.134011 -0.016667
-0.528398 0.134105 -0.033333
-0.524734 0.153475 0.033333
-0.526045 0.150463 0.016667
-0.527270 0.149355 0.000000
-0.527890 0.149692 -0.016667
-0.528211 0.149723 -0.033333
-0.524500 0.170334 0.033333
-0.525849 0.165675 0.016667
-0.527076 0.165306 0.000000
-0.527813 0.165053 -0.016667
-0.528107 0.165609 -0.033333
-0.523746 0.186446 0.033333
-0.525593 0.181517 0.016667
-0.526997 0.180749 0.000000
-0.527798 0.180824 -0.016667
-0.528187 0.181076 -0.033333
-0.522993 0.202557 0.033333
-0.525314 0.197196 0.016667
-0.526995 0.196277 0.000000
-0.527950 0.196455 -0.016667
-0.528411 0.196597 -0.033333
-0.522239 0.218669 0.033333
-0.525149 0.212788 0.016667
-0.527163 0.211808 0.000000
-0.528298 0.211984 -0.016667
-0.528858 0.212088 -0.033333
-0.521485 0.234780 0.033333
-0.525188 0.228169 0.016667
-0.527634 0.227344 0.000000
-0.528946 0.227380 -0.016667
-0.529554 0.227510 -0.033333
-0.520731 0.250891 0.033333
-0.525725 0.243379 0.016667
-0.528653 0.242878 0.000000
-0.529961 0.242541 -0.016667
-0.530547 0.242913 -0.033333
-0.519977 0.267003 0.033333
-0.527888 0.258187 0.016667
-0.530306 0.258538 0.000000
-0.531519 0.257218 -0.016667
-0.531670 0.258462 -0.033333
-0.530848 0.280609 0.033333
-0.532048 0.274517 0.016667
-0.533075 0.272397 0.000000
-0.533073 0.272947 -0.016667
-0.533075 0.272672 -0.033333
-0.537111 0.294322 0.033333
-0.536361 0.288962 0.016667
-0.535536 0.286933 0.000000
-0.534724 0.287521 -0.016667
-0.534152 0.287524 -0.033333
-0.540821 0.307373 0.033333
-0.539145 0.302957 0.016667
-0.537310 0.301118 0.000000
-0.535777 0.301877 -0.016667
-0.534812 0.302193 -0.033333
-0.542395 0.320302 0.033333
-0.540295 0.316380 0.016667
-0.537902 0.315063 0.000000
-0.535958 0.316143 -0.016667
-0.534776 0.316675 -0.033333
-0.541947 0.332776 0.033333
-0.539656 0.329735 0.016667
-0.537151 0.328873 0.000000
-0.535109 0.330347 -0.016667
-0.533878 0.331130 -0.033333
-0.539406 0.345514 0.033333
-0.537322 0.343018 0.016667
-0.534987 0.342689 0.000000
-0.533156 0.344630 -0.016667
-0.532138 0.345604 -0.033333
-0.534902 0.358402 0.033333
-0.533149 0.356446 0.016667
-0.531380 0.356622 0.000000
-0.530179 0.359086 -0.016667
-0.529670 0.360192 -0.033333
-0.528244 0.371710 0.033333
-0.527035 0.370181 0.016667
-0.526243 0.370820 0.000000
-0.526334 0.373825 -0.016667
-0.526848 0.374939 -0.033333
-0.519462 0.385714 0.033333
-0.518602 0.384370 0.016667
-0.519197 0.385477 0.000000
-0.522061 0.388929 -0.016667
-0.524387 0.389856 -0.033333
-0.514568 -0.487426 0.033333
-0.525455 -0.499430 0.016667
-0.533556 -0.501456 0.000000
-0.538464 -0.502974 -0.016667
-0.541484 -0.503913 -0.033333
-0.533169 -0.474165 0.033333
-0.537161 -0.483541 0.016667
-0.540627 -0.487242 0.000000
-0.543041 -0.488094 -0.016667
-0.544753 -0.489621 -0.033333
-0.547616 -0.460840 0.033333
-0.547798 -0.468868 0.016667
-0.548241 -0.472812 0.000000
-0.548827 -0.473829 -0.016667
-0.549345 -0.475142 -0.033333
-0.558970 -0.447847 0.033333
-0.557185 -0.454799 0.016667
-0.555710 -0.458619 0.000000
-0.554927 -0.459801 -0.016667
-0.554574 -0.460890 -0.033333
-0.568078 -0.435181 0.033333
-0.565236 -0.441163 0.016667
-0.562560 -0.444728 0.000000
-0.560814 -0.445970 -0.016667
-0.559854 -0.446902 -0.033333
-0.575407 -0.422779 0.033333
-0.571969 -0.427875 0.016667
-0.568539 -0.431113 0.000000
-0.566143 -0.432341 -0.016667
-0.564769 -0.433149 -0.033333
-0.581207 -0.410587 0.033333
-0.577412 -0.414871 0.016667
-0.573507 -0.417738 0.000000
-0.570685 -0.418901 -0.016667
-0.569035 -0.419599 -0.033333
-0.585589 -0.398573 0.033333
-0.581584 -0.402090 0.016667
-0.577382 -0.404563 0.000000
-0.574286 -0.405626 -0.016667
-0.572459 -0.406221 -0.033333
-0.588620 -0.386679 0.033333
-0.584483 -0.389482 0.016667
-0.580106 -0.391547 0.000000
-0.576848 -0.392485 -0.016667
-0.574913 -0.392978 -0.033333
-0.590287 -0.374915 0.033333
-0.586100 -0.377002 0.016667
-0.581637 -0.378647 0.000000
-0.578300 -0.379444 -0.016667
-0.576315 -0.379833 -0.033333
-0.590607 -0.363182 0.033333
-0.586396 -0.364607 0.016667
-0.581940 -0.365822 0.000000
-0.578602 -0.366463 -0.016667
-0.576610 -0.366750 -0.033333
-0.589467 -0.351577 0.033333
-0.585369 -0.352226 0.016667
-0.580989 -0.353025 0.000000
-0.577724 -0.353510 -0.016667
-0.575789 -0.353678 -0.033333
-0.586916 -0.339728 0.033333
-0.582926 -0.339881 0.016667
-0.578767 -0.340211 0.000000
-0.575682 -0.340516 -0.016667
-0.573849 -0.340593 -0.033333
-0.582790 -0.328122 0.033333
-0.579079 -0.327332 0.016667
-0.575266 -0.327306 0.000000
-0.572492 -0.327475 -0.016667
-0.570857 -0.327394 -0.033333
-0.576918 -0.316100 0.033333
-0.573738 -0.314735 0.016667
-0.570525 -0.314247 0.000000
-0.568237 -0.314265 -0.016667
-0.566906 -0.314089 -0.033333
-0.569213 -0.303904 0.033333
-0.566868 -0.301741 0.016667
-0.564613 -0.300957 0.000000
-0.563072 -0.300880 -0.016667
-0.562171 -0.300536 -0.033333
-0.559214 -0.291297 0.033333
-0.558508 -0.288406 0.016667
-0.557759 -0.287314 0.000000
-0.557241 -0.287223 -0.016667
-0.556932 -0.286711 -0.033333
-0.546264 -0.278133 0.033333
-0.548809 -0.274490 0.016667
-0.550488 -0.273242 0.000000
-0.551106 -0.273277 -0.016667
-0.551616 -0.272482 -0.033333
-0.528737 -0.265425 0.033333
-0.538869 -0.258775 0.016667
-0.543322 -0.259629 0.000000
-0.545590 -0.258061 -0.016667
-0.546357 -0.258745 -0.033333
-0.527984 -0.249313 0.033333
-0.534227 -0.243998 0.016667
-0.538450 -0.244194 0.000000
-0.540691 -0.243648 -0.016667
-0.541914 -0.243610 -0.033333
-0.527230 -0.233202 0.033333
-0.531576 -0.228837 0.016667
-0.534884 -0.228729 0.000000
-0.536917 -0.228657 -0.016667
-0.538060 -0.228490 -0.033333
-0.526476 -0.217091 0.033333
-0.529718 -0.213397 0.016667
-0.532267 -0.213201 0.000000
-0.533943 -0.213350 -0.016667
-0.534907 -0.213228 -0.033333
-0.525722 -0.200979 0.033333
-0.528246 -0.197832 0.016667
-0.530241 -0.197589 0.000000
-0.531575 -0.197857 -0.016667
-0.532353 -0.197814 -0.033333
-0.524969 -0.184868 0.033333
-0.526997 -0.182129 0.016667
-0.528605 -0.181932 0.000000
-0.529662 -0.182236 -0.016667
-0.530269 -0.182274 -0.033333
-0.524215 -0.168756 0.033333
-0.525925 -0.166362 0.016667
-0.527254 -0.166238 0.000000
-0.528083 -0.166524 -0.016667
-0.528552 -0.166649 -0.033333
-0.523461 -0.152645 0.033333
-0.525074 -0.150503 0.016667
-0.526118 -0.150556 0.000000
-0.526752 -0.150718 -0.016667
-0.527101 -0.150996 -0.033333
-0.523611 -0.136209 0.033333
-0.524363 -0.134900 0.016667
-0.525126 -0.134644 0.000000
-0.525595 -0.135059 -0.016667
-0.525844 -0.135133 -0.033333
-0.523135 -0.120103 0.033333
-0.523679 -0.119103 0.016667
-0.524202 -0.118878 0.000000
-0.524545 -0.119248 -0.016667
-0.524713 -0.119358 -0.033333
-0.522452 -0.104058 0.033333
-0.522879 -0.103297 0.016667
-0.523286 -0.103110 0.000000
-0.523547 -0.103424 -0.016667
-0.523666 -0.103557 -0.033333
-0.521614 -0.088045 0.033333
-0.521983 -0.087464 0.016667
-0.522343 -0.087330 0.000000
-0.522571 -0.087598 -0.016667
-0.522663 -0.087728 -0.033333
-0.520653 -0.072012 0.033333
-0.521012 -0.071614 0.016667
-0.521371 -0.071530 0.000000
-0.521603 -0.071765 -0.016667
-0.521688 -0.071884 -0.033333
-0.519575 -0.055967 0.033333
-0.519964 -0.055728 0.016667
-0.520386 -0.055709 0.000000
-0.520644 -0.055928 -0.016667
-0.520732 -0.056025 -0.033333
-0.518186 -0.039866 0.033333
-0.518948 -0.039820 0.016667
-0.519417 -0.039859 0.000000
-0.519701 -0.040093 -0.016667
-0.519796 -0.040149 -0.033333
-0.517432 -0.023755 0.033333
-0.517992 -0.023844 0.016667
-0.518488 -0.024025 0.000000
-0.518782 -0.024233 -0.016667
-0.518880 -0.024290 -0.033333
-0.516679 -0.007643 0.033333
-0.517135 -0.007857 0.016667
-0.517600 -0.008181 0.000000
-0.517888 -0.008382 -0.016667
-0.517984 -0.008426 -0.033333
-0.515925 0.008468 0.033333
-0.516296 0.008130 0.016667
-0.516732 0.007654 0.000000
-0.517011 0.007456 -0.016667
-0.517105 0.007429 -0.033333
-0.515172 0.024579 0.033333
-0.515430 0.024112 0.016667
-0.515853 0.023455 0.000000
-0.516139 0.023280 -0.016667
-0.516244 0.023259 -0.033333
-0.514418 0.040691 0.033333
-0.514417 0.040069 0.016667
-0.514945 0.039192 0.000000
-0.515274 0.039100 -0.016667
-0.515405 0.039039 -0.033333
-0.512600 0.056793 0.033333
-0.513320 0.055843 0.016667
-0.514023 0.054952 0.000000
-0.514433 0.054818 -0.016667
-0.514601 0.054849 -0.033333
-0.511279 0.072734 0.033333
-0.512235 0.071553 0.016667
-0.513148 0.070628 0.000000
-0.513648 0.070527 -0.016667
-0.513855 0.070603 -0.033333
-0.510252 0.088624 0.033333
-0.511343 0.087196 0.016667
-0.512381 0.086247 0.000000
-0.512952 0.086211 -0.016667
-0.513192 0.086327 -0.033333
-0.509484 0.104506 0.033333
-0.510652 0.102811 0.016667
-0.511763 0.101829 0.000000
-0.512370 0.101881 -0.016667
-0.512631 0.102024 -0.033333
-0.508914 0.120436 0.033333
-0.510150 0.118417 0.016667
-0.511298 0.117391 0.000000
-0.511915 0.117550 -0.016667
-0.512184 0.117700 -0.033333
-0.508560 0.136468 0.033333
-0.509831 0.134034 0.016667
-0.510977 0.132952 0.000000
-0.511579 0.133233 -0.016667
-0.511856 0.133348 -0.033333
-0.508415 0.152691 0.033333
-0.509645 0.149632 0.016667
-0.510767 0.148545 0.000000
-0.511351 0.148920 -0.016667
-0.511644 0.148976 -0.033333
-0.508389 0.169581 0.033333
-0.509511 0.164845 0.016667
-0.510585 0.164508 0.000000
-0.511251 0.164287 -0.016667
-0.511518 0.164883 -0.033333
-0.507635 0.185692 0.033333
-0.509256 0.180669 0.016667
-0.510493 0.179961 0.000000
-0.511211 0.180079 -0.016667
-0.511545 0.180365 -0.033333
-0.506881 0.201803 0.033333
-0.508969 0.196390 0.016667
-0.510456 0.195493 0.000000
-0.511300 0.195732 -0.016667
-0.511712 0.195912 -0.033333
-0.506127 0.217915 0.033333
-0.508753 0.211948 0.016667
-0.510555 0.211048 0.000000
-0.511570 0.211286 -0.016667
-0.512054 0.211428 -0.033333
-0.505374 0.234026 0.033333
-0.508727 0.227378 0.016667
-0.510922 0.226588 0.000000
-0.512085 0.226710 -0.016667
-0.512629 0.226890 -0.033333
-0.504620 0.250138 0.033333
-0.509141 0.242544 0.016667
-0.511762 0.242154 0.000000
-0.512937 0.241904 -0.016667
-0.513439 0.242325 -0.033333
-0.503866 0.266249 0.033333
-0.511042 0.257374 0.016667
-0.513158 0.257827 0.000000
-0.514235 0.256615 -0.016667
-0.514376 0.257941 -0.033333
-0.513462 0.279802 0.033333
-0.514513 0.273658 0.016667
-0.515496 0.271750 0.000000
-0.515533 0.272406 -0.016667
-0.515537 0.272192 -0.033333
-0.518764 0.293532 0.033333
-0.518216 0.288292 0.016667
-0.517569 0.286331 0.000000
-0.516890 0.287039 -0.016667
-0.516411 0.287138 -0.033333
-0.521951 0.306792 0.033333
-0.520567 0.302243 0.016667
-0.519020 0.300622 0.000000
-0.517724 0.301508 -0.016667
-0.516907 0.301848 -0.033333
-0.523194 0.319598 0.033333
-0.521416 0.315943 0.016667
-0.519438 0.314668 0.000000
-0.517789 0.315833 -0.016667
-0.516770 0.316440 -0.033333
-0.522613 0.332483 0.033333
-0.520785 0.329350 0.016667
-0.518656 0.328587 0.000000
-0.516919 0.330140 -0.016667
-0.515888 0.330948 -0.033333
-0.520321 0.345234 0.033333
-0.518556 0.342769 0.016667
-0.516616 0.342493 0.000000
-0.515087 0.344498 -0.016667
-0.514230 0.345494 -0.033333
-0.516156 0.358252 0.033333
-0.514740 0.356302 0.016667
-0.513286 0.356516 0.000000
-0.512323 0.359020 -0.016667
-0.511949 0.360135 -0.033333
-0.510128 0.371652 0.033333
-0.509159 0.370118 0.016667
-0.508597 0.370777 0.000000
-0.508799 0.373817 -0.016667
-0.509345 0.374920 -0.033333
-0.502181 0.385703 0.033333
-0.501490 0.384371 0.016667
-0.502218 0.385461 0.000000
-0.504881 0.388964 -0.016667
-0.507107 0.389861 -0.033333
-0.497656 -0.487578 0.033333
-0.507990 -0.499865 0.016667
-0.515768 -0.501921 0.000000
-0.520544 -0.503400 -0.016667
-0.523458 -0.504347 -0.033333
-0.515341 -0.474407 0.033333
-0.519005 -0.484061 0.016667
-0.522404 -0.487789 0.000000
-0.524805 -0.488612 -0.016667
-0.526492 -0.490144 -0.033333
-0.528933 -0.461193 0.033333
-0.529075 -0.469467 0.016667
-0.529593 -0.473437 0.000000
-0.530242 -0.474436 -0.016667
-0.530791 -0.475747 -0.033333
-0.539598 -0.448319 0.033333
-0.537949 -0.455472 0.016667
-0.536649 -0.459325 0.000000
-0.535990 -0.460485 -0.016667
-0.535709 -0.461576 -0.033333
-0.548161 -0.435763 0.033333
-0.545551 -0.441908 0.016667
-0.543122 -0.445508 0.000000
-0.541547 -0.446730 -0.016667
-0.540687 -0.447661 -0.033333
-0.555064 -0.423462 0.033333
-0.551910 -0.428693 0.016667
-0.548775 -0.431964 0.000000
-0.546586 -0.433173 -0.016667
-0.545332 -0.433977 -0.033333
-0.560530 -0.411365 0.033333
-0.557059 -0.415756 0.016667
-0.553482 -0.418653 0.000000
-0.550890 -0.419799 -0.016667
-0.549374 -0.420492 -0.033333
-0.564680 -0.399427 0.033333
-0.561016 -0.403039 0.016667
-0.557165 -0.405537 0.000000
-0.554318 -0.406584 -0.016667
-0.552632 -0.407172 -0.033333
-0.567549 -0.387625 0.033333
-0.563784 -0.390486 0.016667
-0.559772 -0.392571 0.000000
-0.556771 -0.393497 -0.016667
-0.554986 -0.393981 -0.033333
-0.569168 -0.375891 0.033333
-0.565344 -0.378050 0.016667
-0.561262 -0.379714 0.000000
-0.558189 -0.380500 -0.016667
-0.556353 -0.380882 -0.033333
-0.569485 -0.364246 0.033333
-0.565689 -0.365674 0.016667
-0.561604 -0.366918 0.000000
-0.558527 -0.367556 -0.016667
-0.556692 -0.367830 -0.033333
-0.568535 -0.352509 0.033333
-0.564764 -0.353333 0.016667
-0.560773 -0.354136 0.000000
-0.557772 -0.354613 -0.016667
-0.555976 -0.354790 -0.033333
-0.566186 -0.340928 0.033333
-0.562577 -0.340889 0.016667
-0.558757 -0.341308 0.000000
-0.555916 -0.341644 -0.016667
-0.554228 -0.341689 -0.033333
-0.562395 -0.328995 0.033333
-0.559045 -0.328416 0.016667
-0.555558 -0.328379 0.000000
-0.552998 -0.328557 -0.016667
-0.551485 -0.328512 -0.033333
-0.557101 -0.317050 0.033333
-0.554147 -0.315644 0.016667
-0.551195 -0.315276 0.000000
-0.549090 -0.315340 -0.016667
-0.547852 -0.315149 -0.033333
-0.550034 -0.304766 0.033333
-0.547854 -0.302644 0.016667
-0.545758 -0.301910 0.000000
-0.544326 -0.301891 -0.016667
-0.543492 -0.301580 -0.033333
-0.540917 -0.292095 0.033333
-0.540147 -0.289184 0.016667
-0.539436 -0.288216 0.000000
-0.538955 -0.288182 -0.016667
-0.538650 -0.287696 -0.033333
-0.529040 -0.278900 0.033333
-0.531190 -0.275218 0.016667
-0.532741 -0.274072 0.000000
-0.533286 -0.274180 -0.016667
-0.533745 -0.273428 -0.033333
-0.512626 -0.266178 0.033333
-0.522175 -0.259437 0.016667
-0.526151 -0.260440 0.000000
-0.528194 -0.258910 -0.016667
-0.528858 -0.259653 -0.033333
-0.511872 -0.250067 0.033333
-0.517672 -0.244714 0.016667
-0.521586 -0.244965 0.000000
-0.523616 -0.244483 -0.016667
-0.524728 -0.244474 -0.033333
-0.511119 -0.233956 0.033333
-0.515147 -0.229535 0.016667
-0.518206 -0.229500 0.000000
-0.520076 -0.229467 -0.016667
-0.521112 -0.229325 -0.033333
-0.510365 -0.217844 0.033333
-0.513360 -0.214129 0.016667
-0.515718 -0.213949 0.000000
-0.517261 -0.214146 -0.016667
-0.518145 -0.214041 -0.033333
-0.509611 -0.201733 0.033333
-0.511931 -0.198537 0.016667
-0.513777 -0.198337 0.000000
-0.515011 -0.198633 -0.016667
-0.515722 -0.198607 -0.033333
-0.508857 -0.185621 0.033333
-0.510716 -0.182855 0.016667
-0.512199 -0.182663 0.000000
-0.513176 -0.183000 -0.016667
-0.513736 -0.183051 -0.033333
-0.508104 -0.169510 0.033333
-0.509654 -0.167067 0.016667
-0.510883 -0.166967 0.000000
-0.511653 -0.167275 -0.016667
-0.512084 -0.167412 -0.033333
-0.507350 -0.153399 0.033333
-0.508800 -0.151218 0.016667
-0.509765 -0.151278 0.000000
-0.510357 -0.151458 -0.016667
-0.510681 -0.151751 -0.033333
-0.507375 -0.136964 0.033333
-0.508063 -0.135608 0.016667
-0.508779 -0.135360 0.000000
-0.509222 -0.135796 -0.016667
-0.509455 -0.135875 -0.033333
-0.506860 -0.120843 0.033333
-0.507363 -0.119823 0.016667
-0.507857 -0.119590 0.000000
-0.508187 -0.119978 -0.016667
-0.508347 -0.120098 -0.033333
-0.506168 -0.104809 0.033333
-0.506557 -0.104008 0.016667
-0.506946 -0.103824 0.000000
-0.507202 -0.104154 -0.016667
-0.507315 -0.104290 -0.033333
-0.505346 -0.088784 0.033333
-0.505675 -0.088185 0.016667
-0.506015 -0.088045 0.000000
-0.506239 -0.088326 -0.016667
-0.506327 -0.088462 -0.033333
-0.504414 -0.072766 0.033333
-0.504726 -0.072333 0.016667
-0.505059 -0.072248 0.000000
-0.505284 -0.072495 -0.016667
-0.505363 -0.072615 -0.033333
-0.503380 -0.056714 0.033333
-0.503711 -0.056456 0.016667
-0.504094 -0.056430 0.000000
-0.504336 -0.056658 -0.016667
-0.504416 -0.056756 -0.033333
-0.502075 -0.040620 0.033333
-0.502721 -0.040545 0.016667
-0.503139 -0.040586 0.000000
-0.503402 -0.040825 -0.016667
-0.503485 -0.040881 -0.033333
-0.501321 -0.024508 0.033333
-0.501780 -0.024572 0.016667
-0.502219 -0.024756 0.000000
-0.502485 -0.024966 -0.016667
-0.502568 -0.025022 -0.033333
-0.500567 -0.008397 0.033333
-0.500926 -0.008588 0.016667
-0.501328 -0.008915 0.000000
-0.501586 -0.009119 -0.016667
-0.501664 -0.009159 -0.033333
-0.499814 0.007714 0.033333
-0.500077 0.007398 0.016667
-0.500448 0.006914 0.000000
-0.500692 0.006716 -0.016667
-0.500770 0.006693 -0.033333
-0.499060 0.023826 0.033333
-0.499196 0.023380 0.016667
-0.499540 0.022708 0.000000
-0.499796 0.022537 -0.016667
-0.499884 0.022520 -0.033333
-0.498307 0.039937 0.033333
-0.498118 0.039333 0.016667
-0.498591 0.038433 0.000000
-0.498893 0.038353 -0.016667
-0.499017 0.038295 -0.033333
-0.496237 0.056032 0.033333
-0.496942 0.055094 0.016667
-0.497610 0.054188 0.000000
-0.498012 0.054062 -0.016667
-0.498178 0.054103 -0.033333
-0.494780 0.071974 0.033333
-0.495765 0.070784 0.016667
-0.496680 0.069853 0.000000
-0.497186 0.069763 -0.016667
-0.497399 0.069853 -0.033333
-0.493702 0.087849 0.033333
-0.494824 0.086416 0.016667
-0.495872 0.085460 0.000000
-0.496457 0.085441 -0.016667
-0.496707 0.085571 -0.033333
-0.492909 0.103730 0.033333
-0.494117 0.102014 0.016667
-0.495232 0.101032 0.000000
-0.495854 0.101105 -0.016667
-0.496124 0.101266 -0.033333
-0.492388 0.119651 0.033333
-0.493636 0.117612 0.016667
-0.494769 0.116587 0.000000
-0.495386 0.116772 -0.016667
-0.495662 0.116941 -0.033333
-0.492099 0.135684 0.033333
-0.493356 0.133214 0.016667
-0.494462 0.132143 0.000000
-0.495050 0.132456 -0.016667
-0.495318 0.132591 -0.033333
-0.492080 0.151910 0.033333
-0.493247 0.148812 0.016667
-0.494276 0.147734 0.000000
-0.494815 0.148147 -0.016667
-0.495095 0.148224 -0.033333
-0.492277 0.168827 0.033333
-0.493161 0.163999 0.016667
-0.494103 0.163711 0.000000
-0.494711 0.163514 -0.016667
-0.494939 0.164146 -0.033333
-0.491524 0.184938 0.033333
-0.492938 0.179849 0.016667
-0.494008 0.179161 0.000000
-0.494636 0.179321 -0.016667
-0.494935 0.179638 -0.033333
-0.490770 0.201049 0.033333
-0.492625 0.195552 0.016667
-0.493935 0.194704 0.000000
-0.494682 0.194990 -0.016667
-0.495033 0.195199 -0.033333
-0.490016 0.217161 0.033333
-0.492374 0.211139 0.016667
-0.493974 0.210261 0.000000
-0.494863 0.210561 -0.016667
-0.495294 0.210739 -0.033333
-0.489262 0.233272 0.033333
-0.492282 0.226541 0.016667
-0.494230 0.225820 0.000000
-0.495269 0.226006 -0.016667
-0.495736 0.226224 -0.033333
-0.488508 0.249384 0.033333
-0.492567 0.241733 0.016667
-0.494914 0.241392 0.000000
-0.495944 0.241225 -0.016667
-0.496395 0.241697 -0.033333
-0.487755 0.265495 0.033333
-0.494218 0.256522 0.016667
-0.496044 0.257105 0.000000
-0.497029 0.255966 -0.016667
-0.497129 0.257350 -0.033333
-0.496130 0.278997 0.033333
-0.497079 0.272855 0.016667
-0.498015 0.271051 0.000000
-0.498059 0.271801 -0.016667
-0.498086 0.271668 -0.033333
-0.500640 0.292747 0.033333
-0.500218 0.287492 0.016667
-0.499713 0.285701 0.000000
-0.499160 0.286518 -0.016667
-0.498756 0.286654 -0.033333
-0.503258 0.306035 0.033333
-0.502148 0.301645 0.016667
-0.500881 0.300073 0.000000
-0.499788 0.301047 -0.016667
-0.499093 0.301460 -0.033333
-0.504229 0.319131 0.033333
-0.502798 0.315359 0.016667
-0.501125 0.314225 0.000000
-0.499730 0.315480 -0.016667
-0.498876 0.316109 -0.033333
-0.503629 0.331965 0.033333
-0.502071 0.328957 0.016667
-0.500313 0.328251 0.000000
-0.498857 0.329865 -0.016667
-0.497981 0.330711 -0.033333
-0.501413 0.344950 0.033333
-0.500002 0.342484 0.016667
-0.498385 0.342265 0.000000
-0.497114 0.344314 -0.016667
-0.496420 0.345323 -0.033333
-0.497641 0.358073 0.033333
-0.496478 0.356132 0.016667
-0.495313 0.356380 0.000000
-0.494562 0.358915 -0.016667
-0.494292 0.360029 -0.033333
-0.492151 0.371573 0.033333
-0.491409 0.370044 0.016667
-0.491037 0.370719 0.000000
-0.491327 0.373775 -0.016667
-0.491903 0.374868 -0.033333
-0.484994 0.385683 0.033333
-0.484441 0.384365 0.016667
-0.485275 0.385442 0.000000
-0.487750 0.388979 -0.016667
-0.489859 0.389840 -0.033333
-0.480714 -0.487733 0.033333
-0.490453 -0.500291 0.016667
-0.497895 -0.502387 0.000000
-0.502521 -0.503830 -0.016667
-0.505317 -0.504795 -0.033333
-0.497443 -0.474644 0.033333
-0.500784 -0.484571 0.016667
-0.504103 -0.488328 0.000000
-0.506478 -0.489130 -0.016667
-0.508129 -0.490666 -0.033333
-0.510173 -0.461536 0.033333
-0.510288 -0.470050 0.016667
-0.510870 -0.474047 0.000000
-0.511572 -0.475032 -0.016667
-0.512147 -0.476342 -0.033333
-0.520158 -0.448772 0.033333
-0.518648 -0.456123 0.016667
-0.517517 -0.460009 0.000000
-0.516975 -0.461153 -0.016667
-0.516762 -0.462244 -0.033333
-0.528189 -0.436316 0.033333
-0.525804 -0.442627 0.016667
-0.523616 -0.446262 0.000000
-0.522208 -0.447466 -0.016667
-0.521446 -0.448397 -0.033333
-0.534672 -0.424105 0.033333
-0.531795 -0.429475 0.016667
-0.528948 -0.432780 0.000000
-0.526962 -0.433973 -0.016667
-0.525826 -0.434775 -0.033333
-0.539822 -0.412088 0.033333
-0.536655 -0.416596 0.016667
-0.533397 -0.419525 0.000000
-0.531034 -0.420656 -0.016667
-0.529650 -0.421345 -0.033333
-0.543739 -0.400226 0.033333
-0.540405 -0.403928 0.016667
-0.536894 -0.406456 0.000000
-0.534290 -0.407492 -0.016667
-0.532748 -0.408074 -0.033333
-0.546479 -0.388467 0.033333
-0.543046 -0.391416 0.016667
-0.539388 -0.393530 0.000000
-0.536642 -0.394446 -0.016667
-0.535003 -0.394925 -0.033333
-0.548036 -0.376801 0.033333
-0.544572 -0.379007 0.016667
-0.540844 -0.380701 0.000000
-0.538029 -0.381483 -0.016667
-0.536345 -0.381858 -0.033333
-0.548431 -0.365129 0.033333
-0.544953 -0.366656 0.016667
-0.541233 -0.367921 0.000000
-0.538416 -0.368557 -0.016667
-0.536724 -0.368832 -0.033333
-0.547585 -0.353538 0.033333
-0.544190 -0.354279 0.016667
-0.540535 -0.355138 0.000000
-0.537779 -0.355631 -0.016667
-0.536133 -0.355792 -0.033333
-0.545513 -0.341718 0.033333
-0.542222 -0.341885 0.016667
-0.538738 -0.342301 0.000000
-0.536130 -0.342639 -0.016667
-0.534572 -0.342707 -0.033333
-0.542135 -0.329958 0.033333
-0.539043 -0.329285 0.016667
-0.535843 -0.329339 0.000000
-0.533491 -0.329554 -0.016667
-0.532094 -0.329491 -0.033333
-0.537309 -0.317883 0.033333
-0.534607 -0.316540 0.016667
-0.531880 -0.316189 0.000000
-0.529931 -0.316286 -0.016667
-0.528787 -0.316120 -0.033333
-0.530932 -0.305568 0.033333
-0.528865 -0.303430 0.016667
-0.526913 -0.302782 0.000000
-0.525584 -0.302805 -0.016667
-0.524800 -0.302500 -0.033333
-0.522642 -0.292876 0.033333
-0.521824 -0.289933 0.016667
-0.521126 -0.289025 0.000000
-0.520663 -0.289045 -0.016667
-0.520369 -0.288584 -0.033333
-0.511819 -0.279658 0.033333
-0.513584 -0.275891 0.016667
-0.514993 -0.274848 0.000000
-0.515468 -0.274992 -0.016667
-0.515862 -0.274277 -0.033333
-0.496514 -0.266932 0.033333
-0.505437 -0.260093 0.016667
-0.508962 -0.261176 0.000000
-0.510781 -0.259689 -0.016667
-0.511360 -0.260471 -0.033333
-0.495761 -0.250821 0.033333
-0.501112 -0.245376 0.016667
-0.504704 -0.245697 0.000000
-0.506538 -0.245240 -0.016667
-0.507532 -0.245259 -0.033333
-0.495007 -0.234709 0.033333
-0.498711 -0.230234 0.016667
-0.501525 -0.230208 0.000000
-0.503226 -0.230216 -0.016667
-0.504166 -0.230085 -0.033333
-0.494253 -0.218598 0.033333
-0.497004 -0.214808 0.016667
-0.499166 -0.214662 0.000000
-0.500581 -0.214878 -0.016667
-0.501381 -0.214785 -0.033333
-0.493500 -0.202487 0.033333
-0.495622 -0.199242 0.016667
-0.497317 -0.199034 0.000000
-0.498445 -0.199358 -0.016667
-0.499095 -0.199337 -0.033333
-0.492746 -0.186375 0.033333
-0.494436 -0.183541 0.016667
-0.495795 -0.183364 0.000000
-0.496696 -0.183713 -0.016667
-0.497203 -0.183771 -0.033333
-0.491992 -0.170264 0.033333
-0.493391 -0.167768 0.016667
-0.494517 -0.167660 0.000000
-0.495224 -0.167981 -0.016667
-0.495621 -0.168125 -0.033333
-0.491238 -0.154152 0.033333
-0.492526 -0.151905 0.016667
-0.493414 -0.151973 0.000000
-0.493966 -0.152157 -0.016667
-0.494261 -0.152457 -0.033333
-0.491141 -0.137704 0.033333
-0.491770 -0.136314 0.016667
-0.492435 -0.136046 0.000000
-0.492850 -0.136495 -0.016667
-0.493068 -0.136576 -0.033333
-0.490586 -0.121594 0.033333
-0.491045 -0.120518 0.016667
-0.491512 -0.120279 0.000000
-0.491830 -0.120677 -0.016667
-0.491980 -0.120794 -0.033333
-0.489885 -0.105544 0.033333
-0.490235 -0.104715 0.016667
-0.490606 -0.104513 0.000000
-0.490856 -0.104850 -0.016667
-0.490964 -0.104988 -0.033333
-0.489071 -0.089534 0.033333
-0.489361 -0.088888 0.016667
-0.489683 -0.088738 0.000000
-0.489904 -0.089024 -0.016667
-0.489988 -0.089158 -0.033333
-0.488171 -0.073508 0.033333
-0.488433 -0.073047 0.016667
-0.488744 -0.072945 0.000000
-0.488961 -0.073195 -0.016667
-0.489035 -0.073313 -0.033333
-0.487180 -0.057469 0.033333
-0.487450 -0.057169 0.016667
-0.487796 -0.057133 0.000000
-0.488026 -0.057363 -0.016667
-0.488096 -0.057455 -0.033333
-0.485963 -0.041373 0.033333
-0.486487 -0.041261 0.016667
-0.486858 -0.041296 0.000000
-0.487100 -0.041530 -0.016667
-0.487169 -0.041585 -0.033333
-0.485209 -0.025262 0.033333
-0.485565 -0.025292 0.016667
-0.485945 -0.025470 0.000000
-0.486185 -0.025677 -0.016667
-0.486253 -0.025728 -0.033333
-0.484456 -0.009151 0.033333
-0.484709 -0.009311 0.016667
-0.485053 -0.009636 0.000000
-0.485279 -0.009835 -0.016667
-0.485341 -0.009868 -0.033333
-0.483702 0.006961 0.033333
-0.483856 0.006673 0.016667
-0.484160 0.006187 0.000000
-0.484371 0.005995 -0.016667
-0.484431 0.005980 -0.033333
-0.482949 0.023072 0.033333
-0.482952 0.022652 0.016667
-0.483225 0.021972 0.000000
-0.483447 0.021811 -0.016667
-0.483522 0.021802 -0.033333
-0.482195 0.039184 0.033333
-0.481817 0.038602 0.016667
-0.482228 0.037685 0.000000
-0.482510 0.037623 -0.016667
-0.482622 0.037568 -0.033333
-0.479855 0.055278 0.033333
-0.480548 0.054341 0.016667
-0.481192 0.053433 0.000000
-0.481585 0.053319 -0.016667
-0.481751 0.053374 -0.033333
-0.478273 0.071197 0.033333
-0.479282 0.070017 0.016667
-0.480205 0.069086 0.000000
-0.480719 0.069012 -0.016667
-0.480938 0.069118 -0.033333
-0.477119 0.087067 0.033333
-0.478288 0.085628 0.016667
-0.479355 0.084682 0.000000
-0.479956 0.084682 -0.016667
-0.480218 0.084831 -0.033333
-0.476332 0.102928 0.033333
-0.477570 0.101216 0.016667
-0.478697 0.100242 0.000000
-0.479333 0.100341 -0.016667
-0.479615 0.100522 -0.033333
-0.475834 0.118859 0.033333
-0.477106 0.116798 0.016667
-0.478235 0.115789 0.000000
-0.478859 0.116004 -0.016667
-0.479138 0.116194 -0.033333
-0.475632 0.134881 0.033333
-0.476879 0.132401 0.016667
-0.477949 0.131341 0.000000
-0.478520 0.131687 -0.016667
-0.478786 0.131844 -0.033333
-0.475734 0.151134 0.033333
-0.476836 0.147986 0.016667
-0.477785 0.146932 0.000000
-0.478290 0.147381 -0.016667
-0.478548 0.147479 -0.033333
-0.476166 0.168073 0.033333
-0.476818 0.163174 0.016667
-0.477633 0.162916 0.000000
-0.478173 0.162746 -0.016667
-0.478379 0.163413 -0.033333
-0.475412 0.184184 0.033333
-0.476617 0.179018 0.016667
-0.477532 0.178367 0.000000
-0.478083 0.178564 -0.016667
-0.478333 0.178909 -0.033333
-0.474658 0.200296 0.033333
-0.476292 0.194738 0.016667
-0.477434 0.193910 0.000000
-0.478074 0.194243 -0.016667
-0.478382 0.194482 -0.033333
-0.473905 0.216407 0.033333
-0.476001 0.210311 0.016667
-0.477405 0.209476 0.000000
-0.478189 0.209826 -0.016667
-0.478551 0.210035 -0.033333
-0.473151 0.232518 0.033333
-0.475843 0.225730 0.016667
-0.477570 0.225038 0.000000
-0.478473 0.225287 -0.016667
-0.478886 0.225540 -0.033333
-0.472397 0.248630 0.033333
-0.476020 0.240903 0.016667
-0.478085 0.240631 0.000000
-0.479002 0.240525 -0.016667
-0.479382 0.241038 -0.033333
-0.471643 0.264741 0.033333
-0.477399 0.255702 0.016667
-0.478994 0.256355 0.000000
-0.479858 0.255295 -0.016667
-0.479954 0.256732 -0.033333
-0.478885 0.278192 0.033333
-0.479732 0.272019 0.016667
-0.480603 0.270348 0.000000
-0.480670 0.271171 -0.016667
-0.480696 0.271094 -0.033333
-0.482634 0.291964 0.033333
-0.482355 0.286764 0.016667
-0.481976 0.285042 0.000000
-0.481521 0.285949 -0.016667
-0.481188 0.286142 -0.033333
-0.484805 0.305361 0.033333
-0.483918 0.300939 0.016667
-0.482872 0.299502 0.000000
-0.481960 0.300564 -0.016667
-0.481379 0.301008 -0.033333
-0.485512 0.318472 0.033333
-0.484330 0.314837 0.016667
-0.482964 0.313753 0.000000
-0.481797 0.315071 -0.016667
-0.481073 0.315748 -0.033333
-0.484819 0.331561 0.033333
-0.483591 0.328514 0.016667
-0.482122 0.327888 0.000000
-0.480906 0.329558 -0.016667
-0.480184 0.330420 -0.033333
-0.482788 0.344607 0.033333
-0.481612 0.342184 0.016667
-0.480298 0.342010 0.000000
-0.479261 0.344094 -0.016667
-0.478692 0.345115 -0.033333
-0.479296 0.357876 0.033333
-0.478390 0.355949 0.016667
-0.477464 0.356228 0.000000
-0.476892 0.358780 -0.016667
-0.476721 0.359891 -0.033333
-0.474341 0.371484 0.033333
-0.473775 0.369960 0.016667
-0.473569 0.370650 0.000000
-0.473934 0.373713 -0.016667
-0.474519 0.374789 -0.033333
-0.467888 0.385660 0.033333
-0.467466 0.384357 0.016667
-0.468372 0.385417 0.000000
-0.470664 0.388976 -0.016667
-0.472661 0.389803 -0.033333
-0.463740 -0.487888 0.033333
-0.472850 -0.500703 0.016667
-0.479950 -0.502847 0.000000
-0.484408 -0.504255 -0.016667
-0.487078 -0.505245 -0.033333
-0.479477 -0.474874 0.033333
-0.482510 -0.485064 0.016667
-0.485738 -0.488847 0.000000
-0.488073 -0.489635 -0.016667
-0.489679 -0.491176 -0.033333
-0.491345 -0.461866 0.033333
-0.491447 -0.470609 0.016667
-0.492086 -0.474632 0.000000
-0.492833 -0.475607 -0.016667
-0.493426 -0.476917 -0.033333
-0.500664 -0.449200 0.033333
-0.499295 -0.456742 0.016667
-0.498328 -0.460662 0.000000
-0.497897 -0.461791 -0.016667
-0.497747 -0.462883 -0.033333
-0.508173 -0.436833 0.033333
-0.506011 -0.443305 0.016667
-0.504057 -0.446976 0.000000
-0.502812 -0.448164 -0.016667
-0.502144 -0.449095 -0.033333
-0.514250 -0.424701 0.033333
-0.511639 -0.430209 0.016667
-0.509073 -0.433548 0.000000
-0.507288 -0.434726 -0.016667
-0.506267 -0.435526 -0.033333
-0.519090 -0.412754 0.033333
-0.516219 -0.417378 0.016667
-0.513271 -0.420340 0.000000
-0.511132 -0.421458 -0.016667
-0.509879 -0.422143 -0.033333
-0.522796 -0.400947 0.033333
-0.519768 -0.404750 0.016667
-0.516586 -0.407310 0.000000
-0.514223 -0.408335 -0.016667
-0.512820 -0.408912 -0.033333
-0.525401 -0.389248 0.033333
-0.522294 -0.392269 0.016667
-0.518974 -0.394412 0.000000
-0.516477 -0.395322 -0.016667
-0.514985 -0.395795 -0.033333
-0.526937 -0.377595 0.033333
-0.523784 -0.379883 0.016667
-0.520402 -0.381602 0.000000
-0.517841 -0.382380 -0.016667
-0.516302 -0.382752 -0.033333
-0.527366 -0.365999 0.033333
-0.524233 -0.367528 0.016667
-0.520845 -0.368830 0.000000
-0.518276 -0.369470 -0.016667
-0.516735 -0.369736 -0.033333
-0.526713 -0.354293 0.033333
-0.523605 -0.355178 0.016667
-0.520286 -0.356045 0.000000
-0.517774 -0.356538 -0.016667
-0.516263 -0.356708 -0.033333
-0.524902 -0.342645 0.033333
-0.521900 -0.342709 0.016667
-0.518714 -0.343188 0.000000
-0.516329 -0.343549 -0.016667
-0.514903 -0.343601 -0.033333
-0.521881 -0.330724 0.033333
-0.519069 -0.330148 0.016667
-0.516136 -0.330202 0.000000
-0.513976 -0.330428 -0.016667
-0.512691 -0.330383 -0.033333
-0.517599 -0.318686 0.033333
-0.515084 -0.317309 0.016667
-0.512568 -0.317018 0.000000
-0.510773 -0.317143 -0.016667
-0.509712 -0.316971 -0.033333
-0.511855 -0.306346 0.033333
-0.509911 -0.304190 0.016667
-0.508078 -0.303562 0.000000
-0.506837 -0.303621 -0.016667
-0.506106 -0.303325 -0.033333
-0.504384 -0.293626 0.033333
-0.503514 -0.290626 0.016667
-0.502821 -0.289774 0.000000
-0.502373 -0.289820 -0.016667
-0.502078 -0.289371 -0.033333
-0.494584 -0.280418 0.033333
-0.495988 -0.276549 0.016667
-0.497245 -0.275552 0.000000
-0.497638 -0.275732 -0.016667
-0.497977 -0.275033 -0.033333
-0.480403 -0.267686 0.033333
-0.488666 -0.260701 0.016667
-0.491749 -0.261881 0.000000
-0.493362 -0.260386 -0.016667
-0.493848 -0.261210 -0.033333
-0.479649 -0.251574 0.033333
-0.484537 -0.246040 0.016667
-0.487814 -0.246364 0.000000
-0.489444 -0.245939 -0.016667
-0.490334 -0.245962 -0.033333
-0.478896 -0.235463 0.033333
-0.482276 -0.230883 0.016667
-0.484831 -0.230884 0.000000
-0.486373 -0.230896 -0.016667
-0.487211 -0.230776 -0.033333
-0.478142 -0.219352 0.033333
-0.480643 -0.215488 0.016667
-0.482614 -0.215319 0.000000
-0.483892 -0.215556 -0.016667
-0.484616 -0.215459 -0.033333
-0.477388 -0.203240 0.033333
-0.479315 -0.199905 0.016667
-0.480852 -0.199700 0.000000
-0.481881 -0.200024 -0.016667
-0.482463 -0.200006 -0.033333
-0.476635 -0.187129 0.033333
-0.478158 -0.184224 0.016667
-0.479395 -0.184020 0.000000
-0.480211 -0.184378 -0.016667
-0.480672 -0.184431 -0.033333
-0.475881 -0.171017 0.033333
-0.477132 -0.168437 0.016667
-0.478149 -0.168322 0.000000
-0.478799 -0.168639 -0.016667
-0.479154 -0.168782 -0.033333
-0.475127 -0.154906 0.033333
-0.476255 -0.152584 0.016667
-0.477068 -0.152633 0.000000
-0.477570 -0.152812 -0.016667
-0.477844 -0.153115 -0.033333
-0.474912 -0.138458 0.033333
-0.475480 -0.136990 0.016667
-0.476088 -0.136704 0.000000
-0.476479 -0.137155 -0.016667
-0.476677 -0.137226 -0.033333
-0.474316 -0.122323 0.033333
-0.474728 -0.121209 0.016667
-0.475167 -0.120937 0.000000
-0.475470 -0.121335 -0.016667
-0.475611 -0.121447 -0.033333
-0.473595 -0.106291 0.033333
-0.473910 -0.105396 0.016667
-0.474260 -0.105178 0.000000
-0.474507 -0.105511 -0.016667
-0.474609 -0.105641 -0.033333
-0.472795 -0.090267 0.033333
-0.473041 -0.089583 0.016667
-0.473348 -0.089405 0.000000
-0.473566 -0.089688 -0.016667
-0.473644 -0.089815 -0.033333
-0.471918 -0.074257 0.033333
-0.472134 -0.073741 0.016667
-0.472422 -0.073619 0.000000
-0.472635 -0.073863 -0.016667
-0.472702 -0.073972 -0.033333
-0.470977 -0.058214 0.033333
-0.471182 -0.057874 0.016667
-0.471493 -0.057812 0.000000
-0.471711 -0.058035 -0.016667
-0.471771 -0.058118 -0.033333
-0.469852 -0.042127 0.033333
-0.470247 -0.041965 0.016667
-0.470570 -0.041985 0.000000
-0.470792 -0.042206 -0.016667
-0.470849 -0.042254 -0.033333
-0.469098 -0.026016 0.033333
-0.469341 -0.026001 0.016667
-0.469667 -0.026166 0.000000
-0.469880 -0.026360 -0.016667
-0.469931 -0.026401 -0.033333
-0.468345 -0.009904 0.033333
-0.468489 -0.010025 0.016667
-0.468773 -0.010338 0.000000
-0.468969 -0.010524 -0.016667
-0.469012 -0.010546 -0.033333
-0.467591 0.006207 0.033333
-0.467626 0.005955 0.016667
-0.467868 0.005476 0.000000
-0.468044 0.005299 -0.016667
-0.468086 0.005297 -0.033333
-0.466837 0.022319 0.033333
-0.466705 0.021930 0.016667
-0.466903 0.021253 0.000000
-0.467095 0.021109 -0.016667
-0.467152 0.021111 -0.033333
-0.466084 0.038430 0.033333
-0.465500 0.037874 0.016667
-0.465862 0.036952 0.000000
-0.466119 0.036915 -0.016667
-0.466223 0.036869 -0.033333
-0.463462 0.054511 0.033333
-0.464144 0.053595 0.016667
-0.464765 0.052692 0.000000
-0.465153 0.052600 -0.016667
-0.465317 0.052671 -0.033333
-0.461730 0.070418 0.033333
-0.462780 0.069245 0.016667
-0.463721 0.068333 0.000000
-0.464244 0.068282 -0.016667
-0.464472 0.068409 -0.033333
-0.460528 0.086258 0.033333
-0.461736 0.084841 0.016667
-0.462831 0.083915 0.000000
-0.463451 0.083945 -0.016667
-0.463725 0.084116 -0.033333
-0.459720 0.102123 0.033333
-0.461008 0.100409 0.016667
-0.462156 0.099465 0.000000
-0.462809 0.099598 -0.016667
-0.463102 0.099802 -0.033333
-0.459282 0.118031 0.033333
-0.460570 0.115990 0.016667
-0.461701 0.115005 0.000000
-0.462328 0.115257 -0.016667
-0.462615 0.115471 -0.033333
-0.459152 0.134090 0.033333
-0.460392 0.131581 0.016667
-0.461434 0.130553 0.000000
-0.461995 0.130940 -0.016667
-0.462253 0.131120 -0.033333
-0.459389 0.150333 0.033333
-0.460430 0.147176 0.016667
-0.461302 0.146145 0.000000
-0.461765 0.146633 -0.016667
-0.462010 0.146756 -0.033333
-0.460055 0.167319 0.033333
-0.460473 0.162351 0.016667
-0.461165 0.162137 0.000000
-0.461650 0.161996 -0.016667
-0.461819 0.162696 -0.033333
-0.459301 0.183431 0.033333
-0.460303 0.178207 0.016667
-0.461069 0.177585 0.000000
-0.461532 0.177819 -0.016667
-0.461749 0.178195 -0.033333
-0.458547 0.199542 0.033333
-0.459961 0.193923 0.016667
-0.460937 0.193128 0.000000
-0.461489 0.193505 -0.016667
-0.461738 0.193773 -0.033333
-0.457793 0.215653 0.033333
-0.459635 0.209503 0.016667
-0.460859 0.208695 0.000000
-0.461524 0.209097 -0.016667
-0.461837 0.209335 -0.033333
-0.457039 0.231765 0.033333
-0.459419 0.224914 0.016667
-0.460920 0.224267 0.000000
-0.461712 0.224567 -0.016667
-0.462053 0.224855 -0.033333
-0.456286 0.247876 0.033333
-0.459479 0.240093 0.016667
-0.461297 0.239863 0.000000
-0.462083 0.239825 -0.016667
-0.462419 0.240372 -0.033333
-0.455532 0.263988 0.033333
-0.460614 0.254874 0.016667
-0.461972 0.255619 0.000000
-0.462754 0.254612 -0.016667
-0.462815 0.256101 -0.033333
-0.461687 0.277404 0.033333
-0.462462 0.271217 0.016667
-0.463275 0.269634 0.000000
-0.463341 0.270530 -0.016667
-0.463378 0.270504 -0.033333
-0.464785 0.291168 0.033333
-0.464614 0.285998 0.016667
-0.464337 0.284382 0.000000
-0.463976 0.285369 -0.016667
-0.463699 0.285601 -0.033333
-0.466519 0.304643 0.033333
-0.465828 0.300293 0.016667
-0.464996 0.298919 0.000000
-0.464240 0.300050 -0.016667
-0.463754 0.300538 -0.033333
-0.466993 0.317912 0.033333
-0.466073 0.314255 0.016667
-0.464945 0.313267 0.000000
-0.463976 0.314649 -0.016667
-0.463378 0.315348 -0.033333
-0.466285 0.331053 0.033333
-0.465267 0.328085 0.016667
-0.464082 0.327510 0.000000
-0.463081 0.329221 -0.016667
-0.462479 0.330106 -0.033333
-0.464333 0.344284 0.033333
-0.463425 0.341871 0.016667
-0.462355 0.341742 0.000000
-0.461515 0.343853 -0.016667
-0.461068 0.344879 -0.033333
-0.461174 0.357666 0.033333
-0.460451 0.355757 0.016667
-0.459743 0.356065 0.000000
-0.459327 0.358626 -0.016667
-0.459226 0.359730 -0.033333
-0.456667 0.371385 0.033333
-0.456272 0.369872 0.016667
-0.456195 0.370573 0.000000
-0.456615 0.373634 -0.016667
-0.457207 0.374693 -0.033333
-0.450878 0.385632 0.033333
-0.450558 0.384344 0.016667
-0.451515 0.385393 0.000000
-0.453637 0.388962 -0.016667
-0.455511 0.389752 -0.033333
-0.446735 -0.488043 0.033333
-0.455189 -0.501097 0.016667
-0.461944 -0.503294 0.000000
-0.466219 -0.504666 -0.016667
-0.468756 -0.505687 -0.033333
-0.461448 -0.475096 0.033333
-0.464194 -0.485534 0.016667
-0.467320 -0.489342 0.000000
-0.469602 -0.490121 -0.016667
-0.471155 -0.491665 -0.033333
-0.472461 -0.462177 0.033333
-0.472564 -0.471136 0.016667
-0.473252 -0.475184 0.000000
-0.474035 -0.476152 -0.016667
-0.474642 -0.477462 -0.033333
-0.481124 -0.449598 0.033333
-0.479902 -0.457321 0.016667
-0.479093 -0.461272 0.000000
-0.478768 -0.462389 -0.016667
-0.478677 -0.463483 -0.033333
-0.488125 -0.437308 0.033333
-0.486184 -0.443935 0.016667
-0.484459 -0.447639 0.000000
-0.483373 -0.448814 -0.016667
-0.482795 -0.449744 -0.033333
-0.493807 -0.425244 0.033333
-0.491457 -0.430884 0.016667
-0.489165 -0.434256 0.000000
-0.487575 -0.435421 -0.016667
-0.486668 -0.436219 -0.033333
-0.498351 -0.413356 0.033333
-0.495762 -0.418093 0.016667
-0.493117 -0.421086 0.000000
-0.491199 -0.422193 -0.016667
-0.490075 -0.422874 -0.033333
-0.501845 -0.401603 0.033333
-0.499120 -0.405497 0.016667
-0.496256 -0.408086 0.000000
-0.494129 -0.409102 -0.016667
-0.492866 -0.409675 -0.033333
-0.504341 -0.389935 0.033333
-0.501533 -0.393040 0.016667
-0.498543 -0.395210 0.000000
-0.496291 -0.396113 -0.016667
-0.494942 -0.396582 -0.033333
-0.505837 -0.378335 0.033333
-0.503002 -0.380665 0.016667
-0.499948 -0.382412 0.000000
-0.497633 -0.383188 -0.016667
-0.496242 -0.383554 -0.033333
-0.506356 -0.366708 0.033333
-0.503506 -0.368328 0.016667
-0.500449 -0.369644 0.000000
-0.498127 -0.370281 -0.016667
-0.496726 -0.370547 -0.033333
-0.505846 -0.355120 0.033333
-0.503046 -0.355946 0.016667
-0.500033 -0.356851 0.000000
-0.497754 -0.357353 -0.016667
-0.496384 -0.357510 -0.033333
-0.504308 -0.343338 0.033333
-0.501583 -0.343511 0.016667
-0.498691 -0.343982 0.000000
-0.496523 -0.344342 -0.016667
-0.495221 -0.344403 -0.033333
-0.501692 -0.331519 0.033333
-0.499107 -0.330879 0.016667
-0.496427 -0.330971 0.000000
-0.494456 -0.331213 -0.016667
-0.493280 -0.331155 -0.033333
-0.497895 -0.319433 0.033333
-0.495582 -0.318053 0.016667
-0.493260 -0.317757 0.000000
-0.491609 -0.317895 -0.016667
-0.490632 -0.317726 -0.033333
-0.492797 -0.307081 0.033333
-0.490959 -0.304880 0.016667
-0.489243 -0.304273 0.000000
-0.488088 -0.304345 -0.016667
-0.487403 -0.304046 -0.033333
-0.486124 -0.294381 0.033333
-0.485215 -0.291295 0.016667
-0.484515 -0.290445 0.000000
-0.484073 -0.290517 -0.016667
-0.483783 -0.290060 -0.033333
-0.477330 -0.281166 0.033333
-0.478394 -0.277163 0.016667
-0.479487 -0.276217 0.000000
-0.479804 -0.276382 -0.016667
-0.480077 -0.275708 -0.033333
-0.464292 -0.268440 0.033333
-0.471855 -0.261319 0.016667
-0.474521 -0.262509 0.000000
-0.475921 -0.261027 -0.016667
-0.476333 -0.261854 -0.033333
-0.463538 -0.252328 0.033333
-0.467958 -0.246650 0.016667
-0.470901 -0.247003 0.000000
-0.472344 -0.246556 -0.016667
-0.473118 -0.246594 -0.033333
-0.462784 -0.236217 0.033333
-0.465829 -0.231532 0.016667
-0.468136 -0.231494 0.000000
-0.469504 -0.231520 -0.016667
-0.470251 -0.231384 -0.033333
-0.462031 -0.220105 0.033333
-0.464285 -0.216120 0.016667
-0.466050 -0.215944 0.000000
-0.467201 -0.216164 -0.016667
-0.467839 -0.216066 -0.033333
-0.461277 -0.203994 0.033333
-0.463002 -0.200563 0.016667
-0.464388 -0.200311 0.000000
-0.465307 -0.200637 -0.016667
-0.465828 -0.200602 -0.033333
-0.460523 -0.187883 0.033333
-0.461884 -0.184869 0.016667
-0.462985 -0.184642 0.000000
-0.463725 -0.184982 -0.016667
-0.464131 -0.185029 -0.033333
-0.459769 -0.171771 0.033333
-0.460869 -0.169097 0.016667
-0.461783 -0.168939 0.000000
-0.462363 -0.169248 -0.016667
-0.462685 -0.169377 -0.033333
-0.459016 -0.155660 0.033333
-0.459992 -0.153233 0.016667
-0.460710 -0.153261 0.000000
-0.461178 -0.153417 -0.016667
-0.461414 -0.153713 -0.033333
-0.458690 -0.139181 0.033333
-0.459189 -0.137661 0.016667
-0.459743 -0.137324 0.000000
-0.460099 -0.137769 -0.016667
-0.460284 -0.137823 -0.033333
-0.458041 -0.123071 0.033333
-0.458414 -0.121863 0.016667
-0.458814 -0.121567 0.000000
-0.459108 -0.121951 -0.016667
-0.459234 -0.122045 -0.033333
-0.457312 -0.107008 0.033333
-0.457576 -0.106070 0.016667
-0.457913 -0.105809 0.000000
-0.458153 -0.106130 -0.016667
-0.458246 -0.106246 -0.033333
-0.456502 -0.091009 0.033333
-0.456715 -0.090252 0.016667
-0.457005 -0.090046 0.000000
-0.457222 -0.090311 -0.016667
-0.457295 -0.090422 -0.033333
-0.455663 -0.074995 0.033333
-0.455821 -0.074425 0.016667
-0.456095 -0.074263 0.000000
-0.456302 -0.074492 -0.016667
-0.456360 -0.074584 -0.033333
-0.454766 -0.058965 0.033333
-0.454903 -0.058559 0.016667
-0.455181 -0.058464 0.000000
-0.455389 -0.058671 -0.016667
-0.455437 -0.058735 -0.033333
-0.453740 -0.042881 0.033333
-0.453994 -0.042654 0.016667
-0.454275 -0.042649 0.000000
-0.454479 -0.042845 -0.016667
-0.454519 -0.042879 -0.033333
-0.452987 -0.026769 0.033333
-0.453108 -0.026698 0.016667
-0.453380 -0.026836 0.000000
-0.453568 -0.027007 -0.016667
-0.453601 -0.027032 -0.033333
-0.452233 -0.010658 0.033333
-0.452256 -0.010728 0.016667
-0.452487 -0.011017 0.000000
-0.452651 -0.011179 -0.016667
-0.452674 -0.011183 -0.033333
-0.451480 0.005454 0.033333
-0.451390 0.005245 0.016667
-0.451569 0.004789 0.000000
-0.451711 0.004637 -0.016667
-0.451732 0.004652 -0.033333
-0.450726 0.021565 0.033333
-0.450446 0.021217 0.016667
-0.450577 0.020554 0.000000
-0.450734 0.020439 -0.016667
-0.450775 0.020459 -0.033333
-0.449972 0.037677 0.033333
-0.449177 0.037155 0.016667
-0.449485 0.036239 0.000000
-0.449722 0.036241 -0.016667
-0.449814 0.036206 -0.033333
-0.447034 0.053746 0.033333
-0.447718 0.052851 0.016667
-0.448329 0.051971 0.000000
-0.448711 0.051911 -0.016667
-0.448876 0.052006 -0.033333
-0.445168 0.069620 0.033333
-0.446257 0.068478 0.016667
-0.447227 0.067599 0.000000
-0.447763 0.067585 -0.016667
-0.447999 0.067737 -0.033333
-0.443887 0.085443 0.033333
-0.445167 0.084049 0.016667
-0.446297 0.083168 0.000000
-0.446939 0.083240 -0.016667
-0.447226 0.083439 -0.033333
-0.443112 0.101273 0.033333
-0.444433 0.099609 0.016667
-0.445611 0.098708 0.000000
-0.446280 0.098887 -0.016667
-0.446586 0.099122 -0.033333
-0.442706 0.117216 0.033333
-0.444028 0.115175 0.016667
-0.445162 0.114244 0.000000
-0.445797 0.114544 -0.016667
-0.446088 0.114788 -0.033333
-0.442686 0.133251 0.033333
-0.443909 0.130781 0.016667
-0.444924 0.129790 0.000000
-0.445467 0.130224 -0.016667
-0.445723 0.130436 -0.033333
-0.443050 0.149569 0.033333
-0.444022 0.146370 0.016667
-0.444817 0.145383 0.000000
-0.445247 0.145919 -0.016667
-0.445467 0.146070 -0.033333
-0.443943 0.166565 0.033333
-0.444132 0.161549 0.016667
-0.444708 0.161383 0.000000
-0.445121 0.161275 -0.016667
-0.445270 0.162016 -0.033333
-0.443189 0.182677 0.033333
-0.443988 0.177412 0.016667
-0.444605 0.176825 0.000000
-0.444995 0.177104 -0.016667
-0.445162 0.177511 -0.033333
-0.442436 0.198788 0.033333
-0.443633 0.193127 0.016667
-0.444455 0.192368 0.000000
-0.444903 0.192792 -0.016667
-0.445111 0.193089 -0.033333
-0.441682 0.214900 0.033333
-0.443273 0.208707 0.016667
-0.444314 0.207935 0.000000
-0.444881 0.208386 -0.016667
-0.445128 0.208657 -0.033333
-0.440928 0.231011 0.033333
-0.442997 0.224114 0.016667
-0.444297 0.223507 0.000000
-0.444959 0.223866 -0.016667
-0.445253 0.224182 -0.033333
-0.440174 0.247122 0.033333
-0.442962 0.239293 0.016667
-0.444519 0.239116 0.000000
-0.445208 0.239129 -0.016667
-0.445474 0.239720 -0.033333
-0.439420 0.263234 0.033333
-0.443833 0.254069 0.016667
-0.445011 0.254880 0.000000
-0.445675 0.253945 -0.016667
-0.445737 0.255466 -0.033333
-0.444557 0.276590 0.033333
-0.445271 0.270424 0.016667
-0.446004 0.268933 0.000000
-0.446084 0.269886 -0.016667
-0.446113 0.269917 -0.033333
-0.447049 0.290418 0.033333
-0.446974 0.285257 0.016667
-0.446801 0.283724 0.000000
-0.446510 0.284785 -0.016667
-0.446285 0.285052 -0.033333
-0.448398 0.303929 0.033333
-0.447898 0.299617 0.016667
-0.447235 0.298334 0.000000
-0.446619 0.299533 -0.016667
-0.446219 0.300056 -0.033333
-0.448694 0.317290 0.033333
-0.447955 0.313701 0.016667
-0.447065 0.312777 0.000000
-0.446270 0.314210 -0.016667
-0.445771 0.314939 -0.033333
-0.447916 0.330592 0.033333
-0.447149 0.327635 0.016667
-0.446185 0.327122 0.000000
-0.445365 0.328875 -0.016667
-0.444879 0.329775 -0.033333
-0.446131 0.343924 0.033333
-0.445393 0.341551 0.016667
-0.444554 0.341466 0.000000
-0.443887 0.343598 -0.016667
-0.443529 0.344628 -0.033333
-0.443211 0.357448 0.033333
-0.442683 0.355560 0.016667
-0.442146 0.355892 0.000000
-0.441855 0.358459 -0.016667
-0.441823 0.359555 -0.033333
-0.439159 0.371280 0.033333
-0.438883 0.369778 0.016667
-0.438920 0.370492 0.000000
-0.439380 0.373544 -0.016667
-0.439960 0.374584 -0.033333
-0.433948 0.385603 0.033333
-0.433724 0.384331 0.016667
-0.434704 0.385363 0.000000
-0.436662 0.388937 -0.016667
-0.438421 0.389695 -0.033333
-0.429698 -0.488195 0.033333
-0.437479 -0.501470 0.016667
-0.443888 -0.503723 0.000000
-0.447965 -0.505058 -0.016667
-0.450363 -0.506113 -0.033333
-0.443361 -0.475307 0.033333
-0.445846 -0.485979 0.016667
-0.448859 -0.489807 0.000000
-0.451078 -0.490581 -0.016667
-0.452572 -0.492126 -0.033333
-0.453530 -0.462468 0.033333
-0.453649 -0.471626 0.016667
-0.454382 -0.475699 0.000000
-0.455192 -0.476660 -0.016667
-0.455808 -0.477970 -0.033333
-0.461555 -0.449963 0.033333
-0.460482 -0.457855 0.016667
-0.459826 -0.461835 0.000000
-0.459601 -0.462942 -0.016667
-0.459566 -0.464037 -0.033333
-0.468059 -0.437736 0.033333
-0.466336 -0.444510 0.016667
-0.464834 -0.448243 0.000000
-0.463902 -0.449408 -0.016667
-0.463413 -0.450338 -0.033333
-0.473355 -0.425728 0.033333
-0.471261 -0.431495 0.016667
-0.469237 -0.434897 0.000000
-0.467839 -0.436051 -0.016667
-0.467043 -0.436847 -0.033333
-0.477608 -0.413890 0.033333
-0.475298 -0.418734 0.016667
-0.472949 -0.421756 0.000000
-0.471247 -0.422853 -0.016667
-0.470250 -0.423532 -0.033333
-0.480906 -0.402176 0.033333
-0.478467 -0.406162 0.016667
-0.475917 -0.408777 0.000000
-0.474023 -0.409785 -0.016667
-0.472896 -0.410355 -0.033333
-0.483284 -0.390553 0.033333
-0.480777 -0.393722 0.016667
-0.478107 -0.395915 0.000000
-0.476096 -0.396812 -0.016667
-0.474890 -0.397277 -0.033333
-0.484768 -0.378961 0.033333
-0.482219 -0.381362 0.016667
-0.479491 -0.383125 0.000000
-0.477421 -0.383894 -0.016667
-0.476173 -0.384257 -0.033333
-0.485337 -0.367405 0.033333
-0.482795 -0.369017 0.016667
-0.480053 -0.370355 0.000000
-0.477970 -0.370992 -0.016667
-0.476715 -0.371249 -0.033333
-0.485009 -0.355744 0.033333
-0.482481 -0.356658 0.016667
-0.479779 -0.357558 0.000000
-0.477733 -0.358052 -0.016667
-0.476498 -0.358211 -0.033333
-0.483738 -0.344082 0.033333
-0.481275 -0.344180 0.016667
-0.478665 -0.344673 0.000000
-0.476711 -0.345038 -0.016667
-0.475538 -0.345083 -0.033333
-0.481489 -0.332194 0.033333
-0.479147 -0.331575 0.016667
-0.476716 -0.331646 0.000000
-0.474931 -0.331883 -0.016667
-0.473864 -0.331823 -0.033333
-0.478200 -0.320143 0.033333
-0.476071 -0.318708 0.016667
-0.473945 -0.318412 0.000000
-0.472439 -0.318548 -0.016667
-0.471547 -0.318367 -0.033333
-0.473739 -0.307812 0.033333
-0.472006 -0.305534 0.016667
-0.470400 -0.304900 0.000000
-0.469330 -0.304976 -0.016667
-0.468693 -0.304659 -0.033333
-0.467837 -0.295089 0.033333
-0.466908 -0.291919 0.016667
-0.466200 -0.291056 0.000000
-0.465765 -0.291114 -0.016667
-0.465476 -0.290654 -0.033333
-0.460048 -0.281930 0.033333
-0.460794 -0.277763 0.016667
-0.461718 -0.276797 0.000000
-0.461950 -0.276967 -0.016667
-0.462170 -0.276269 -0.033333
-0.448180 -0.269193 0.033333
-0.455010 -0.261865 0.016667
-0.457261 -0.263115 0.000000
-0.458475 -0.261562 -0.016667
-0.458792 -0.262424 -0.033333
-0.447426 -0.253082 0.033333
-0.451360 -0.247267 0.016667
-0.453982 -0.247557 0.000000
-0.455219 -0.247116 -0.016667
-0.455898 -0.247121 -0.033333
-0.446673 -0.236971 0.033333
-0.449388 -0.232123 0.016667
-0.451419 -0.232073 0.000000
-0.452632 -0.232054 -0.016667
-0.453270 -0.231916 -0.033333
-0.445919 -0.220859 0.033333
-0.447913 -0.216745 0.016667
-0.449488 -0.216498 0.000000
-0.450492 -0.216711 -0.016667
-0.451055 -0.216581 -0.033333
-0.445165 -0.204748 0.033333
-0.446690 -0.201175 0.016667
-0.447909 -0.200882 0.000000
-0.448728 -0.201172 -0.016667
-0.449177 -0.201123 -0.033333
-0.444412 -0.188636 0.033333
-0.445599 -0.185507 0.016667
-0.446574 -0.185203 0.000000
-0.447227 -0.185529 -0.016667
-0.447582 -0.185544 -0.033333
-0.443658 -0.172525 0.033333
-0.444614 -0.169723 0.016667
-0.445398 -0.169519 0.000000
-0.445929 -0.169787 -0.016667
-0.446200 -0.169902 -0.033333
-0.442904 -0.156413 0.033333
-0.443722 -0.153872 0.016667
-0.444358 -0.153841 0.000000
-0.444767 -0.153966 -0.016667
-0.444983 -0.154240 -0.033333
-0.442477 -0.139951 0.033333
-0.442914 -0.138283 0.016667
-0.443376 -0.137917 0.000000
-0.443723 -0.138324 -0.016667
-0.443874 -0.138351 -0.033333
-0.441793 -0.123764 0.033333
-0.442085 -0.122520 0.016667
-0.442462 -0.122158 0.000000
-0.442736 -0.122513 -0.016667
-0.442849 -0.122581 -0.033333
-0.440997 -0.107751 0.033333
-0.441245 -0.106710 0.016667
-0.441555 -0.106414 0.000000
-0.441793 -0.106695 -0.016667
-0.441877 -0.106786 -0.033333
-0.440216 -0.091744 0.033333
-0.440374 -0.090911 0.016667
-0.440658 -0.090650 0.000000
-0.440871 -0.090884 -0.016667
-0.440933 -0.090967 -0.033333
-0.439394 -0.075741 0.033333
-0.439501 -0.075083 0.016667
-0.439759 -0.074875 0.000000
-0.439962 -0.075071 -0.016667
-0.440009 -0.075135 -0.033333
-0.438555 -0.059710 0.033333
-0.438609 -0.059229 0.016667
-0.438862 -0.059081 0.000000
-0.439059 -0.059258 -0.016667
-0.439091 -0.059292 -0.033333
-0.437629 -0.043634 0.033333
-0.437729 -0.043324 0.016667
-0.437970 -0.043279 0.000000
-0.438156 -0.043435 -0.016667
-0.438178 -0.043448 -0.033333
-0.436875 -0.027523 0.033333
-0.436860 -0.027378 0.016667
-0.437086 -0.027475 0.000000
-0.437248 -0.027606 -0.016667
-0.437258 -0.027608 -0.033333
-0.436122 -0.011411 0.033333
-0.436013 -0.011418 0.016667
-0.436193 -0.011664 0.000000
-0.436325 -0.011788 -0.016667
-0.436325 -0.011767 -0.033333
-0.435368 0.004700 0.033333
-0.435139 0.004550 0.016667
-0.435264 0.004131 0.000000
-0.435369 0.004019 -0.016667
-0.435367 0.004061 -0.033333
-0.434614 0.020812 0.033333
-0.434180 0.020515 0.016667
-0.434241 0.019885 0.000000
-0.434365 0.019814 -0.016667
-0.434388 0.019859 -0.033333
-0.433861 0.036923 0.033333
-0.432834 0.036445 0.016667
-0.433103 0.035555 0.000000
-0.433315 0.035610 -0.016667
-0.433398 0.035597 -0.033333
-0.430580 0.052974 0.033333
-0.431273 0.052114 0.016667
-0.431882 0.051279 0.000000
-0.432262 0.051269 -0.016667
-0.432427 0.051393 -0.033333
-0.428541 0.068808 0.033333
-0.429711 0.067716 0.016667
-0.430722 0.066894 0.000000
-0.431273 0.066934 -0.016667
-0.431520 0.067122 -0.033333
-0.427239 0.084590 0.033333
-0.428573 0.083265 0.016667
-0.429757 0.082453 0.000000
-0.430420 0.082583 -0.016667
-0.430722 0.082819 -0.033333
-0.426451 0.100428 0.033333
-0.427853 0.098805 0.016667
-0.429059 0.097987 0.000000
-0.429748 0.098227 -0.016667
-0.430066 0.098499 -0.033333
-0.426158 0.116331 0.033333
-0.427483 0.114384 0.016667
-0.428627 0.113518 0.000000
-0.429263 0.113881 -0.016667
-0.429559 0.114165 -0.033333
-0.426219 0.132457 0.033333
-0.427432 0.129981 0.016667
-0.428412 0.129067 0.000000
-0.428942 0.129562 -0.016667
-0.429186 0.129808 -0.033333
-0.426729 0.148742 0.033333
-0.427623 0.145596 0.016667
-0.428341 0.144661 0.000000
-0.428723 0.145253 -0.016667
-0.428928 0.145443 -0.033333
-0.427832 0.165812 0.033333
-0.427793 0.160771 0.016667
-0.428244 0.160664 0.000000
-0.428603 0.160606 -0.016667
-0.428710 0.161387 -0.033333
-0.427078 0.181923 0.033333
-0.427674 0.176635 0.016667
-0.428151 0.176105 0.000000
-0.428449 0.176433 -0.016667
-0.428584 0.176877 -0.033333
-0.426324 0.198034 0.033333
-0.427303 0.192359 0.016667
-0.427967 0.191639 0.000000
-0.428330 0.192119 -0.016667
-0.428476 0.192452 -0.033333
-0.425570 0.214146 0.033333
-0.426910 0.207925 0.016667
-0.427786 0.207204 0.000000
-0.428234 0.207712 -0.016667
-0.428436 0.208015 -0.033333
-0.424816 0.230257 0.033333
-0.426585 0.223340 0.016667
-0.427673 0.222775 0.000000
-0.428235 0.223189 -0.016667
-0.428453 0.223549 -0.033333
-0.424063 0.246369 0.033333
-0.426444 0.238504 0.016667
-0.427780 0.238384 0.000000
-0.428339 0.238468 -0.016667
-0.428569 0.239084 -0.033333
-0.423309 0.262480 0.033333
-0.427095 0.253284 0.016667
-0.428062 0.254170 0.000000
-0.428656 0.253284 -0.016667
-0.428677 0.254866 -0.033333
-0.427470 0.275837 0.033333
-0.428126 0.269629 0.016667
-0.428807 0.268243 0.000000
-0.428873 0.269267 -0.016667
-0.428907 0.269332 -0.033333
-0.429410 0.289592 0.033333
-0.429447 0.284532 0.016667
-0.429344 0.283072 0.000000
-0.429122 0.284206 -0.016667
-0.428938 0.284522 -0.033333
-0.430447 0.303240 0.033333
-0.430077 0.298949 0.016667
-0.429592 0.297756 0.000000
-0.429093 0.299019 -0.016667
-0.428762 0.299573 -0.033333
-0.430538 0.316672 0.033333
-0.430022 0.313132 0.016667
-0.429312 0.312281 0.000000
-0.428666 0.313772 -0.016667
-0.428263 0.314532 -0.033333
-0.429794 0.330085 0.033333
-0.429175 0.327182 0.016667
-0.428429 0.326734 0.000000
-0.427767 0.328523 -0.016667
-0.427366 0.329441 -0.033333
-0.428087 0.343565 0.033333
-0.427554 0.341224 0.016667
-0.426890 0.341182 0.000000
-0.426362 0.343338 -0.016667
-0.426090 0.344374 -0.033333
-0.425464 0.357213 0.033333
-0.425056 0.355352 0.016667
-0.424675 0.355716 0.000000
-0.424487 0.358285 -0.016667
-0.424495 0.359375 -0.033333
-0.421782 0.371166 0.033333
-0.421626 0.369680 0.016667
-0.421739 0.370404 0.000000
-0.422220 0.373448 -0.016667
-0.422789 0.374471 -0.033333
-0.417116 0.385568 0.033333
-0.416958 0.384313 0.016667
-0.417944 0.385336 0.000000
-0.419747 0.388905 -0.016667
-0.421382 0.389631 -0.033333
-0.412627 -0.488344 0.033333
-0.419730 -0.501822 0.016667
-0.425792 -0.504129 0.000000
-0.429656 -0.505427 -0.016667
-0.431913 -0.506519 -0.033333
-0.425224 -0.475505 0.033333
-0.427476 -0.486393 0.016667
-0.430368 -0.490239 0.000000
-0.432513 -0.491010 -0.016667
-0.433941 -0.492556 -0.033333
-0.434568 -0.462735 0.033333
-0.434716 -0.472078 0.016667
-0.435486 -0.476171 0.000000
-0.436317 -0.477128 -0.016667
-0.436936 -0.478439 -0.033333
-0.441969 -0.450289 0.033333
-0.441049 -0.458339 0.016667
-0.440541 -0.462345 0.000000
-0.440410 -0.463445 -0.016667
-0.440426 -0.464540 -0.033333
-0.447988 -0.438111 0.033333
-0.446481 -0.445023 0.016667
-0.445198 -0.448785 0.000000
-0.444415 -0.449941 -0.016667
-0.444010 -0.450871 -0.033333
-0.452907 -0.426147 0.033333
-0.451065 -0.432033 0.016667
-0.449304 -0.435464 0.000000
-0.448092 -0.436611 -0.016667
-0.447404 -0.437406 -0.033333
-0.456877 -0.414346 0.033333
-0.454840 -0.419292 0.016667
-0.452781 -0.422341 0.000000
-0.451292 -0.423432 -0.016667
-0.450418 -0.424109 -0.033333
-0.459976 -0.402669 0.033333
-0.457825 -0.406735 0.016667
-0.455583 -0.409375 0.000000
-0.453917 -0.410378 -0.016667
-0.452925 -0.410945 -0.033333
-0.462248 -0.391068 0.033333
-0.460028 -0.394307 0.016667
-0.457676 -0.396520 0.000000
-0.455905 -0.397412 -0.016667
-0.454839 -0.397874 -0.033333
-0.463697 -0.379521 0.033333
-0.461451 -0.381949 0.016667
-0.459041 -0.383729 0.000000
-0.457213 -0.384496 -0.016667
-0.456111 -0.384854 -0.033333
-0.464345 -0.367944 0.033333
-0.462082 -0.369619 0.016667
-0.459660 -0.370957 0.000000
-0.457820 -0.371586 -0.016667
-0.456707 -0.371842 -0.033333
-0.464162 -0.356379 0.033333
-0.461924 -0.357240 0.016667
-0.459526 -0.358149 0.000000
-0.457713 -0.358642 -0.016667
-0.456620 -0.358788 -0.033333
-0.463152 -0.344654 0.033333
-0.460956 -0.344790 0.016667
-0.458636 -0.345256 0.000000
-0.456900 -0.345608 -0.016667
-0.455855 -0.345650 -0.033333
-0.461278 -0.332848 0.033333
-0.459172 -0.332156 0.016667
-0.456994 -0.332214 0.000000
-0.455400 -0.332443 -0.016667
-0.454448 -0.332366 -0.033333
-0.458483 -0.320804 0.033333
-0.456542 -0.319307 0.016667
-0.454616 -0.318965 0.000000
-0.453260 -0.319087 -0.016667
-0.452454 -0.318887 -0.033333
-0.454624 -0.308476 0.033333
-0.453029 -0.306123 0.016667
-0.451541 -0.305441 0.000000
-0.450558 -0.305492 -0.016667
-0.449977 -0.305161 -0.033333
-0.449538 -0.295835 0.033333
-0.448579 -0.292501 0.016667
-0.447866 -0.291572 0.000000
-0.447440 -0.291626 -0.016667
-0.447158 -0.291117 -0.033333
-0.442714 -0.282651 0.033333
-0.443188 -0.278309 0.016667
-0.443924 -0.277333 0.000000
-0.444085 -0.277426 -0.016667
-0.444241 -0.276745 -0.033333
-0.432069 -0.269947 0.033333
-0.438116 -0.262439 0.016667
-0.439992 -0.263602 0.000000
-0.440994 -0.262039 -0.016667
-0.441251 -0.262855 -0.033333
-0.431315 -0.253836 0.033333
-0.434770 -0.247802 0.016667
-0.437028 -0.248084 0.000000
-0.438092 -0.247552 -0.016667
-0.438646 -0.247566 -0.033333
-0.430562 -0.237724 0.033333
-0.432925 -0.232707 0.016667
-0.434706 -0.232552 0.000000
-0.435730 -0.232519 -0.016667
-0.436285 -0.232327 -0.033333
-0.429808 -0.221613 0.033333
-0.431549 -0.217306 0.016667
-0.432900 -0.217006 0.000000
-0.433780 -0.217154 -0.016667
-0.434247 -0.217006 -0.033333
-0.429054 -0.205501 0.033333
-0.430359 -0.201767 0.016667
-0.431430 -0.201372 0.000000
-0.432128 -0.201631 -0.016667
-0.432517 -0.201538 -0.033333
-0.428300 -0.189390 0.033333
-0.429308 -0.186096 0.016667
-0.430145 -0.185712 0.000000
-0.430719 -0.185983 -0.016667
-0.431016 -0.185971 -0.033333
-0.427547 -0.173279 0.033333
-0.428346 -0.170352 0.016667
-0.429005 -0.170017 0.000000
-0.429480 -0.170267 -0.016667
-0.429700 -0.170321 -0.033333
-0.426793 -0.157167 0.033333
-0.427482 -0.154476 0.016667
-0.427957 -0.154385 0.000000
-0.428373 -0.154427 -0.016667
-0.428516 -0.154687 -0.033333
-0.426328 -0.140568 0.033333
-0.426601 -0.138966 0.016667
-0.427017 -0.138441 0.000000
-0.427326 -0.138814 -0.016667
-0.427458 -0.138789 -0.033333
-0.425458 -0.124518 0.033333
-0.425785 -0.123153 0.016667
-0.426085 -0.122720 0.000000
-0.426362 -0.122995 -0.016667
-0.426448 -0.123037 -0.033333
-0.424705 -0.108492 0.033333
-0.424900 -0.107372 0.016667
-0.425194 -0.106965 0.000000
-0.425425 -0.107196 -0.016667
-0.425490 -0.107240 -0.033333
-0.423911 -0.092488 0.033333
-0.424038 -0.091562 0.016667
-0.424300 -0.091212 0.000000
-0.424514 -0.091389 -0.016667
-0.424558 -0.091432 -0.033333
-0.423132 -0.076478 0.033333
-0.423171 -0.075734 0.016667
-0.423415 -0.075441 0.000000
-0.423615 -0.075584 -0.016667
-0.423640 -0.075608 -0.033333
-0.422331 -0.060448 0.033333
-0.422308 -0.059875 0.016667
-0.422533 -0.059654 0.000000
-0.422721 -0.059779 -0.016667
-0.422730 -0.059774 -0.033333
-0.421517 -0.044388 0.033333
-0.421443 -0.043968 0.016667
-0.421660 -0.043868 0.000000
-0.421823 -0.043959 -0.016667
-0.421821 -0.043945 -0.033333
-0.420764 -0.028276 0.033333
-0.420595 -0.028038 0.016667
-0.420783 -0.028069 0.000000
-0.420915 -0.028145 -0.016667
-0.420902 -0.028110 -0.033333
-0.420010 -0.012165 0.033333
-0.419750 -0.012088 0.016667
-0.419890 -0.012270 0.000000
-0.419987 -0.012336 -0.016667
-0.419961 -0.012279 -0.033333
-0.419257 0.003947 0.033333
-0.418877 0.003869 0.016667
-0.418949 0.003516 0.000000
-0.419017 0.003462 -0.016667
-0.418990 0.003539 -0.033333
-0.418503 0.020058 0.033333
-0.417896 0.019830 0.016667
-0.417899 0.019256 0.000000
-0.417986 0.019249 -0.016667
-0.417988 0.019329 -0.033333
-0.417750 0.036169 0.033333
-0.416479 0.035750 0.016667
-0.416709 0.034913 0.000000
-0.416900 0.035041 -0.016667
-0.416971 0.035058 -0.033333
-0.414069 0.052184 0.033333
-0.414801 0.051397 0.016667
-0.415426 0.050628 0.000000
-0.415803 0.050689 -0.016667
-0.415971 0.050855 -0.033333
-0.411887 0.067985 0.033333
-0.413131 0.066960 0.016667
-0.414209 0.066237 0.000000
-0.414777 0.066348 -0.016667
-0.415034 0.066581 -0.033333
-0.410502 0.083721 0.033333
-0.411971 0.082491 0.016667
-0.413208 0.081787 0.000000
-0.413898 0.081995 -0.016667
-0.414215 0.082279 -0.033333
-0.409825 0.099513 0.033333
-0.411253 0.098030 0.016667
-0.412511 0.097318 0.000000
-0.413213 0.097639 -0.016667
-0.413542 0.097960 -0.033333
-0.409573 0.115495 0.033333
-0.410953 0.113595 0.016667
-0.412090 0.112855 0.000000
-0.412730 0.113295 -0.016667
-0.413027 0.113624 -0.033333
-0.409803 0.131564 0.033333
-0.410964 0.129234 0.016667
-0.411909 0.128402 0.000000
-0.412412 0.128974 -0.016667
-0.412650 0.129270 -0.033333
-0.410434 0.148010 0.033333
-0.411235 0.144839 0.016667
-0.411859 0.144000 0.000000
-0.412208 0.144665 -0.016667
-0.412376 0.144896 -0.033333
-0.411720 0.165058 0.033333
-0.411459 0.160028 0.016667
-0.411793 0.160006 0.000000
-0.412068 0.160005 -0.016667
-0.412158 0.160839 -0.033333
-0.410967 0.181169 0.033333
-0.411355 0.175906 0.016667
-0.411685 0.175431 0.000000
-0.411911 0.175830 -0.016667
-0.411987 0.176315 -0.033333
-0.410213 0.197280 0.033333
-0.410970 0.191607 0.016667
-0.411488 0.190963 0.000000
-0.411742 0.191505 -0.016667
-0.411849 0.191879 -0.033333
-0.409459 0.213392 0.033333
-0.410545 0.207186 0.016667
-0.411245 0.206512 0.000000
-0.411602 0.207089 -0.016667
-0.411729 0.207437 -0.033333
-0.408705 0.229503 0.033333
-0.410166 0.222570 0.016667
-0.411073 0.222080 0.000000
-0.411499 0.222565 -0.016667
-0.411676 0.222956 -0.033333
-0.407951 0.245615 0.033333
-0.409949 0.237753 0.016667
-0.411035 0.237690 0.000000
-0.411509 0.237833 -0.016667
-0.411659 0.238509 -0.033333
-0.407198 0.261726 0.033333
-0.410342 0.252497 0.016667
-0.411176 0.253476 0.000000
-0.411638 0.252675 -0.016667
-0.411673 0.254280 -0.033333
-0.410417 0.274974 0.033333
-0.411056 0.268893 0.016667
-0.411646 0.267569 0.000000
-0.411722 0.268660 -0.016667
-0.411736 0.268797 -0.033333
-0.411890 0.288882 0.033333
-0.411977 0.283775 0.016667
-0.411977 0.282443 0.000000
-0.411799 0.283654 -0.016667
-0.411651 0.283998 -0.033333
-0.412578 0.302462 0.033333
-0.412407 0.298295 0.016667
-0.412043 0.297177 0.000000
-0.411650 0.298516 -0.016667
-0.411385 0.299120 -0.033333
-0.412608 0.316046 0.033333
-0.412202 0.312549 0.016667
-0.411686 0.311797 0.000000
-0.411166 0.313343 -0.016667
-0.410830 0.314131 -0.033333
-0.411807 0.329566 0.033333
-0.411395 0.326723 0.016667
-0.410802 0.326339 0.000000
-0.410269 0.328177 -0.016667
-0.409952 0.329118 -0.033333
-0.410286 0.343173 0.033333
-0.409860 0.340882 0.016667
-0.409361 0.340900 0.000000
-0.408947 0.343078 -0.016667
-0.408730 0.344124 -0.033333
-0.407871 0.356965 0.033333
-0.407601 0.355139 0.016667
-0.407324 0.355533 0.000000
-0.407209 0.358112 -0.016667
-0.407255 0.359198 -0.033333
-0.404575 0.371039 0.033333
-0.404484 0.369574 0.016667
-0.404657 0.370317 0.000000
-0.405141 0.373349 -0.016667
-0.405679 0.374358 -0.033333
-0.400368 0.385534 0.033333
-0.400270 0.384293 0.016667
-0.401235 0.385305 0.000000
-0.402885 0.388870 -0.016667
-0.404403 0.389568 -0.033333
-0.395522 -0.488487 0.033333
-0.401948 -0.502152 0.016667
-0.407665 -0.504509 0.000000
-0.411305 -0.505770 -0.016667
-0.413414 -0.506899 -0.033333
-0.407044 -0.475692 0.033333
-0.409095 -0.486778 0.016667
-0.411856 -0.490635 0.000000
-0.413915 -0.491405 -0.016667
-0.415275 -0.492952 -0.033333
-0.415587 -0.462977 0.033333
-0.415776 -0.472486 0.016667
-0.416577 -0.476600 0.000000
-0.417420 -0.477554 -0.016667
-0.418037 -0.478864 -0.033333
-0.422383 -0.450572 0.033333
-0.421617 -0.458769 0.016667
-0.421250 -0.462800 0.000000
-0.421206 -0.463895 -0.016667
-0.421269 -0.464991 -0.033333
-0.427929 -0.438429 0.033333
-0.426637 -0.445470 0.016667
-0.425563 -0.449261 0.000000
-0.424923 -0.450412 -0.016667
-0.424598 -0.451343 -0.033333
-0.432479 -0.426492 0.033333
-0.430886 -0.432492 0.016667
-0.429380 -0.435953 0.000000
-0.428349 -0.437096 -0.016667
-0.427766 -0.437892 -0.033333
-0.436169 -0.414718 0.033333
-0.434403 -0.419758 0.016667
-0.432629 -0.422837 0.000000
-0.431346 -0.423927 -0.016667
-0.430594 -0.424604 -0.033333
-0.439074 -0.403060 0.033333
-0.437205 -0.407206 0.016667
-0.435267 -0.409872 0.000000
-0.433826 -0.410875 -0.016667
-0.432966 -0.411442 -0.033333
-0.441226 -0.391486 0.033333
-0.439302 -0.394777 0.016667
-0.437266 -0.397013 0.000000
-0.435731 -0.397906 -0.016667
-0.434806 -0.398368 -0.033333
-0.442652 -0.379942 0.033333
-0.440694 -0.382424 0.016667
-0.438608 -0.384216 0.000000
-0.437024 -0.384981 -0.016667
-0.436064 -0.385340 -0.033333
-0.443340 -0.368425 0.033333
-0.441382 -0.370084 0.016667
-0.439281 -0.371432 0.000000
-0.437684 -0.372062 -0.016667
-0.436717 -0.372312 -0.033333
-0.443310 -0.356823 0.033333
-0.441356 -0.357723 0.016667
-0.439278 -0.358615 0.000000
-0.437706 -0.359098 -0.016667
-0.436753 -0.359244 -0.033333
-0.442538 -0.345195 0.033333
-0.440622 -0.345254 0.016667
-0.438601 -0.345707 0.000000
-0.437093 -0.346052 -0.016667
-0.436184 -0.346080 -0.033333
-0.441015 -0.333378 0.033333
-0.439162 -0.332650 0.016667
-0.437258 -0.332658 0.000000
-0.435868 -0.332864 -0.016667
-0.435034 -0.332776 -0.033333
-0.438680 -0.321393 0.033333
-0.436971 -0.319803 0.016667
-0.435263 -0.319398 0.000000
-0.434069 -0.319493 -0.016667
-0.433364 -0.319273 -0.033333
-0.435490 -0.309142 0.033333
-0.433999 -0.306632 0.016667
-0.432650 -0.305866 0.000000
-0.431774 -0.305888 -0.016667
-0.431247 -0.305513 -0.033333
-0.431119 -0.296462 0.033333
-0.430216 -0.293028 0.016667
-0.429503 -0.291999 0.000000
-0.429094 -0.291989 -0.016667
-0.428828 -0.291468 -0.033333
-0.425350 -0.283442 0.033333
-0.425543 -0.278822 0.016667
-0.426110 -0.277730 0.000000
-0.426188 -0.277806 -0.016667
-0.426307 -0.277044 -0.033333
-0.415958 -0.270701 0.033333
-0.421202 -0.262881 0.016667
-0.422668 -0.264068 0.000000
-0.423519 -0.262340 -0.016667
-0.423663 -0.263201 -0.033333
-0.415204 -0.254589 0.033333
-0.418146 -0.248341 0.016667
-0.420081 -0.248463 0.000000
-0.420922 -0.247913 -0.016667
-0.421397 -0.247843 -0.033333
-0.414450 -0.238478 0.033333
-0.416485 -0.233199 0.016667
-0.417954 -0.232981 0.000000
-0.418831 -0.232837 -0.016667
-0.419262 -0.232634 -0.033333
-0.413696 -0.222367 0.033333
-0.415158 -0.217833 0.016667
-0.416321 -0.217396 0.000000
-0.417033 -0.217502 -0.016667
-0.417434 -0.217288 -0.033333
-0.412943 -0.206255 0.033333
-0.414028 -0.202284 0.016667
-0.414920 -0.201790 0.000000
-0.415521 -0.201968 -0.016667
-0.415827 -0.201839 -0.033333
-0.412189 -0.190144 0.033333
-0.412986 -0.186650 0.016667
-0.413710 -0.186125 0.000000
-0.414187 -0.186340 -0.016667
-0.414433 -0.186270 -0.033333
-0.411435 -0.174032 0.033333
-0.412044 -0.170927 0.016667
-0.412598 -0.170450 0.000000
-0.413009 -0.170628 -0.016667
-0.413185 -0.170633 -0.033333
-0.410682 -0.157921 0.033333
-0.411201 -0.155169 0.016667
-0.411538 -0.154762 0.000000
-0.411973 -0.154859 -0.016667
-0.412016 -0.154957 -0.033333
-0.409928 -0.141810 0.033333
-0.410403 -0.139476 0.016667
-0.410540 -0.138973 0.000000
-0.411001 -0.139145 -0.016667
-0.410946 -0.139166 -0.033333
-0.409174 -0.125698 0.033333
-0.409487 -0.123759 0.016667
-0.409666 -0.123206 0.000000
-0.410013 -0.123383 -0.016667
-0.409990 -0.123382 -0.033333
-0.408421 -0.109587 0.033333
-0.408596 -0.107974 0.016667
-0.408786 -0.107469 0.000000
-0.409078 -0.107587 -0.016667
-0.409056 -0.107601 -0.033333
-0.407667 -0.093475 0.033333
-0.407714 -0.092172 0.016667
-0.407918 -0.091713 0.000000
-0.408166 -0.091797 -0.016667
-0.408143 -0.091795 -0.033333
-0.406913 -0.077364 0.033333
-0.406847 -0.076339 0.016667
-0.407054 -0.075948 0.000000
-0.407267 -0.076001 -0.016667
-0.407244 -0.075982 -0.033333
-0.406160 -0.061253 0.033333
-0.405984 -0.060481 0.016667
-0.406199 -0.060171 0.000000
-0.406370 -0.060203 -0.016667
-0.406349 -0.060161 -0.033333
-0.405406 -0.045141 0.033333
-0.405135 -0.044587 0.016667
-0.405340 -0.044390 0.000000
-0.405474 -0.044399 -0.016667
-0.405447 -0.044339 -0.033333
-0.404653 -0.029030 0.033333
-0.404301 -0.028669 0.016667
-0.404471 -0.028603 0.000000
-0.404568 -0.028596 -0.016667
-0.404527 -0.028517 -0.033333
-0.403899 -0.012918 0.033333
-0.403467 -0.012736 0.016667
-0.403577 -0.012814 0.000000
-0.403636 -0.012801 -0.016667
-0.403580 -0.012696 -0.033333
-0.403145 0.003193 0.033333
-0.402592 0.003213 0.016667
-0.402628 0.002955 0.000000
-0.402652 0.002987 -0.016667
-0.402596 0.003112 -0.033333
-0.402392 0.019304 0.033333
-0.401602 0.019163 0.016667
-0.401548 0.018686 0.000000
-0.401595 0.018766 -0.016667
-0.401577 0.018893 -0.033333
-0.401638 0.035416 0.033333
-0.400099 0.035080 0.016667
-0.400308 0.034325 0.000000
-0.400475 0.034556 -0.016667
-0.400532 0.034615 -0.033333
-0.397504 0.051421 0.033333
-0.398301 0.050685 0.016667
-0.398962 0.050043 0.000000
-0.399337 0.050197 -0.016667
-0.399508 0.050413 -0.033333
-0.395119 0.067113 0.033333
-0.396536 0.066243 0.016667
-0.397687 0.065644 0.000000
-0.398277 0.065856 -0.016667
-0.398547 0.066146 -0.033333
-0.393788 0.082828 0.033333
-0.395331 0.081745 0.016667
-0.396667 0.081202 0.000000
-0.397374 0.081507 -0.016667
-0.397705 0.081848 -0.033333
-0.393096 0.098632 0.033333
-0.394681 0.097281 0.016667
-0.395958 0.096740 0.000000
-0.396681 0.097157 -0.016667
-0.397020 0.097534 -0.033333
-0.393077 0.114544 0.033333
-0.394415 0.112888 0.016667
-0.395567 0.112278 0.000000
-0.396194 0.112816 -0.016667
-0.396493 0.113204 -0.033333
-0.393381 0.130803 0.033333
-0.394525 0.128502 0.016667
-0.395401 0.127839 0.000000
-0.395886 0.128497 -0.016667
-0.396104 0.128844 -0.033333
-0.394184 0.147134 0.033333
-0.394858 0.144167 0.016667
-0.395387 0.143428 0.000000
-0.395674 0.144178 -0.016667
-0.395824 0.144471 -0.033333
-0.395609 0.164304 0.033333
-0.395127 0.159348 0.016667
-0.395321 0.159424 0.000000
-0.395540 0.159514 -0.016667
-0.395575 0.160395 -0.033333
-0.394855 0.180415 0.033333
-0.395030 0.175210 0.016667
-0.395222 0.174843 0.000000
-0.395345 0.175317 -0.016667
-0.395391 0.175859 -0.033333
-0.394101 0.196527 0.033333
-0.394618 0.190923 0.016667
-0.394985 0.190344 0.000000
-0.395155 0.190978 -0.016667
-0.395191 0.191403 -0.033333
-0.393348 0.212638 0.033333
-0.394169 0.206453 0.016667
-0.394712 0.205886 0.000000
-0.394941 0.206542 -0.016667
-0.395028 0.206937 -0.033333
-0.392594 0.228749 0.033333
-0.393746 0.221861 0.016667
-0.394451 0.221431 0.000000
-0.394781 0.221998 -0.016667
-0.394871 0.222453 -0.033333
-0.391840 0.244861 0.033333
-0.393437 0.236991 0.016667
-0.394326 0.237034 0.000000
-0.394655 0.237269 -0.016667
-0.394782 0.237976 -0.033333
-0.391086 0.260972 0.033333
-0.393644 0.251779 0.016667
-0.394266 0.252820 0.000000
-0.394681 0.252090 -0.016667
-0.394650 0.253780 -0.033333
-0.393392 0.274297 0.033333
-0.393982 0.268079 0.016667
-0.394551 0.266935 0.000000
-0.394592 0.268111 -0.016667
-0.394611 0.268278 -0.033333
-0.394364 0.287950 0.033333
-0.394624 0.283090 0.016667
-0.394660 0.281814 0.000000
-0.394538 0.283123 -0.016667
-0.394417 0.283540 -0.033333
-0.394918 0.301767 0.033333
-0.394793 0.297591 0.016667
-0.394600 0.296628 0.000000
-0.394287 0.298042 -0.016667
-0.394064 0.298683 -0.033333
-0.394748 0.315348 0.033333
-0.394565 0.311973 0.016667
-0.394165 0.311306 0.000000
-0.393751 0.312934 -0.016667
-0.393486 0.313768 -0.033333
-0.394076 0.329009 0.033333
-0.393738 0.326238 0.016667
-0.393308 0.325958 0.000000
-0.392877 0.327845 -0.016667
-0.392608 0.328815 -0.033333
-0.392635 0.342762 0.033333
-0.392356 0.340534 0.016667
-0.391957 0.340613 0.000000
-0.391626 0.342832 -0.016667
-0.391461 0.343892 -0.033333
-0.390499 0.356689 0.033333
-0.390283 0.354913 0.016667
-0.390095 0.355356 0.000000
-0.390026 0.357945 -0.016667
-0.390081 0.359034 -0.033333
-0.387506 0.370904 0.033333
-0.387478 0.369464 0.016667
-0.387668 0.370225 0.000000
-0.388132 0.373255 -0.016667
-0.388638 0.374253 -0.033333
-0.383728 0.385489 0.033333
-0.383652 0.384269 0.016667
-0.384580 0.385278 0.000000
-0.386078 0.388835 -0.016667
-0.387470 0.389509 -0.033333
-0.378373 -0.488631 0.033333
-0.384148 -0.502461 0.016667
-0.389522 -0.504864 0.000000
-0.392913 -0.506080 -0.016667
-0.394881 -0.507254 -0.033333
-0.388832 -0.475868 0.033333
-0.390718 -0.487126 0.016667
-0.393329 -0.490995 0.000000
-0.395296 -0.491766 -0.016667
-0.396581 -0.493310 -0.033333
-0.396604 -0.463193 0.033333
-0.396840 -0.472851 0.016667
-0.397666 -0.476982 0.000000
-0.398511 -0.477934 -0.016667
-0.399122 -0.479245 -0.033333
-0.402816 -0.450813 0.033333
-0.402200 -0.459145 0.016667
-0.401964 -0.463199 0.000000
-0.402002 -0.464291 -0.016667
-0.402105 -0.465389 -0.033333
-0.407902 -0.438685 0.033333
-0.406818 -0.445850 0.016667
-0.405945 -0.449669 0.000000
-0.405440 -0.450819 -0.016667
-0.405190 -0.451752 -0.033333
-0.412091 -0.426761 0.033333
-0.410742 -0.432869 0.016667
-0.409481 -0.436362 0.000000
-0.408623 -0.437508 -0.016667
-0.408139 -0.438306 -0.033333
-0.415506 -0.414992 0.033333
-0.414005 -0.420129 0.016667
-0.412508 -0.423242 0.000000
-0.411426 -0.424336 -0.016667
-0.410789 -0.425016 -0.033333
-0.418212 -0.403342 0.033333
-0.416628 -0.407564 0.016667
-0.414987 -0.410265 0.000000
-0.413765 -0.411275 -0.016667
-0.413034 -0.411847 -0.033333
-0.420247 -0.391767 0.033333
-0.418615 -0.395125 0.016667
-0.416893 -0.397389 0.000000
-0.415591 -0.398291 -0.016667
-0.414802 -0.398759 -0.033333
-0.421620 -0.380248 0.033333
-0.419972 -0.382754 0.016667
-0.418211 -0.384572 0.000000
-0.416868 -0.385348 -0.016667
-0.416052 -0.385710 -0.033333
-0.422351 -0.368711 0.033333
-0.420695 -0.370413 0.016667
-0.418929 -0.371767 0.000000
-0.417581 -0.372402 -0.016667
-0.416759 -0.372661 -0.033333
-0.422430 -0.357184 0.033333
-0.420793 -0.358033 0.016667
-0.419047 -0.358927 0.000000
-0.417723 -0.359417 -0.016667
-0.416918 -0.359561 -0.033333
-0.421874 -0.345534 0.033333
-0.420260 -0.345587 0.016667
-0.418570 -0.346005 0.000000
-0.417302 -0.346340 -0.016667
-0.416534 -0.346371 -0.033333
-0.420663 -0.333807 0.033333
-0.419110 -0.332981 0.016667
-0.417506 -0.332940 0.000000
-0.416340 -0.333134 -0.016667
-0.415639 -0.333032 -0.033333
-0.418804 -0.321870 0.033333
-0.417319 -0.320163 0.016667
-0.415882 -0.319680 0.000000
-0.414876 -0.319738 -0.016667
-0.414273 -0.319500 -0.033333
-0.416142 -0.309674 0.033333
-0.414904 -0.307040 0.016667
-0.413721 -0.306140 0.000000
-0.412968 -0.306113 -0.016667
-0.412525 -0.305720 -0.033333
-0.412707 -0.297202 0.033333
-0.411762 -0.293447 0.016667
-0.411100 -0.292267 0.000000
-0.410729 -0.292223 -0.016667
-0.410485 -0.291617 -0.033333
-0.407833 -0.284059 0.033333
-0.407891 -0.279252 0.016667
-0.408243 -0.278045 0.000000
-0.408281 -0.277967 -0.016667
-0.408344 -0.277238 -0.033333
-0.399846 -0.271454 0.033333
-0.404199 -0.263361 0.016667
-0.405355 -0.264310 0.000000
-0.405982 -0.262564 -0.016667
-0.406095 -0.263310 -0.033333
-0.399092 -0.255343 0.033333
-0.401569 -0.248734 0.016667
-0.403067 -0.248792 0.000000
-0.403770 -0.248054 -0.016667
-0.404090 -0.248011 -0.033333
-0.398339 -0.239232 0.033333
-0.400007 -0.233643 0.016667
-0.401227 -0.233229 0.000000
-0.401876 -0.233041 -0.016667
-0.402247 -0.232741 -0.033333
-0.397585 -0.223120 0.033333
-0.398785 -0.218245 0.016667
-0.399692 -0.217688 0.000000
-0.400288 -0.217675 -0.016667
-0.400574 -0.217431 -0.033333
-0.396831 -0.207009 0.033333
-0.397656 -0.202729 0.016667
-0.398412 -0.202067 0.000000
-0.398873 -0.202170 -0.016667
-0.399127 -0.201971 -0.033333
-0.396078 -0.190897 0.033333
-0.396638 -0.187108 0.016667
-0.397240 -0.186428 0.000000
-0.397639 -0.186547 -0.016667
-0.397820 -0.186418 -0.033333
-0.395324 -0.174786 0.033333
-0.395686 -0.171441 0.016667
-0.396174 -0.170757 0.000000
-0.396518 -0.170856 -0.016667
-0.396637 -0.170788 -0.033333
-0.394570 -0.158675 0.033333
-0.394796 -0.155746 0.016667
-0.395176 -0.155046 0.000000
-0.395481 -0.155145 -0.016667
-0.395555 -0.155082 -0.033333
-0.393816 -0.142563 0.033333
-0.393917 -0.140027 0.016667
-0.394243 -0.139334 0.000000
-0.394498 -0.139388 -0.016667
-0.394547 -0.139356 -0.033333
-0.393063 -0.126452 0.033333
-0.393056 -0.124291 0.016667
-0.393324 -0.123597 0.000000
-0.393571 -0.123631 -0.016667
-0.393575 -0.123589 -0.033333
-0.392309 -0.110340 0.033333
-0.392175 -0.108523 0.016667
-0.392449 -0.107855 0.000000
-0.392653 -0.107859 -0.016667
-0.392652 -0.107809 -0.033333
-0.391556 -0.094229 0.033333
-0.391313 -0.092715 0.016667
-0.391579 -0.092111 0.000000
-0.391759 -0.092077 -0.016667
-0.391744 -0.092019 -0.033333
-0.390802 -0.078118 0.033333
-0.390459 -0.076886 0.016667
-0.390722 -0.076355 0.000000
-0.390873 -0.076294 -0.016667
-0.390847 -0.076218 -0.033333
-0.390048 -0.062006 0.033333
-0.389621 -0.061031 0.016667
-0.389867 -0.060591 0.000000
-0.389991 -0.060507 -0.016667
-0.389952 -0.060413 -0.033333
-0.389295 -0.045895 0.033333
-0.388792 -0.045156 0.016667
-0.389013 -0.044821 0.000000
-0.389104 -0.044719 -0.016667
-0.389049 -0.044604 -0.033333
-0.388541 -0.029783 0.033333
-0.387975 -0.029260 0.016667
-0.388147 -0.029046 0.000000
-0.388201 -0.028935 -0.016667
-0.388128 -0.028793 -0.033333
-0.387787 -0.013672 0.033333
-0.387147 -0.013345 0.016667
-0.387255 -0.013277 0.000000
-0.387263 -0.013151 -0.016667
-0.387177 -0.012988 -0.033333
-0.387034 0.002439 0.033333
-0.386285 0.002584 0.016667
-0.386295 0.002481 0.000000
-0.386267 0.002622 -0.016667
-0.386186 0.002811 -0.033333
-0.386280 0.018551 0.033333
-0.385281 0.018531 0.016667
-0.385191 0.018192 0.000000
-0.385191 0.018398 -0.016667
-0.385148 0.018582 -0.033333
-0.385527 0.034662 0.033333
-0.383700 0.034432 0.016667
-0.383903 0.033827 0.000000
-0.384037 0.034185 -0.016667
-0.384089 0.034298 -0.033333
-0.380855 0.050575 0.033333
-0.381776 0.050042 0.016667
-0.382494 0.049538 0.000000
-0.382868 0.049828 -0.016667
-0.383040 0.050105 -0.033333
-0.378331 0.066302 0.033333
-0.379903 0.065539 0.016667
-0.381179 0.065169 0.000000
-0.381775 0.065492 -0.016667
-0.382060 0.065847 -0.033333
-0.376915 0.081909 0.033333
-0.378735 0.081084 0.016667
-0.380123 0.080732 0.000000
-0.380857 0.081161 -0.016667
-0.381202 0.081563 -0.033333
-0.376502 0.097712 0.033333
-0.378075 0.096642 0.016667
-0.379440 0.096298 0.000000
-0.380149 0.096823 -0.016667
-0.380498 0.097261 -0.033333
-0.376473 0.113775 0.033333
-0.377942 0.112238 0.016667
-0.379035 0.111863 0.000000
-0.379666 0.112492 -0.016667
-0.379958 0.112936 -0.033333
-0.377081 0.129863 0.033333
-0.378075 0.127947 0.016667
-0.378910 0.127408 0.000000
-0.379346 0.128173 -0.016667
-0.379555 0.128584 -0.033333
-0.377964 0.146515 0.033333
-0.378497 0.143541 0.016667
-0.378886 0.143004 0.000000
-0.379147 0.143847 -0.016667
-0.379239 0.144192 -0.033333
-0.379498 0.163550 0.033333
-0.378782 0.158758 0.016667
-0.378859 0.158969 0.000000
-0.378963 0.159159 -0.016667
-0.378998 0.160105 -0.033333
-0.378744 0.179662 0.033333
-0.378675 0.174614 0.016667
-0.378722 0.174351 0.000000
-0.378774 0.174943 -0.016667
-0.378747 0.175536 -0.033333
-0.377990 0.195773 0.033333
-0.378249 0.190266 0.016667
-0.378472 0.189836 0.000000
-0.378522 0.190565 -0.016667
-0.378525 0.191053 -0.033333
-0.377236 0.211884 0.033333
-0.377755 0.205808 0.016667
-0.378142 0.205326 0.000000
-0.378274 0.206098 -0.016667
-0.378280 0.206561 -0.033333
-0.376482 0.227996 0.033333
-0.377308 0.221130 0.016667
-0.377839 0.220857 0.000000
-0.378016 0.221527 -0.016667
-0.378076 0.222035 -0.033333
-0.375729 0.244107 0.033333
-0.376940 0.236313 0.016667
-0.377578 0.236426 0.000000
-0.377834 0.236766 -0.016667
-0.377858 0.237561 -0.033333
-0.374975 0.260219 0.033333
-0.376876 0.250978 0.016667
-0.377431 0.252219 0.000000
-0.377671 0.251595 -0.016667
-0.377689 0.253320 -0.033333
-0.376309 0.273256 0.033333
-0.376994 0.267435 0.016667
-0.377450 0.266300 0.000000
-0.377512 0.267598 -0.016667
-0.377493 0.267871 -0.033333
-0.377015 0.287287 0.033333
-0.377237 0.282275 0.016667
-0.377428 0.281249 0.000000
-0.377318 0.282650 -0.016667
-0.377218 0.283110 -0.033333
-0.377195 0.300859 0.033333
-0.377356 0.296940 0.016667
-0.377219 0.296069 0.000000
-0.376986 0.297607 -0.016667
-0.376816 0.298322 -0.033333
-0.377171 0.314637 0.033333
-0.376998 0.311348 0.016667
-0.376766 0.310854 0.000000
-0.376427 0.312557 -0.016667
-0.376193 0.313443 -0.033333
-0.376452 0.328415 0.033333
-0.376283 0.325755 0.016667
-0.375925 0.325577 0.000000
-0.375570 0.327548 -0.016667
-0.375352 0.328553 -0.033333
-0.375238 0.342306 0.033333
-0.374987 0.340171 0.016667
-0.374683 0.340347 0.000000
-0.374400 0.342607 -0.016667
-0.374254 0.343695 -0.033333
-0.373288 0.356404 0.033333
-0.373138 0.354685 0.016667
-0.372973 0.355181 0.000000
-0.372920 0.357799 -0.016667
-0.372979 0.358894 -0.033333
-0.370617 0.370751 0.033333
-0.370585 0.369352 0.016667
-0.370770 0.370142 0.000000
-0.371191 0.373171 -0.016667
-0.371646 0.374167 -0.033333
-0.367177 0.385452 0.033333
-0.367114 0.384243 0.016667
-0.367976 0.385248 0.000000
-0.369316 0.388806 -0.016667
-0.370586 0.389462 -0.033333
-0.361174 -0.488756 0.033333
-0.366383 -0.502760 0.016667
-0.371349 -0.505170 0.000000
-0.374497 -0.506372 -0.016667
-0.376317 -0.507566 -0.033333
-0.370604 -0.476031 0.033333
-0.372339 -0.487436 0.016667
-0.374803 -0.491317 0.000000
-0.376662 -0.492088 -0.016667
-0.377870 -0.493632 -0.033333
-0.377637 -0.463379 0.033333
-0.377921 -0.473173 0.016667
-0.378760 -0.477318 0.000000
-0.379602 -0.478271 -0.016667
-0.380199 -0.479582 -0.033333
-0.383283 -0.451009 0.033333
-0.382811 -0.459466 0.016667
-0.382697 -0.463544 0.000000
-0.382806 -0.464636 -0.016667
-0.382944 -0.465736 -0.033333
-0.387926 -0.438882 0.033333
-0.387040 -0.446162 0.016667
-0.386355 -0.450012 0.000000
-0.385976 -0.451165 -0.016667
-0.385796 -0.452101 -0.033333
-0.391765 -0.426948 0.033333
-0.390650 -0.433165 0.016667
-0.389622 -0.436696 0.000000
-0.388927 -0.437848 -0.016667
-0.388536 -0.438651 -0.033333
-0.394913 -0.415168 0.033333
-0.393671 -0.420400 0.016667
-0.392436 -0.423556 0.000000
-0.391544 -0.424663 -0.016667
-0.391018 -0.425351 -0.033333
-0.397426 -0.403497 0.033333
-0.396117 -0.407808 0.016667
-0.394764 -0.410554 0.000000
-0.393752 -0.411581 -0.016667
-0.393142 -0.412164 -0.033333
-0.399331 -0.391911 0.033333
-0.397996 -0.395332 0.016667
-0.396582 -0.397646 0.000000
-0.395503 -0.398570 -0.016667
-0.394847 -0.399050 -0.033333
-0.400649 -0.380358 0.033333
-0.399308 -0.382932 0.016667
-0.397874 -0.384791 0.000000
-0.396768 -0.385592 -0.016667
-0.396091 -0.385971 -0.033333
-0.401379 -0.368843 0.033333
-0.400057 -0.370549 0.016667
-0.398632 -0.371945 0.000000
-0.397531 -0.372611 -0.016667
-0.396854 -0.372882 -0.033333
-0.401543 -0.357276 0.033333
-0.400243 -0.358159 0.016667
-0.398858 -0.359068 0.000000
-0.397789 -0.359581 -0.016667
-0.397131 -0.359745 -0.033333
-0.401139 -0.345706 0.033333
-0.399885 -0.345687 0.016667
-0.398559 -0.346108 0.000000
-0.397550 -0.346468 -0.016667
-0.396931 -0.346508 -0.033333
-0.400205 -0.334007 0.033333
-0.398987 -0.333109 0.016667
-0.397757 -0.333022 0.000000
-0.396837 -0.333216 -0.016667
-0.396276 -0.333131 -0.033333
-0.398713 -0.322188 0.033333
-0.397595 -0.320328 0.016667
-0.396468 -0.319737 0.000000
-0.395688 -0.319796 -0.016667
-0.395217 -0.319550 -0.033333
-0.396749 -0.310107 0.033333
-0.395652 -0.307237 0.016667
-0.394750 -0.306211 0.000000
-0.394165 -0.306140 -0.016667
-0.393801 -0.305727 -0.033333
-0.393872 -0.297608 0.033333
-0.393243 -0.293756 0.016667
-0.392637 -0.292333 0.000000
-0.392345 -0.292211 -0.016667
-0.392152 -0.291621 -0.033333
-0.390329 -0.284984 0.033333
-0.390101 -0.279551 0.016667
-0.390362 -0.278090 0.000000
-0.390325 -0.278002 -0.016667
-0.390394 -0.277141 -0.033333
-0.383735 -0.272208 0.033333
-0.387247 -0.263595 0.016667
-0.387917 -0.264486 0.000000
-0.388502 -0.262451 -0.016667
-0.388438 -0.263330 -0.033333
-0.382981 -0.256097 0.033333
-0.384929 -0.249074 0.016667
-0.386104 -0.248821 0.000000
-0.386525 -0.248068 -0.016667
-0.386821 -0.247899 -0.033333
-0.382227 -0.239985 0.033333
-0.383596 -0.233900 0.016667
-0.384414 -0.233341 0.000000
-0.384946 -0.232983 -0.016667
-0.385157 -0.232700 -0.033333
-0.381473 -0.223874 0.033333
-0.382363 -0.218521 0.016667
-0.383080 -0.217761 0.000000
-0.383474 -0.217673 -0.016667
-0.383723 -0.217351 -0.033333
-0.380720 -0.207762 0.033333
-0.381261 -0.203014 0.016667
-0.381845 -0.202178 0.000000
-0.382217 -0.202166 -0.016667
-0.382380 -0.201914 -0.033333
-0.379966 -0.191651 0.033333
-0.380223 -0.187452 0.016667
-0.380757 -0.186554 0.000000
-0.381051 -0.186559 -0.016667
-0.381181 -0.186374 -0.033333
-0.379212 -0.175540 0.033333
-0.379274 -0.171820 0.016667
-0.379732 -0.170895 0.000000
-0.379986 -0.170898 -0.016667
-0.380073 -0.170746 -0.033333
-0.378459 -0.159428 0.033333
-0.378354 -0.156145 0.016667
-0.378777 -0.155220 0.000000
-0.378983 -0.155186 -0.016667
-0.379040 -0.155072 -0.033333
-0.377705 -0.143317 0.033333
-0.377473 -0.140436 0.016667
-0.377852 -0.139518 0.000000
-0.378034 -0.139457 -0.016667
-0.378059 -0.139349 -0.033333
-0.376951 -0.127205 0.033333
-0.376595 -0.124699 0.016667
-0.376964 -0.123809 0.000000
-0.377112 -0.123705 -0.016667
-0.377121 -0.123606 -0.033333
-0.376198 -0.111094 0.033333
-0.375738 -0.108935 0.016667
-0.376085 -0.108083 0.000000
-0.376219 -0.107948 -0.016667
-0.376205 -0.107839 -0.033333
-0.375444 -0.094983 0.033333
-0.374881 -0.093146 0.016667
-0.375228 -0.092349 0.000000
-0.375334 -0.092183 -0.016667
-0.375308 -0.092063 -0.033333
-0.374690 -0.078871 0.033333
-0.374043 -0.077331 0.016667
-0.374374 -0.076609 0.000000
-0.374459 -0.076414 -0.016667
-0.374417 -0.076278 -0.033333
-0.373937 -0.062760 0.033333
-0.373213 -0.061499 0.016667
-0.373527 -0.060861 0.000000
-0.373584 -0.060645 -0.016667
-0.373527 -0.060489 -0.033333
-0.373183 -0.046648 0.033333
-0.372401 -0.045649 0.016667
-0.372675 -0.045109 0.000000
-0.372702 -0.044877 -0.016667
-0.372626 -0.044696 -0.033333
-0.372430 -0.030537 0.033333
-0.371591 -0.029782 0.016667
-0.371815 -0.029358 0.000000
-0.371798 -0.029108 -0.016667
-0.371706 -0.028906 -0.033333
-0.371676 -0.014426 0.033333
-0.370786 -0.013899 0.016667
-0.370919 -0.013605 0.000000
-0.370861 -0.013348 -0.016667
-0.370751 -0.013112 -0.033333
-0.370922 0.001686 0.033333
-0.369932 0.002011 0.016667
-0.369955 0.002124 0.000000
-0.369857 0.002418 -0.016667
-0.369752 0.002666 -0.033333
-0.370169 0.017797 0.033333
-0.368940 0.017936 0.016667
-0.368828 0.017829 0.000000
-0.368761 0.018176 -0.016667
-0.368713 0.018435 -0.033333
-0.369415 0.033909 0.033333
-0.367279 0.033855 0.016667
-0.367491 0.033439 0.000000
-0.367598 0.033979 -0.016667
-0.367628 0.034142 -0.033333
-0.364106 0.049868 0.033333
-0.365227 0.049398 0.016667
-0.366043 0.049196 0.000000
-0.366392 0.049619 -0.016667
-0.366581 0.049966 -0.033333
-0.361389 0.065351 0.033333
-0.363314 0.064995 0.016667
-0.364680 0.064829 0.000000
-0.365290 0.065314 -0.016667
-0.365580 0.065727 -0.033333
-0.360210 0.081131 0.033333
-0.362115 0.080526 0.016667
-0.363642 0.080474 0.000000
-0.364346 0.081002 -0.016667
-0.364707 0.081462 -0.033333
-0.359706 0.096967 0.033333
-0.361613 0.096189 0.016667
-0.362917 0.096074 0.000000
-0.363637 0.096695 -0.016667
-0.363990 0.097181 -0.033333
-0.360132 0.112956 0.033333
-0.361403 0.111885 0.016667
-0.362557 0.111659 0.000000
-0.363130 0.112381 -0.016667
-0.363424 0.112872 -0.033333
-0.360629 0.129379 0.033333
-0.361689 0.127473 0.016667
-0.362375 0.127244 0.000000
-0.362814 0.128057 -0.016667
-0.362989 0.128515 -0.033333
-0.361786 0.145549 0.033333
-0.362092 0.143190 0.016667
-0.362392 0.142768 0.000000
-0.362569 0.143719 -0.016667
-0.362658 0.144123 -0.033333
-0.363386 0.162796 0.033333
-0.362424 0.158319 0.016667
-0.362326 0.158694 0.000000
-0.362393 0.159015 -0.016667
-0.362348 0.159989 -0.033333
-0.362632 0.178908 0.033333
-0.362278 0.174120 0.016667
-0.362206 0.174036 0.000000
-0.362128 0.174746 -0.016667
-0.362095 0.175395 -0.033333
-0.361878 0.195019 0.033333
-0.361794 0.189737 0.016667
-0.361902 0.189450 0.000000
-0.361859 0.190318 -0.016667
-0.361795 0.190873 -0.033333
-0.361125 0.211131 0.033333
-0.361314 0.205159 0.016667
-0.361538 0.204901 0.000000
-0.361539 0.205796 -0.016667
-0.361514 0.206332 -0.033333
-0.360371 0.227242 0.033333
-0.360816 0.220513 0.016667
-0.361173 0.220347 0.000000
-0.361240 0.221179 -0.016667
-0.361212 0.221772 -0.033333
-0.359617 0.243353 0.033333
-0.360407 0.235549 0.016667
-0.360864 0.235913 0.000000
-0.360928 0.236375 -0.016667
-0.360965 0.237245 -0.033333
-0.358863 0.259465 0.033333
-0.360205 0.250388 0.016667
-0.360498 0.251626 0.000000
-0.360740 0.251170 -0.016667
-0.360642 0.253017 -0.033333
-0.359203 0.272801 0.033333
-0.359874 0.266498 0.016667
-0.360431 0.265788 0.000000
-0.360407 0.267176 -0.016667
-0.360408 0.267510 -0.033333
-0.359403 0.286056 0.033333
-0.360049 0.281637 0.016667
-0.360190 0.280651 0.000000
-0.360145 0.282242 -0.016667
-0.360062 0.282810 -0.033333
-0.359850 0.300048 0.033333
-0.359877 0.296178 0.016667
-0.359956 0.295593 0.000000
-0.359752 0.297229 -0.016667
-0.359587 0.298026 -0.033333
-0.359585 0.313851 0.033333
-0.359656 0.310746 0.016667
-0.359446 0.310403 0.000000
-0.359170 0.312253 -0.016667
-0.358980 0.313190 -0.033333
-0.359120 0.327754 0.033333
-0.358935 0.325256 0.016667
-0.358675 0.325248 0.000000
-0.358347 0.327293 -0.016667
-0.358143 0.328360 -0.033333
-0.358006 0.341845 0.033333
-0.357820 0.339818 0.016667
-0.357513 0.340102 0.000000
-0.357250 0.342432 -0.016667
-0.357116 0.343545 -0.033333
-0.356314 0.356103 0.033333
-0.356123 0.354469 0.016667
-0.355960 0.355036 0.000000
-0.355887 0.357683 -0.016667
-0.355924 0.358797 -0.033333
-0.353868 0.370619 0.033333
-0.353822 0.369247 0.016667
-0.353950 0.370069 0.000000
-0.354304 0.373112 -0.016667
-0.354702 0.374108 -0.033333
-0.350734 0.385406 0.033333
-0.350641 0.384222 0.016667
-0.351418 0.385228 0.000000
-0.352594 0.388788 -0.016667
-0.353734 0.389434 -0.033333
-0.343918 -0.488826 0.033333
-0.348617 -0.503020 0.016667
-0.353157 -0.505423 0.000000
-0.356063 -0.506645 -0.016667
-0.357733 -0.507835 -0.033333
-0.352376 -0.476172 0.033333
-0.353977 -0.487716 0.016667
-0.356277 -0.491599 0.000000
-0.358021 -0.492369 -0.016667
-0.359148 -0.493920 -0.033333
-0.358694 -0.463535 0.033333
-0.359023 -0.473450 0.016667
-0.359866 -0.477611 0.000000
-0.360697 -0.478563 -0.016667
-0.361276 -0.479877 -0.033333
-0.363800 -0.451164 0.033333
-0.363462 -0.459735 0.016667
-0.363454 -0.463836 0.000000
-0.363626 -0.464931 -0.016667
-0.363794 -0.466035 -0.033333
-0.368017 -0.439022 0.033333
-0.367317 -0.446413 0.016667
-0.366805 -0.450295 0.000000
-0.366540 -0.451455 -0.016667
-0.366423 -0.452397 -0.033333
-0.371525 -0.427065 0.033333
-0.370628 -0.433387 0.016667
-0.369814 -0.436959 0.000000
-0.369271 -0.438124 -0.016667
-0.368967 -0.438935 -0.033333
-0.374419 -0.415248 0.033333
-0.373420 -0.420584 0.016667
-0.372430 -0.423791 0.000000
-0.371713 -0.424916 -0.016667
-0.371290 -0.425616 -0.033333
-0.376747 -0.403538 0.033333
-0.375703 -0.407942 0.016667
-0.374618 -0.410748 0.000000
-0.373800 -0.411804 -0.016667
-0.373305 -0.412401 -0.033333
-0.378533 -0.391892 0.033333
-0.377481 -0.395412 0.016667
-0.376356 -0.397792 0.000000
-0.375486 -0.398752 -0.016667
-0.374953 -0.399252 -0.033333
-0.379783 -0.380299 0.033333
-0.378753 -0.382941 0.016667
-0.377629 -0.384879 0.000000
-0.376745 -0.385727 -0.016667
-0.376199 -0.386129 -0.033333
-0.380507 -0.368696 0.033333
-0.379516 -0.370498 0.016667
-0.378428 -0.371969 0.000000
-0.377562 -0.372688 -0.016667
-0.377022 -0.372993 -0.033333
-0.380698 -0.357119 0.033333
-0.379776 -0.358023 0.016667
-0.378755 -0.359021 0.000000
-0.377934 -0.359601 -0.016667
-0.377419 -0.359798 -0.033333
-0.380385 -0.345478 0.033333
-0.379538 -0.345505 0.016667
-0.378620 -0.345993 0.000000
-0.377871 -0.346419 -0.016667
-0.377397 -0.346506 -0.033333
-0.379577 -0.333845 0.033333
-0.378844 -0.332878 0.016667
-0.378043 -0.332838 0.000000
-0.377395 -0.333111 -0.016667
-0.376981 -0.333060 -0.033333
-0.378389 -0.322134 0.033333
-0.377710 -0.320123 0.016667
-0.377076 -0.319514 0.000000
-0.376543 -0.319617 -0.016667
-0.376206 -0.319431 -0.033333
-0.376806 -0.310356 0.033333
-0.376282 -0.307149 0.016667
-0.375732 -0.305927 0.000000
-0.375378 -0.305929 -0.016667
-0.375138 -0.305537 -0.033333
-0.375224 -0.298210 0.033333
-0.374410 -0.293725 0.016667
-0.374153 -0.292070 0.000000
-0.373974 -0.291960 -0.016667
-0.373818 -0.291362 -0.033333
-0.372213 -0.285106 0.033333
-0.372366 -0.279713 0.016667
-0.372352 -0.277846 0.000000
-0.372408 -0.277637 -0.016667
-0.372423 -0.276945 -0.033333
-0.367623 -0.272962 0.033333
-0.370068 -0.263743 0.016667
-0.370584 -0.264146 0.000000
-0.370871 -0.262208 -0.016667
-0.370882 -0.262961 -0.033333
-0.366870 -0.256850 0.033333
-0.368486 -0.249077 0.016667
-0.368964 -0.248639 0.000000
-0.369364 -0.247678 -0.016667
-0.369429 -0.247672 -0.033333
-0.366116 -0.240739 0.033333
-0.367130 -0.233855 0.016667
-0.367647 -0.233080 0.000000
-0.367894 -0.232712 -0.016667
-0.368123 -0.232366 -0.033333
-0.365362 -0.224628 0.033333
-0.365904 -0.218501 0.016667
-0.366356 -0.217564 0.000000
-0.366679 -0.217383 -0.016667
-0.366794 -0.217057 -0.033333
-0.364608 -0.208516 0.033333
-0.364762 -0.203096 0.016667
-0.365266 -0.202010 0.000000
-0.365500 -0.201890 -0.016667
-0.365621 -0.201634 -0.033333
-0.363855 -0.192405 0.033333
-0.363760 -0.187573 0.016667
-0.364229 -0.186412 0.000000
-0.364426 -0.186312 -0.016667
-0.364513 -0.186099 -0.033333
-0.363101 -0.176293 0.033333
-0.362789 -0.171981 0.016667
-0.363272 -0.170786 0.000000
-0.363410 -0.170661 -0.016667
-0.363479 -0.170497 -0.033333
-0.362347 -0.160182 0.033333
-0.361876 -0.156332 0.016667
-0.362345 -0.155125 0.000000
-0.362449 -0.154977 -0.016667
-0.362496 -0.154831 -0.033333
-0.361594 -0.144071 0.033333
-0.360976 -0.140644 0.016667
-0.361456 -0.139450 0.000000
-0.361521 -0.139260 -0.016667
-0.361553 -0.139130 -0.033333
-0.360840 -0.127959 0.033333
-0.360106 -0.124923 0.016667
-0.360579 -0.123755 0.000000
-0.360621 -0.123532 -0.016667
-0.360636 -0.123398 -0.033333
-0.360086 -0.111848 0.033333
-0.359240 -0.109177 0.016667
-0.359722 -0.108052 0.000000
-0.359736 -0.107790 -0.016667
-0.359740 -0.107651 -0.033333
-0.359333 -0.095736 0.033333
-0.358394 -0.093407 0.016667
-0.358869 -0.092338 0.000000
-0.358863 -0.092044 -0.016667
-0.358853 -0.091890 -0.033333
-0.358579 -0.079625 0.033333
-0.357556 -0.077620 0.016667
-0.358027 -0.076619 0.000000
-0.357993 -0.076296 -0.016667
-0.357971 -0.076124 -0.033333
-0.357825 -0.063513 0.033333
-0.356737 -0.061816 0.016667
-0.357182 -0.060896 0.000000
-0.357123 -0.060549 -0.016667
-0.357084 -0.060353 -0.033333
-0.357072 -0.047402 0.033333
-0.355926 -0.046001 0.016667
-0.356338 -0.045173 0.000000
-0.356240 -0.044802 -0.016667
-0.356188 -0.044582 -0.033333
-0.356318 -0.031291 0.033333
-0.355134 -0.030175 0.016667
-0.355474 -0.029448 0.000000
-0.355342 -0.029063 -0.016667
-0.355266 -0.028807 -0.033333
-0.355565 -0.015179 0.033333
-0.354334 -0.014334 0.016667
-0.354584 -0.013734 0.000000
-0.354398 -0.013318 -0.016667
-0.354314 -0.013041 -0.033333
-0.354811 0.000932 0.033333
-0.353519 0.001523 0.016667
-0.353608 0.001982 0.000000
-0.353395 0.002411 -0.016667
-0.353312 0.002739 -0.033333
-0.354057 0.017044 0.033333
-0.352543 0.017432 0.016667
-0.352460 0.017644 0.000000
-0.352304 0.018181 -0.016667
-0.352259 0.018479 -0.033333
-0.353304 0.033155 0.033333
-0.350831 0.033308 0.016667
-0.351107 0.033282 0.000000
-0.351116 0.033964 -0.016667
-0.351195 0.034204 -0.033333
-0.347246 0.048857 0.033333
-0.348700 0.048983 0.016667
-0.349605 0.049015 0.000000
-0.349938 0.049656 -0.016667
-0.350115 0.050027 -0.033333
-0.344587 0.064700 0.033333
-0.346731 0.064499 0.016667
-0.348279 0.064804 0.000000
-0.348799 0.065352 -0.016667
-0.349125 0.065822 -0.033333
-0.343395 0.080407 0.033333
-0.345743 0.080328 0.016667
-0.347172 0.080479 0.000000
-0.347871 0.081100 -0.016667
-0.348235 0.081584 -0.033333
-0.343398 0.096630 0.033333
-0.345122 0.096105 0.016667
-0.346497 0.096177 0.000000
-0.347133 0.096828 -0.016667
-0.347489 0.097327 -0.033333
-0.343374 0.112814 0.033333
-0.345075 0.111858 0.016667
-0.346043 0.111827 0.000000
-0.346616 0.112535 -0.016667
-0.346897 0.113034 -0.033333
-0.344447 0.128690 0.033333
-0.345108 0.127610 0.016667
-0.345902 0.127367 0.000000
-0.346237 0.128225 -0.016667
-0.346428 0.128688 -0.033333
-0.345427 0.145457 0.033333
-0.345680 0.142953 0.016667
-0.345774 0.142934 0.000000
-0.346012 0.143851 -0.016667
-0.346013 0.144279 -0.033333
-0.347275 0.162043 0.033333
-0.345939 0.158177 0.016667
-0.345815 0.158689 0.000000
-0.345687 0.159149 -0.016667
-0.345733 0.160097 -0.033333
-0.346521 0.178154 0.033333
-0.345791 0.173859 0.016667
-0.345588 0.173972 0.000000
-0.345449 0.174792 -0.016667
-0.345360 0.175480 -0.033333
-0.345767 0.194265 0.033333
-0.345247 0.189350 0.016667
-0.345262 0.189288 0.000000
-0.345097 0.190305 -0.016667
-0.345037 0.190893 -0.033333
-0.345013 0.210377 0.033333
-0.344668 0.204658 0.016667
-0.344869 0.204621 0.000000
-0.344728 0.205703 -0.016667
-0.344683 0.206306 -0.033333
-0.344260 0.226488 0.033333
-0.344303 0.219773 0.016667
-0.344454 0.220023 0.000000
-0.344358 0.220988 -0.016667
-0.344339 0.221697 -0.033333
-0.343506 0.242599 0.033333
-0.343865 0.234965 0.016667
-0.344049 0.235417 0.000000
-0.344031 0.236152 -0.016667
-0.343961 0.237113 -0.033333
-0.342752 0.258711 0.033333
-0.343342 0.249411 0.016667
-0.343705 0.251219 0.000000
-0.343629 0.250853 -0.016667
-0.343699 0.252837 -0.033333
-0.341693 0.271033 0.033333
-0.342986 0.266105 0.016667
-0.343301 0.265140 0.000000
-0.343362 0.266876 -0.016667
-0.343295 0.267351 -0.033333
-0.342375 0.285426 0.033333
-0.342562 0.280695 0.016667
-0.343104 0.280223 0.000000
-0.342992 0.281919 -0.016667
-0.342891 0.282616 -0.033333
-0.342163 0.299035 0.033333
-0.342702 0.295467 0.016667
-0.342713 0.295102 0.000000
-0.342560 0.296991 -0.016667
-0.342431 0.297839 -0.033333
-0.342373 0.312904 0.033333
-0.342363 0.310112 0.016667
-0.342275 0.310066 0.000000
-0.341976 0.312014 -0.016667
-0.341787 0.313067 -0.033333
-0.341963 0.327096 0.033333
-0.341838 0.324795 0.016667
-0.341511 0.324976 0.000000
-0.341193 0.327141 -0.016667
-0.340989 0.328242 -0.033333
-0.341083 0.341399 0.033333
-0.340785 0.339525 0.016667
-0.340456 0.339931 0.000000
-0.340163 0.342320 -0.016667
-0.340013 0.343477 -0.033333
-0.339499 0.355882 0.033333
-0.339263 0.354300 0.016667
-0.339021 0.354933 0.000000
-0.338904 0.357625 -0.016667
-0.338910 0.358752 -0.033333
-0.337271 0.370506 0.033333
-0.337141 0.369176 0.016667
-0.337193 0.370026 0.000000
-0.337456 0.373086 -0.016667
-0.337784 0.374093 -0.033333
-0.334359 0.385390 0.033333
-0.334227 0.384204 0.016667
-0.334892 0.385214 0.000000
-0.335896 0.388792 -0.016667
-0.336907 0.389433 -0.033333
-0.326621 -0.488876 0.033333
-0.330819 -0.503228 0.016667
-0.334952 -0.505642 0.000000
-0.337614 -0.506886 -0.016667
-0.339137 -0.508074 -0.033333
-0.334138 -0.476273 0.033333
-0.335624 -0.487943 0.016667
-0.337751 -0.491842 0.000000
-0.339375 -0.492614 -0.016667
-0.340421 -0.494173 -0.033333
-0.339783 -0.463660 0.033333
-0.340154 -0.473685 0.016667
-0.340988 -0.477862 0.000000
-0.341799 -0.478814 -0.016667
-0.342356 -0.480135 -0.033333
-0.344369 -0.451281 0.033333
-0.344156 -0.459957 0.016667
-0.344241 -0.464083 0.000000
-0.344466 -0.465182 -0.016667
-0.344659 -0.466291 -0.033333
-0.348185 -0.439117 0.033333
-0.347656 -0.446611 0.016667
-0.347298 -0.450527 0.000000
-0.347137 -0.451696 -0.016667
-0.347077 -0.452644 -0.033333
-0.351383 -0.427122 0.033333
-0.350686 -0.433548 0.016667
-0.350067 -0.437165 0.000000
-0.349660 -0.438346 -0.016667
-0.349436 -0.439166 -0.033333
-0.354047 -0.415256 0.033333
-0.353267 -0.420694 0.016667
-0.352499 -0.423959 0.000000
-0.351942 -0.425109 -0.016667
-0.351613 -0.425822 -0.033333
-0.356214 -0.403476 0.033333
-0.355407 -0.407991 0.016667
-0.354563 -0.410867 0.000000
-0.353921 -0.411957 -0.016667
-0.353530 -0.412573 -0.033333
-0.357899 -0.391757 0.033333
-0.357104 -0.395381 0.016667
-0.356237 -0.397848 0.000000
-0.355555 -0.398857 -0.016667
-0.355134 -0.399381 -0.033333
-0.359107 -0.380047 0.033333
-0.358353 -0.382823 0.016667
-0.357505 -0.384861 0.000000
-0.356820 -0.385771 -0.016667
-0.356391 -0.386208 -0.033333
-0.359827 -0.368351 0.033333
-0.359150 -0.370259 0.016667
-0.358359 -0.371863 0.000000
-0.357701 -0.372664 -0.016667
-0.357283 -0.373010 -0.033333
-0.360060 -0.356591 0.033333
-0.359488 -0.357666 0.016667
-0.358797 -0.358812 0.000000
-0.358195 -0.359494 -0.016667
-0.357805 -0.359750 -0.033333
-0.359783 -0.344824 0.033333
-0.359374 -0.344977 0.016667
-0.358825 -0.345668 0.000000
-0.358309 -0.346227 -0.016667
-0.357965 -0.346379 -0.033333
-0.359029 -0.332973 0.033333
-0.358812 -0.332197 0.016667
-0.358471 -0.332387 0.000000
-0.358065 -0.332816 -0.016667
-0.357781 -0.332864 -0.033333
-0.357783 -0.321181 0.033333
-0.357888 -0.319265 0.016667
-0.357768 -0.318926 0.000000
-0.357502 -0.319238 -0.016667
-0.357291 -0.319139 -0.033333
-0.356328 -0.309476 0.033333
-0.356618 -0.306212 0.016667
-0.356831 -0.305242 0.000000
-0.356664 -0.305423 -0.016667
-0.356535 -0.305201 -0.033333
-0.354786 -0.298198 0.033333
-0.355449 -0.292979 0.016667
-0.355640 -0.291187 0.000000
-0.355635 -0.291436 -0.016667
-0.355596 -0.290911 -0.033333
-0.354517 -0.286939 0.033333
-0.353857 -0.279076 0.016667
-0.354535 -0.276898 0.000000
-0.354455 -0.277088 -0.016667
-0.354473 -0.276389 -0.033333
-0.351512 -0.273715 0.033333
-0.353521 -0.263316 0.016667
-0.352738 -0.263324 0.000000
-0.353490 -0.261413 -0.016667
-0.353132 -0.262627 -0.033333
-0.350758 -0.257604 0.033333
-0.351968 -0.248273 0.016667
-0.351938 -0.247814 0.000000
-0.351983 -0.247094 -0.016667
-0.352193 -0.247067 -0.033333
-0.350004 -0.241493 0.033333
-0.350552 -0.233185 0.016667
-0.350642 -0.232360 0.000000
-0.350959 -0.232068 -0.016667
-0.350929 -0.231842 -0.033333
-0.349251 -0.225381 0.033333
-0.349248 -0.218051 0.016667
-0.349616 -0.216910 0.000000
-0.349802 -0.216731 -0.016667
-0.349874 -0.216558 -0.033333
-0.348497 -0.209270 0.033333
-0.348196 -0.202706 0.016667
-0.348613 -0.201381 0.000000
-0.348742 -0.201282 -0.016667
-0.348831 -0.201125 -0.033333
-0.347743 -0.193158 0.033333
-0.347171 -0.187236 0.016667
-0.347692 -0.185820 0.000000
-0.347726 -0.185717 -0.016667
-0.347839 -0.185617 -0.033333
-0.346989 -0.177047 0.033333
-0.346221 -0.171685 0.016667
-0.346790 -0.170210 0.000000
-0.346761 -0.170099 -0.016667
-0.346885 -0.170021 -0.033333
-0.346236 -0.160936 0.033333
-0.345285 -0.156076 0.016667
-0.345920 -0.154580 0.000000
-0.345829 -0.154432 -0.016667
-0.345961 -0.154376 -0.033333
-0.345482 -0.144824 0.033333
-0.344390 -0.140425 0.016667
-0.345060 -0.138925 0.000000
-0.344923 -0.138741 -0.016667
-0.345060 -0.138686 -0.033333
-0.344728 -0.128713 0.033333
-0.343504 -0.124739 0.016667
-0.344215 -0.123260 0.000000
-0.344034 -0.123030 -0.016667
-0.344175 -0.122972 -0.033333
-0.343975 -0.112601 0.033333
-0.342641 -0.109026 0.016667
-0.343373 -0.107582 0.000000
-0.343157 -0.107312 -0.016667
-0.343299 -0.107239 -0.033333
-0.343221 -0.096490 0.033333
-0.341786 -0.093293 0.016667
-0.342538 -0.091899 0.000000
-0.342286 -0.091587 -0.016667
-0.342428 -0.091496 -0.033333
-0.342468 -0.080379 0.033333
-0.340952 -0.077546 0.016667
-0.341701 -0.076212 0.000000
-0.341419 -0.075863 -0.016667
-0.341554 -0.075746 -0.033333
-0.341714 -0.064267 0.033333
-0.340127 -0.061790 0.016667
-0.340865 -0.060526 0.000000
-0.340545 -0.060140 -0.016667
-0.340675 -0.059994 -0.033333
-0.340960 -0.048156 0.033333
-0.339323 -0.046028 0.016667
-0.340018 -0.044840 0.000000
-0.339666 -0.044423 -0.016667
-0.339777 -0.044240 -0.033333
-0.340207 -0.032044 0.033333
-0.338527 -0.030265 0.016667
-0.339159 -0.029164 0.000000
-0.338760 -0.028707 -0.016667
-0.338862 -0.028491 -0.033333
-0.339453 -0.015933 0.033333
-0.337749 -0.014501 0.016667
-0.338254 -0.013487 0.000000
-0.337827 -0.013005 -0.016667
-0.337902 -0.012729 -0.033333
-0.338699 0.000179 0.033333
-0.336944 0.001275 0.016667
-0.337280 0.002161 0.000000
-0.336822 0.002724 -0.016667
-0.336908 0.003010 -0.033333
-0.337946 0.016290 0.033333
-0.336046 0.017068 0.016667
-0.336115 0.017836 0.000000
-0.335745 0.018424 -0.016667
-0.335859 0.018797 -0.033333
-0.337192 0.032401 0.033333
-0.334367 0.032996 0.016667
-0.334694 0.033388 0.000000
-0.334654 0.034287 -0.016667
-0.334728 0.034464 -0.033333
-0.330177 0.048416 0.033333
-0.332173 0.048504 0.016667
-0.333315 0.049338 0.000000
-0.333414 0.049917 -0.016667
-0.333715 0.050350 -0.033333
-0.327649 0.063638 0.033333
-0.330570 0.064618 0.016667
-0.331856 0.065087 0.000000
-0.332368 0.065707 -0.016667
-0.332681 0.066149 -0.033333
-0.327501 0.080342 0.033333
-0.329407 0.080587 0.016667
-0.330850 0.080939 0.000000
-0.331415 0.081479 -0.016667
-0.331774 0.081949 -0.033333
-0.327071 0.097151 0.033333
-0.328978 0.096646 0.016667
-0.330082 0.096712 0.000000
-0.330671 0.097271 -0.016667
-0.331010 0.097705 -0.033333
-0.327220 0.113697 0.033333
-0.328637 0.112599 0.016667
-0.329643 0.112413 0.000000
-0.330086 0.113020 -0.016667
-0.330378 0.113426 -0.033333
-0.327089 0.129609 0.033333
-0.328758 0.128224 0.016667
-0.329311 0.128056 0.000000
-0.329680 0.128677 -0.016667
-0.329850 0.129108 -0.033333
-0.328879 0.144202 0.033333
-0.328796 0.143834 0.016667
-0.329273 0.143463 0.000000
-0.329307 0.144326 -0.016667
-0.329414 0.144677 -0.033333
-0.331163 0.161289 0.033333
-0.329420 0.158505 0.016667
-0.329042 0.159210 0.000000
-0.329032 0.159583 -0.016667
-0.328981 0.160437 -0.033333
-0.330409 0.177400 0.033333
-0.329080 0.174077 0.016667
-0.328911 0.174249 0.000000
-0.328601 0.175230 -0.016667
-0.328648 0.175740 -0.033333
-0.329656 0.193511 0.033333
-0.328392 0.189277 0.016667
-0.328549 0.189495 0.000000
-0.328184 0.190578 -0.016667
-0.328256 0.191178 -0.033333
-0.328902 0.209623 0.033333
-0.327849 0.204311 0.016667
-0.328056 0.204697 0.000000
-0.327784 0.205882 -0.016667
-0.327822 0.206527 -0.033333
-0.328148 0.225734 0.033333
-0.327367 0.219207 0.016667
-0.327631 0.219845 0.000000
-0.327357 0.221123 -0.016667
-0.327400 0.221826 -0.033333
-0.327394 0.241846 0.033333
-0.327335 0.233867 0.016667
-0.327179 0.235240 0.000000
-0.326945 0.236092 -0.016667
-0.327010 0.237252 -0.033333
-0.326640 0.257957 0.033333
-0.326895 0.249157 0.016667
-0.326548 0.250507 0.000000
-0.326654 0.250891 -0.016667
-0.326548 0.252864 -0.033333
-0.324252 0.271896 0.033333
-0.325360 0.264485 0.016667
-0.326466 0.264917 0.000000
-0.326217 0.266691 -0.016667
-0.326170 0.267376 -0.033333
-0.323999 0.283759 0.033333
-0.325673 0.279806 0.016667
-0.325935 0.279708 0.000000
-0.325847 0.281884 -0.016667
-0.325790 0.282562 -0.033333
-0.325125 0.297433 0.033333
-0.325478 0.294661 0.016667
-0.325676 0.294865 0.000000
-0.325393 0.296825 -0.016667
-0.325254 0.297895 -0.033333
-0.325426 0.311972 0.033333
-0.325452 0.309568 0.016667
-0.325146 0.309848 0.000000
-0.324843 0.311973 -0.016667
-0.324619 0.313040 -0.033333
-0.325287 0.326542 0.033333
-0.324880 0.324508 0.016667
-0.324463 0.324859 0.000000
-0.324074 0.327098 -0.016667
-0.323849 0.328265 -0.033333
-0.324336 0.341190 0.033333
-0.323926 0.339372 0.016667
-0.323451 0.339867 0.000000
-0.323111 0.342320 -0.016667
-0.322932 0.343491 -0.033333
-0.322847 0.355766 0.033333
-0.322468 0.354245 0.016667
-0.322137 0.354913 0.000000
-0.321945 0.357635 -0.016667
-0.321909 0.358786 -0.033333
-0.320738 0.370493 0.033333
-0.320521 0.369153 0.016667
-0.320460 0.370023 0.000000
-0.320623 0.373111 -0.016667
-0.320879 0.374127 -0.033333
-0.318030 0.385379 0.033333
-0.317834 0.384207 0.016667
-0.318379 0.385217 0.000000
-0.319209 0.388822 -0.016667
-0.320083 0.389468 -0.033333
-0.309290 -0.488917 0.033333
-0.312998 -0.503407 0.016667
-0.316735 -0.505827 0.000000
-0.319153 -0.507098 -0.016667
-0.320532 -0.508283 -0.033333
-0.315890 -0.476358 0.033333
-0.317266 -0.488129 0.016667
-0.319227 -0.492050 0.000000
-0.320727 -0.492827 -0.016667
-0.321692 -0.494395 -0.033333
-0.320893 -0.463757 0.033333
-0.321305 -0.473875 0.016667
-0.322126 -0.478076 0.000000
-0.322910 -0.479031 -0.016667
-0.323445 -0.480359 -0.033333
-0.324992 -0.451373 0.033333
-0.324892 -0.460141 0.016667
-0.325057 -0.464291 0.000000
-0.325328 -0.465396 -0.016667
-0.325542 -0.466510 -0.033333
-0.328431 -0.439183 0.033333
-0.328056 -0.446769 0.016667
-0.327837 -0.450719 0.000000
-0.327769 -0.451898 -0.016667
-0.327761 -0.452852 -0.033333
-0.331347 -0.427147 0.033333
-0.330827 -0.433666 0.016667
-0.330381 -0.437328 0.000000
-0.330099 -0.438526 -0.016667
-0.329946 -0.439356 -0.033333
-0.333807 -0.415220 0.033333
-0.333221 -0.420759 0.016667
-0.332647 -0.424081 0.000000
-0.332234 -0.425257 -0.016667
-0.331990 -0.425984 -0.033333
-0.335846 -0.403367 0.033333
-0.335241 -0.407985 0.016667
-0.334606 -0.410935 0.000000
-0.334120 -0.412063 -0.016667
-0.333822 -0.412698 -0.033333
-0.337469 -0.391537 0.033333
-0.336886 -0.395291 0.016667
-0.336236 -0.397849 0.000000
-0.335718 -0.398908 -0.016667
-0.335394 -0.399461 -0.033333
-0.338676 -0.379716 0.033333
-0.338146 -0.382618 0.016667
-0.337523 -0.384779 0.000000
-0.337004 -0.385759 -0.016667
-0.336674 -0.386231 -0.033333
-0.339456 -0.367825 0.033333
-0.339015 -0.369928 0.016667
-0.338456 -0.371680 0.000000
-0.337965 -0.372572 -0.016667
-0.337646 -0.372970 -0.033333
-0.339785 -0.355883 0.033333
-0.339482 -0.357149 0.016667
-0.339031 -0.358507 0.000000
-0.338595 -0.359314 -0.016667
-0.338304 -0.359634 -0.033333
-0.339652 -0.343770 0.033333
-0.339541 -0.344256 0.016667
-0.339252 -0.345214 0.000000
-0.338901 -0.345939 -0.016667
-0.338652 -0.346185 -0.033333
-0.338996 -0.331532 0.033333
-0.339204 -0.331148 0.016667
-0.339138 -0.331756 0.000000
-0.338898 -0.332416 -0.016667
-0.338706 -0.332574 -0.033333
-0.337860 -0.319013 0.033333
-0.338465 -0.317831 0.016667
-0.338739 -0.318080 0.000000
-0.338620 -0.318697 -0.016667
-0.338490 -0.318780 -0.033333
-0.336027 -0.306396 0.033333
-0.337504 -0.304165 0.016667
-0.338113 -0.304149 0.000000
-0.338110 -0.304790 -0.016667
-0.338052 -0.304711 -0.033333
-0.334374 -0.293644 0.033333
-0.336304 -0.290272 0.016667
-0.337471 -0.289952 0.000000
-0.337393 -0.290584 -0.016667
-0.337421 -0.290452 -0.033333
-0.332454 -0.282362 0.033333
-0.335943 -0.275969 0.016667
-0.336708 -0.275310 0.000000
-0.336452 -0.276346 -0.016667
-0.336758 -0.275705 -0.033333
-0.335400 -0.274469 0.033333
-0.335645 -0.259527 0.016667
-0.335389 -0.261865 0.000000
-0.335815 -0.260664 -0.016667
-0.335658 -0.261767 -0.033333
-0.334647 -0.258358 0.033333
-0.335162 -0.246153 0.016667
-0.334306 -0.246315 0.000000
-0.335059 -0.246078 -0.016667
-0.334559 -0.246498 -0.033333
-0.333893 -0.242246 0.033333
-0.333654 -0.231408 0.016667
-0.333605 -0.231099 0.000000
-0.333930 -0.230955 -0.016667
-0.333783 -0.231303 -0.033333
-0.333139 -0.226135 0.033333
-0.332521 -0.216236 0.016667
-0.332772 -0.215632 0.000000
-0.332888 -0.215758 -0.016667
-0.332934 -0.215906 -0.033333
-0.332386 -0.210024 0.033333
-0.331416 -0.200881 0.016667
-0.331974 -0.200143 0.000000
-0.331872 -0.200337 -0.016667
-0.332083 -0.200485 -0.033333
-0.331632 -0.193912 0.033333
-0.330408 -0.185449 0.016667
-0.331165 -0.184580 0.000000
-0.330898 -0.184833 -0.016667
-0.331233 -0.184952 -0.033333
-0.330878 -0.177801 0.033333
-0.329415 -0.169952 0.016667
-0.330365 -0.168996 0.000000
-0.329953 -0.169245 -0.016667
-0.330387 -0.169360 -0.033333
-0.330125 -0.161689 0.033333
-0.328475 -0.154409 0.016667
-0.329559 -0.153379 0.000000
-0.329031 -0.153617 -0.016667
-0.329547 -0.153710 -0.033333
-0.329371 -0.145578 0.033333
-0.327551 -0.138828 0.016667
-0.328755 -0.137749 0.000000
-0.328127 -0.137953 -0.016667
-0.328707 -0.138026 -0.033333
-0.328617 -0.129466 0.033333
-0.326659 -0.123223 0.016667
-0.327946 -0.122103 0.000000
-0.327235 -0.122271 -0.016667
-0.327868 -0.122314 -0.033333
-0.327864 -0.113355 0.033333
-0.325777 -0.107596 0.016667
-0.327137 -0.106451 0.000000
-0.326351 -0.106577 -0.016667
-0.327027 -0.106589 -0.033333
-0.327110 -0.097244 0.033333
-0.324916 -0.091957 0.016667
-0.326321 -0.090793 0.000000
-0.325472 -0.090879 -0.016667
-0.326180 -0.090852 -0.033333
-0.326356 -0.081132 0.033333
-0.324066 -0.076312 0.016667
-0.325500 -0.075137 0.000000
-0.324593 -0.075180 -0.016667
-0.325324 -0.075112 -0.033333
-0.325603 -0.065021 0.033333
-0.323234 -0.060669 0.016667
-0.324667 -0.059483 0.000000
-0.323714 -0.059486 -0.016667
-0.324452 -0.059369 -0.033333
-0.324849 -0.048909 0.033333
-0.322417 -0.045039 0.016667
-0.323823 -0.043838 0.000000
-0.322823 -0.043795 -0.016667
-0.323565 -0.043630 -0.033333
-0.324095 -0.032798 0.033333
-0.321615 -0.029431 0.016667
-0.322950 -0.028198 0.000000
-0.321922 -0.028117 -0.016667
-0.322642 -0.027885 -0.033333
-0.323342 -0.016686 0.033333
-0.320831 -0.013849 0.016667
-0.322041 -0.012578 0.000000
-0.320983 -0.012430 -0.016667
-0.321694 -0.012149 -0.033333
-0.322588 -0.000575 0.033333
-0.320035 0.001689 0.016667
-0.321042 0.003067 0.000000
-0.320013 0.003226 -0.016667
-0.320677 0.003626 -0.033333
-0.321835 0.015536 0.033333
-0.319189 0.017233 0.016667
-0.319855 0.018649 0.000000
-0.318988 0.018994 -0.016667
-0.319622 0.019327 -0.033333
-0.321081 0.031648 0.033333
-0.317588 0.032677 0.016667
-0.318558 0.034528 0.000000
-0.317904 0.034598 -0.016667
-0.318512 0.035215 -0.033333
-0.312800 0.046256 0.033333
-0.316350 0.049262 0.016667
-0.316794 0.050010 0.000000
-0.317029 0.050584 -0.016667
-0.317246 0.050846 -0.033333
-0.312441 0.063868 0.033333
-0.314346 0.065338 0.016667
-0.315614 0.066007 0.000000
-0.315930 0.066309 -0.016667
-0.316252 0.066730 -0.033333
-0.311742 0.081644 0.033333
-0.313594 0.081713 0.016667
-0.314516 0.081878 0.000000
-0.315019 0.082183 -0.016667
-0.315331 0.082499 -0.033333
-0.311639 0.099069 0.033333
-0.312932 0.098129 0.016667
-0.313782 0.097737 0.000000
-0.314225 0.098007 -0.016667
-0.314538 0.098282 -0.033333
-0.310882 0.116180 0.033333
-0.312491 0.114256 0.016667
-0.313205 0.113529 0.000000
-0.313587 0.113766 -0.016667
-0.313867 0.114029 -0.033333
-0.310468 0.132654 0.033333
-0.312093 0.130061 0.016667
-0.312845 0.129137 0.000000
-0.313055 0.129483 -0.016667
-0.313289 0.129678 -0.033333
-0.309904 0.147986 0.033333
-0.312355 0.145312 0.016667
-0.312489 0.144739 0.000000
-0.312653 0.144972 -0.016667
-0.312748 0.145360 -0.033333
-0.315052 0.160535 0.033333
-0.311984 0.160856 0.016667
-0.312518 0.159820 0.000000
-0.312038 0.160604 -0.016667
-0.312431 0.160775 -0.033333
-0.314298 0.176646 0.033333
-0.311750 0.175246 0.016667
-0.312239 0.175258 0.000000
-0.311509 0.175839 -0.016667
-0.312049 0.176348 -0.033333
-0.313544 0.192758 0.033333
-0.311015 0.189892 0.016667
-0.311794 0.190371 0.000000
-0.311028 0.191167 -0.016667
-0.311567 0.191701 -0.033333
-0.312791 0.208869 0.033333
-0.310405 0.204380 0.016667
-0.311238 0.205473 0.000000
-0.310554 0.206357 -0.016667
-0.311061 0.207041 -0.033333
-0.312037 0.224980 0.033333
-0.310057 0.218731 0.016667
-0.310594 0.220545 0.000000
-0.310175 0.221441 -0.016667
-0.310495 0.222353 -0.033333
-0.311283 0.241092 0.033333
-0.309751 0.232805 0.016667
-0.310143 0.235469 0.000000
-0.309751 0.236535 -0.016667
-0.309975 0.237568 -0.033333
-0.310529 0.257203 0.033333
-0.309659 0.245481 0.016667
-0.309656 0.251431 0.000000
-0.309300 0.250837 -0.016667
-0.309596 0.253374 -0.033333
-0.304387 0.264743 0.033333
-0.309178 0.263658 0.016667
-0.309244 0.264432 0.000000
-0.309059 0.267239 -0.016667
-0.309053 0.267428 -0.033333
-0.307550 0.280113 0.033333
-0.308639 0.278753 0.016667
-0.309023 0.279911 0.000000
-0.308670 0.281845 -0.016667
-0.308594 0.282990 -0.033333
-0.308784 0.296092 0.033333
-0.308965 0.294120 0.016667
-0.308570 0.294865 0.000000
-0.308288 0.297054 -0.016667
-0.308041 0.298015 -0.033333
-0.309397 0.311455 0.033333
-0.308714 0.309493 0.016667
-0.308144 0.309934 0.000000
-0.307691 0.312101 -0.016667
-0.307440 0.313240 -0.033333
-0.308812 0.326618 0.033333
-0.308127 0.324551 0.016667
-0.307424 0.324963 0.000000
-0.306964 0.327248 -0.016667
-0.306697 0.328398 -0.033333
-0.307735 0.341269 0.033333
-0.307082 0.339494 0.016667
-0.306472 0.339974 0.000000
-0.306048 0.342437 -0.016667
-0.305840 0.343626 -0.033333
-0.306201 0.355913 0.033333
-0.305692 0.354329 0.016667
-0.305235 0.354996 0.000000
-0.304977 0.357739 -0.016667
-0.304897 0.358892 -0.033333
-0.304197 0.370561 0.033333
-0.303877 0.369214 0.016667
-0.303717 0.370077 0.000000
-0.303777 0.373189 -0.016667
-0.303961 0.374220 -0.033333
-0.301679 0.385419 0.033333
-0.301431 0.384221 0.016667
-0.301848 0.385236 0.000000
-0.302509 0.388885 -0.016667
-0.303250 0.389538 -0.033333
-0.291924 -0.488953 0.033333
-0.295160 -0.503560 0.016667
-0.298508 -0.505985 0.000000
-0.300682 -0.507282 -0.016667
-0.301922 -0.508466 -0.033333
-0.297633 -0.476435 0.033333
-0.298906 -0.488288 0.016667
-0.300703 -0.492229 0.000000
-0.302079 -0.493011 -0.016667
-0.302963 -0.494589 -0.033333
-0.302022 -0.463844 0.033333
-0.302467 -0.474037 0.016667
-0.303276 -0.478259 0.000000
-0.304031 -0.479217 -0.016667
-0.304541 -0.480553 -0.033333
-0.305656 -0.451451 0.033333
-0.305660 -0.460295 0.016667
-0.305901 -0.464470 0.000000
-0.306211 -0.465578 -0.016667
-0.306443 -0.466698 -0.033333
-0.308746 -0.439239 0.033333
-0.308511 -0.446902 0.016667
-0.308417 -0.450881 0.000000
-0.308434 -0.452069 -0.016667
-0.308473 -0.453029 -0.033333
-0.311405 -0.427164 0.033333
-0.311043 -0.433764 0.016667
-0.310754 -0.437464 0.000000
-0.310584 -0.438676 -0.016667
-0.310497 -0.439514 -0.033333
-0.313695 -0.415183 0.033333
-0.313272 -0.420806 0.016667
-0.312871 -0.424179 0.000000
-0.312587 -0.425377 -0.016667
-0.312419 -0.426115 -0.033333
-0.315638 -0.403249 0.033333
-0.315201 -0.407968 0.016667
-0.314743 -0.410983 0.000000
-0.314393 -0.412142 -0.016667
-0.314178 -0.412795 -0.033333
-0.317245 -0.391330 0.033333
-0.316823 -0.395187 0.016667
-0.316351 -0.397832 0.000000
-0.315970 -0.398938 -0.016667
-0.315730 -0.399514 -0.033333
-0.318508 -0.379360 0.033333
-0.318134 -0.382416 0.016667
-0.317680 -0.384683 0.000000
-0.317295 -0.385725 -0.016667
-0.317047 -0.386232 -0.033333
-0.319418 -0.367330 0.033333
-0.319122 -0.369584 0.016667
-0.318721 -0.371488 0.000000
-0.318354 -0.372466 -0.016667
-0.318113 -0.372908 -0.033333
-0.319964 -0.355120 0.033333
-0.319784 -0.356653 0.016667
-0.319467 -0.358198 0.000000
-0.319140 -0.359119 -0.016667
-0.318918 -0.359503 -0.033333
-0.320117 -0.342740 0.033333
-0.320113 -0.343518 0.016667
-0.319924 -0.344764 0.000000
-0.319656 -0.345646 -0.016667
-0.319464 -0.345972 -0.033333
-0.319892 -0.329973 0.033333
-0.320119 -0.330147 0.016667
-0.320103 -0.331127 0.000000
-0.319914 -0.332003 -0.016667
-0.319758 -0.332285 -0.033333
-0.319210 -0.316788 0.033333
-0.319838 -0.316346 0.016667
-0.320042 -0.317246 0.000000
-0.319927 -0.318169 -0.016667
-0.319823 -0.318383 -0.033333
-0.318366 -0.302465 0.033333
-0.319312 -0.302108 0.016667
-0.319791 -0.303073 0.000000
-0.319736 -0.304088 -0.016667
-0.319670 -0.304293 -0.033333
-0.317120 -0.286797 0.033333
-0.318799 -0.287058 0.016667
-0.319446 -0.288624 0.000000
-0.319309 -0.289880 -0.016667
-0.319386 -0.289824 -0.033333
-0.317850 -0.267528 0.033333
-0.318234 -0.271639 0.016667
-0.318910 -0.274430 0.000000
-0.318783 -0.274982 -0.016667
-0.318905 -0.275504 -0.033333
-0.317473 -0.248825 0.033333
-0.317382 -0.257826 0.016667
-0.318376 -0.259155 0.000000
-0.318020 -0.260384 -0.016667
-0.318421 -0.260560 -0.033333
-0.316618 -0.236477 0.033333
-0.316599 -0.241826 0.016667
-0.317782 -0.244745 0.000000
-0.317217 -0.244975 -0.016667
-0.317806 -0.245866 -0.033333
-0.315726 -0.222854 0.033333
-0.316059 -0.227123 0.016667
-0.316891 -0.229292 0.000000
-0.316547 -0.230049 -0.016667
-0.316981 -0.230483 -0.033333
-0.314969 -0.208804 0.033333
-0.315295 -0.212215 0.016667
-0.316070 -0.213940 0.000000
-0.315785 -0.214749 -0.016667
-0.316163 -0.215173 -0.033333
-0.314161 -0.194364 0.033333
-0.314539 -0.197134 0.016667
-0.315211 -0.198487 0.000000
-0.315010 -0.199341 -0.016667
-0.315330 -0.199733 -0.033333
-0.313375 -0.179640 0.033333
-0.313743 -0.181918 0.016667
-0.314365 -0.182991 0.000000
-0.314211 -0.183823 -0.016667
-0.314492 -0.184221 -0.033333
-0.312573 -0.164699 0.033333
-0.312954 -0.166587 0.016667
-0.313511 -0.167447 0.000000
-0.313404 -0.168241 -0.016667
-0.313650 -0.168634 -0.033333
-0.311775 -0.149602 0.033333
-0.312153 -0.151175 0.016667
-0.312663 -0.151873 0.000000
-0.312588 -0.152610 -0.016667
-0.312803 -0.152998 -0.033333
-0.310973 -0.134393 0.033333
-0.311358 -0.135694 0.016667
-0.311814 -0.136273 0.000000
-0.311766 -0.136952 -0.016667
-0.311954 -0.137322 -0.033333
-0.310174 -0.119114 0.033333
-0.310552 -0.120162 0.016667
-0.310967 -0.120658 0.000000
-0.310937 -0.121273 -0.016667
-0.311101 -0.121621 -0.033333
-0.309374 -0.103795 0.033333
-0.309750 -0.104599 0.016667
-0.310116 -0.105029 0.000000
-0.310102 -0.105584 -0.016667
-0.310242 -0.105904 -0.033333
-0.308569 -0.088464 0.033333
-0.308942 -0.089021 0.016667
-0.309264 -0.089396 0.000000
-0.309260 -0.089892 -0.016667
-0.309376 -0.090177 -0.033333
-0.307775 -0.073157 0.033333
-0.308135 -0.073436 0.016667
-0.308404 -0.073761 0.000000
-0.308411 -0.074200 -0.016667
-0.308499 -0.074446 -0.033333
-0.306970 -0.057897 0.033333
-0.307325 -0.057859 0.016667
-0.307540 -0.058130 0.000000
-0.307548 -0.058514 -0.016667
-0.307612 -0.058714 -0.033333
-0.306189 -0.042726 0.033333
-0.306513 -0.042299 0.016667
-0.306659 -0.042505 0.000000
-0.306676 -0.042836 -0.016667
-0.306702 -0.042983 -0.033333
-0.305381 -0.027670 0.033333
-0.305701 -0.026767 0.016667
-0.305767 -0.026891 0.000000
-0.305774 -0.027164 -0.016667
-0.305778 -0.027252 -0.033333
-0.304634 -0.012792 0.033333
-0.304866 -0.011279 0.016667
-0.304831 -0.011278 0.000000
-0.304860 -0.011503 -0.016667
-0.304805 -0.011512 -0.033333
-0.303777 0.001870 0.033333
-0.304048 0.004171 0.016667
-0.303844 0.004317 0.000000
-0.303876 0.004177 -0.016667
-0.303828 0.004225 -0.033333
-0.303223 0.016199 0.033333
-0.302994 0.019566 0.016667
-0.302740 0.019999 0.000000
-0.302899 0.019829 -0.016667
-0.302747 0.020018 -0.033333
-0.301976 0.030118 0.033333
-0.301956 0.035394 0.016667
-0.301473 0.035615 0.000000
-0.301843 0.035595 -0.016667
-0.301697 0.035783 -0.033333
-0.298247 0.048725 0.033333
-0.300075 0.051050 0.016667
-0.300391 0.051536 0.000000
-0.300623 0.051324 -0.016667
-0.300772 0.051616 -0.033333
-0.297144 0.067578 0.033333
-0.298765 0.067517 0.016667
-0.299169 0.067313 0.000000
-0.299632 0.067240 -0.016667
-0.299747 0.067357 -0.033333
-0.296667 0.085482 0.033333
-0.297886 0.084175 0.016667
-0.298225 0.083217 0.000000
-0.298665 0.083084 -0.016667
-0.298857 0.083180 -0.033333
-0.295781 0.102947 0.033333
-0.297135 0.100572 0.016667
-0.297440 0.099138 0.000000
-0.297831 0.098905 -0.016667
-0.298052 0.098975 -0.033333
-0.295157 0.120034 0.033333
-0.296401 0.116828 0.016667
-0.296764 0.114913 0.000000
-0.297126 0.114701 -0.016667
-0.297320 0.114706 -0.033333
-0.293922 0.137265 0.033333
-0.295773 0.132738 0.016667
-0.296214 0.130592 0.000000
-0.296511 0.130362 -0.016667
-0.296669 0.130418 -0.033333
-0.293333 0.154577 0.033333
-0.295353 0.148246 0.016667
-0.295865 0.145983 0.000000
-0.295862 0.146026 -0.016667
-0.296158 0.145965 -0.033333
-0.295087 0.169229 0.033333
-0.295361 0.163031 0.016667
-0.295300 0.161371 0.000000
-0.295451 0.161500 -0.016667
-0.295496 0.161476 -0.033333
-0.294648 0.181915 0.033333
-0.294878 0.177898 0.016667
-0.294776 0.176567 0.000000
-0.294967 0.176847 -0.016667
-0.294876 0.176954 -0.033333
-0.293802 0.194786 0.033333
-0.294305 0.192336 0.016667
-0.294136 0.191764 0.000000
-0.294433 0.192069 -0.016667
-0.294291 0.192354 -0.033333
-0.293076 0.207410 0.033333
-0.293635 0.206718 0.016667
-0.293452 0.206867 0.000000
-0.293911 0.207199 -0.016667
-0.293677 0.207693 -0.033333
-0.292394 0.219563 0.033333
-0.292999 0.220894 0.016667
-0.292831 0.221877 0.000000
-0.293385 0.222261 -0.016667
-0.293075 0.222934 -0.033333
-0.291464 0.231151 0.033333
-0.292865 0.234945 0.016667
-0.292087 0.237050 0.000000
-0.293010 0.236931 -0.016667
-0.292442 0.238433 -0.033333
-0.290697 0.240977 0.033333
-0.292234 0.250789 0.016667
-0.291970 0.250818 0.000000
-0.292415 0.252507 -0.016667
-0.292091 0.253172 -0.033333
-0.290427 0.258314 0.033333
-0.292232 0.263431 0.016667
-0.291930 0.266215 0.000000
-0.291887 0.267234 -0.016667
-0.291766 0.268433 -0.033333
-0.293641 0.278591 0.033333
-0.292598 0.279081 0.016667
-0.291712 0.280465 0.000000
-0.291572 0.282649 -0.016667
-0.291253 0.283200 -0.033333
-0.294121 0.296397 0.033333
-0.292631 0.294868 0.016667
-0.291536 0.295461 0.000000
-0.291060 0.297479 -0.016667
-0.290803 0.298481 -0.033333
-0.293491 0.312567 0.033333
-0.292123 0.310144 0.016667
-0.291053 0.310423 0.000000
-0.290502 0.312525 -0.016667
-0.290196 0.313541 -0.033333
-0.292312 0.327319 0.033333
-0.291259 0.325147 0.016667
-0.290344 0.325360 0.000000
-0.289782 0.327563 -0.016667
-0.289502 0.328693 -0.033333
-0.290991 0.341884 0.033333
-0.290150 0.339884 0.016667
-0.289398 0.340269 0.000000
-0.288933 0.342694 -0.016667
-0.288701 0.343849 -0.033333
-0.289405 0.356257 0.033333
-0.288795 0.354600 0.016667
-0.288265 0.355190 0.000000
-0.287953 0.357925 -0.016667
-0.287847 0.359077 -0.033333
-0.287534 0.370768 0.033333
-0.287145 0.369339 0.016667
-0.286905 0.370185 0.000000
-0.286888 0.373322 -0.016667
-0.287012 0.374361 -0.033333
-0.285248 0.385472 0.033333
-0.284968 0.384264 0.016667
-0.285273 0.385273 0.000000
-0.285778 0.388975 -0.016667
-0.286388 0.389644 -0.033333
-0.274517 -0.488986 0.033333
-0.277307 -0.503690 0.016667
-0.280273 -0.506120 0.000000
-0.282203 -0.507440 -0.016667
-0.283307 -0.508625 -0.033333
-0.279363 -0.476506 0.033333
-0.280542 -0.488426 0.016667
-0.282178 -0.492381 0.000000
-0.283430 -0.493170 -0.016667
-0.284234 -0.494756 -0.033333
-0.283159 -0.463927 0.033333
-0.283638 -0.474180 0.016667
-0.284435 -0.478417 0.000000
-0.285160 -0.479378 -0.016667
-0.285646 -0.480719 -0.033333
-0.286351 -0.451531 0.033333
-0.286452 -0.460433 0.016667
-0.286765 -0.464624 0.000000
-0.287112 -0.465737 -0.016667
-0.287359 -0.466859 -0.033333
-0.289111 -0.439302 0.033333
-0.289005 -0.447024 0.016667
-0.289032 -0.451024 0.000000
-0.289127 -0.452217 -0.016667
-0.289211 -0.453180 -0.033333
-0.291539 -0.427199 0.033333
-0.291319 -0.433859 0.016667
-0.291173 -0.437587 0.000000
-0.291108 -0.438807 -0.016667
-0.291082 -0.439649 -0.033333
-0.293681 -0.415172 0.033333
-0.293404 -0.420863 0.016667
-0.293156 -0.424271 0.000000
-0.292990 -0.425483 -0.016667
-0.292893 -0.426229 -0.033333
-0.295565 -0.403184 0.033333
-0.295262 -0.407972 0.016667
-0.294958 -0.411034 0.000000
-0.294730 -0.412215 -0.016667
-0.294590 -0.412879 -0.033333
-0.297188 -0.391177 0.033333
-0.296890 -0.395129 0.016667
-0.296562 -0.397833 0.000000
-0.296299 -0.398968 -0.016667
-0.296133 -0.399562 -0.033333
-0.298559 -0.379128 0.033333
-0.298280 -0.382269 0.016667
-0.297954 -0.384620 0.000000
-0.297677 -0.385706 -0.016667
-0.297498 -0.386235 -0.033333
-0.299663 -0.366938 0.033333
-0.299432 -0.369348 0.016667
-0.299125 -0.371350 0.000000
-0.298848 -0.372386 -0.016667
-0.298667 -0.372862 -0.033333
-0.300505 -0.354609 0.033333
-0.300334 -0.356277 0.016667
-0.300071 -0.357971 0.000000
-0.299807 -0.358972 -0.016667
-0.299630 -0.359396 -0.033333
-0.301090 -0.341969 0.033333
-0.301002 -0.343020 0.016667
-0.300790 -0.344434 0.000000
-0.300550 -0.345419 -0.016667
-0.300382 -0.345806 -0.033333
-0.301437 -0.329022 0.033333
-0.301440 -0.329439 0.016667
-0.301300 -0.330688 0.000000
-0.301076 -0.331696 -0.016667
-0.300927 -0.332042 -0.033333
-0.301654 -0.315416 0.033333
-0.301716 -0.315523 0.016667
-0.301597 -0.316686 0.000000
-0.301404 -0.317755 -0.016667
-0.301261 -0.318095 -0.033333
-0.301975 -0.301312 0.033333
-0.301822 -0.301050 0.016667
-0.301741 -0.302404 0.000000
-0.301507 -0.303625 -0.016667
-0.301419 -0.303868 -0.033333
-0.302417 -0.285992 0.033333
-0.301996 -0.286219 0.016667
-0.301561 -0.287954 0.000000
-0.301487 -0.289099 -0.016667
-0.301351 -0.289561 -0.033333
-0.304561 -0.270937 0.033333
-0.301210 -0.271241 0.016667
-0.301327 -0.272861 0.000000
-0.301247 -0.274727 -0.016667
-0.301128 -0.274670 -0.033333
-0.299782 -0.260555 0.033333
-0.300676 -0.253861 0.016667
-0.300745 -0.259156 0.000000
-0.300947 -0.258938 -0.016667
-0.300703 -0.260587 -0.033333
-0.298895 -0.244451 0.033333
-0.299951 -0.239861 0.016667
-0.300239 -0.243323 0.000000
-0.300347 -0.244415 -0.016667
-0.300305 -0.245093 -0.033333
-0.298008 -0.228346 0.033333
-0.299369 -0.225000 0.016667
-0.299566 -0.228055 0.000000
-0.299790 -0.229207 -0.016667
-0.299690 -0.229894 -0.033333
-0.297121 -0.212242 0.033333
-0.298875 -0.209995 0.016667
-0.298764 -0.212643 0.000000
-0.299226 -0.213904 -0.016667
-0.298970 -0.214533 -0.033333
-0.296233 -0.196137 0.033333
-0.298260 -0.194844 0.016667
-0.297973 -0.197205 0.000000
-0.298576 -0.198449 -0.016667
-0.298227 -0.199103 -0.033333
-0.295346 -0.180032 0.033333
-0.297623 -0.179555 0.016667
-0.297146 -0.181708 0.000000
-0.297887 -0.182914 -0.016667
-0.297453 -0.183581 -0.033333
-0.294459 -0.163928 0.033333
-0.296931 -0.164168 0.016667
-0.296316 -0.166171 0.000000
-0.297157 -0.167315 -0.016667
-0.296656 -0.167995 -0.033333
-0.293572 -0.147823 0.033333
-0.296223 -0.148694 0.016667
-0.295475 -0.150596 0.000000
-0.296399 -0.151676 -0.016667
-0.295845 -0.152355 -0.033333
-0.292684 -0.131719 0.033333
-0.295484 -0.133160 0.016667
-0.294632 -0.134995 0.000000
-0.295617 -0.136007 -0.016667
-0.295017 -0.136679 -0.033333
-0.291797 -0.115614 0.033333
-0.294728 -0.117576 0.016667
-0.293783 -0.119373 0.000000
-0.294816 -0.120321 -0.016667
-0.294180 -0.120977 -0.033333
-0.290910 -0.099509 0.033333
-0.293947 -0.101961 0.016667
-0.292931 -0.103737 0.000000
-0.293997 -0.104626 -0.016667
-0.293330 -0.105259 -0.033333
-0.290023 -0.083405 0.033333
-0.293150 -0.086325 0.016667
-0.292073 -0.088094 0.000000
-0.293162 -0.088928 -0.016667
-0.292471 -0.089532 -0.033333
-0.289136 -0.067300 0.033333
-0.292328 -0.070682 0.016667
-0.291214 -0.072448 0.000000
-0.292306 -0.073233 -0.016667
-0.291601 -0.073800 -0.033333
-0.288248 -0.051195 0.033333
-0.291491 -0.055041 0.016667
-0.290344 -0.056806 0.000000
-0.291434 -0.057541 -0.016667
-0.290718 -0.058071 -0.033333
-0.287361 -0.035091 0.033333
-0.290623 -0.039414 0.016667
-0.289478 -0.041165 0.000000
-0.290533 -0.041861 -0.016667
-0.289828 -0.042337 -0.033333
-0.286474 -0.018986 0.033333
-0.289738 -0.023804 0.016667
-0.288587 -0.025536 0.000000
-0.289617 -0.026183 -0.016667
-0.288910 -0.026610 -0.033333
-0.285587 -0.002882 0.033333
-0.288786 -0.008228 0.016667
-0.287712 -0.009896 0.000000
-0.288636 -0.010527 -0.016667
-0.288002 -0.010861 -0.033333
-0.284699 0.013223 0.033333
-0.287808 0.007339 0.016667
-0.286756 0.005717 0.000000
-0.287664 0.005167 -0.016667
-0.287027 0.004863 -0.033333
-0.283812 0.029328 0.033333
-0.286609 0.022832 0.016667
-0.285884 0.021459 0.000000
-0.286538 0.020772 -0.016667
-0.286129 0.020706 -0.033333
-0.282925 0.045432 0.033333
-0.285513 0.038489 0.016667
-0.284848 0.037124 0.000000
-0.285436 0.036567 -0.016667
-0.285168 0.036414 -0.033333
-0.282038 0.061537 0.033333
-0.283938 0.054658 0.016667
-0.283814 0.052872 0.000000
-0.284355 0.052331 -0.016667
-0.284180 0.052240 -0.033333
-0.281150 0.077641 0.033333
-0.282991 0.070836 0.016667
-0.282765 0.068713 0.000000
-0.283307 0.068163 -0.016667
-0.283253 0.068033 -0.033333
-0.280263 0.093746 0.033333
-0.282062 0.086962 0.016667
-0.281848 0.084598 0.000000
-0.282370 0.083996 -0.016667
-0.282330 0.083837 -0.033333
-0.279376 0.109851 0.033333
-0.281249 0.103064 0.016667
-0.280985 0.100418 0.000000
-0.281532 0.099823 -0.016667
-0.281471 0.099617 -0.033333
-0.278489 0.125955 0.033333
-0.280412 0.118989 0.016667
-0.280207 0.116222 0.000000
-0.280763 0.115560 -0.016667
-0.280684 0.115388 -0.033333
-0.277601 0.142060 0.033333
-0.279661 0.134926 0.016667
-0.279487 0.131831 0.000000
-0.280061 0.131290 -0.016667
-0.279961 0.131041 -0.033333
-0.276714 0.158165 0.033333
-0.279110 0.150693 0.016667
-0.278751 0.147321 0.000000
-0.279507 0.146918 -0.016667
-0.279186 0.146622 -0.033333
-0.275827 0.174269 0.033333
-0.278739 0.166103 0.016667
-0.278137 0.162744 0.000000
-0.278874 0.162358 -0.016667
-0.278531 0.162213 -0.033333
-0.274939 0.190374 0.033333
-0.278060 0.181141 0.016667
-0.277495 0.178030 0.000000
-0.278241 0.177768 -0.016667
-0.277874 0.177633 -0.033333
-0.274052 0.206478 0.033333
-0.277224 0.196093 0.016667
-0.276847 0.193269 0.000000
-0.277550 0.193008 -0.016667
-0.277240 0.193059 -0.033333
-0.273165 0.222583 0.033333
-0.276243 0.210916 0.016667
-0.276228 0.208420 0.000000
-0.276785 0.208190 -0.016667
-0.276665 0.208354 -0.033333
-0.272278 0.238687 0.033333
-0.275169 0.225603 0.016667
-0.275626 0.223537 0.000000
-0.276003 0.223141 -0.016667
-0.276147 0.223742 -0.033333
-0.271390 0.254792 0.033333
-0.273367 0.239498 0.016667
-0.275332 0.238330 0.000000
-0.275157 0.238228 -0.016667
-0.275804 0.238908 -0.033333
-0.270503 0.270897 0.033333
-0.273248 0.251213 0.016667
-0.274906 0.254023 0.000000
-0.274888 0.252642 -0.016667
-0.275041 0.254463 -0.033333
-0.278722 0.274175 0.033333
-0.275130 0.267999 0.016667
-0.274210 0.266969 0.000000
-0.274781 0.268783 -0.016667
-0.274290 0.268550 -0.033333
-0.279104 0.287012 0.033333
-0.276046 0.282537 0.016667
-0.274401 0.281913 0.000000
-0.274178 0.283328 -0.016667
-0.274001 0.283948 -0.033333
-0.278361 0.300974 0.033333
-0.275779 0.297127 0.016667
-0.274252 0.296571 0.000000
-0.273734 0.298271 -0.016667
-0.273457 0.298918 -0.033333
-0.276664 0.314818 0.033333
-0.275058 0.311693 0.016667
-0.273771 0.311306 0.000000
-0.273164 0.313097 -0.016667
-0.272890 0.314024 -0.033333
-0.275287 0.328874 0.033333
-0.274046 0.326114 0.016667
-0.273047 0.326001 0.000000
-0.272493 0.328038 -0.016667
-0.272219 0.329054 -0.033333
-0.273800 0.342775 0.033333
-0.272935 0.340549 0.016667
-0.272166 0.340706 0.000000
-0.271706 0.343041 -0.016667
-0.271495 0.344155 -0.033333
-0.272317 0.356825 0.033333
-0.271686 0.354976 0.016667
-0.271149 0.355469 0.000000
-0.270844 0.358177 -0.016667
-0.270734 0.359308 -0.033333
-0.270641 0.371032 0.033333
-0.270249 0.369534 0.016667
-0.269987 0.370332 0.000000
-0.269929 0.373490 -0.016667
-0.270013 0.374539 -0.033333
-0.268686 0.385562 0.033333
-0.268411 0.384312 0.016667
-0.268624 0.385321 0.000000
-0.269000 0.389086 -0.016667
-0.269484 0.389771 -0.033333
-0.257064 -0.489019 0.033333
-0.259438 -0.503798 0.016667
-0.262026 -0.506234 0.000000
-0.263718 -0.507573 -0.016667
-0.264690 -0.508760 -0.033333
-0.261075 -0.476574 0.033333
-0.262170 -0.488545 0.016667
-0.263650 -0.492509 0.000000
-0.264781 -0.493305 -0.016667
-0.265507 -0.494895 -0.033333
-0.264297 -0.464011 0.033333
-0.264811 -0.474307 0.016667
-0.265599 -0.478552 0.000000
-0.266295 -0.479515 -0.016667
-0.266757 -0.480860 -0.033333
-0.267060 -0.451618 0.033333
-0.267257 -0.460562 0.016667
-0.267643 -0.464760 0.000000
-0.268026 -0.465872 -0.016667
-0.268290 -0.466996 -0.033333
-0.269507 -0.439385 0.033333
-0.269526 -0.447146 0.016667
-0.269669 -0.451154 0.000000
-0.269842 -0.452347 -0.016667
-0.269969 -0.453310 -0.033333
-0.271718 -0.427266 0.033333
-0.271633 -0.433966 0.016667
-0.271626 -0.437705 0.000000
-0.271662 -0.438925 -0.016667
-0.271695 -0.439768 -0.033333
-0.273735 -0.415218 0.033333
-0.273588 -0.420946 0.016667
-0.273486 -0.424370 0.000000
-0.273431 -0.425584 -0.016667
-0.273402 -0.426331 -0.033333
-0.275571 -0.403191 0.033333
-0.275392 -0.408025 0.016667
-0.275229 -0.411107 0.000000
-0.275114 -0.412294 -0.016667
-0.275044 -0.412960 -0.033333
-0.277242 -0.391152 0.033333
-0.277040 -0.395139 0.016667
-0.276840 -0.397872 0.000000
-0.276684 -0.399020 -0.016667
-0.276585 -0.399617 -0.033333
-0.278735 -0.379028 0.033333
-0.278532 -0.382239 0.016667
-0.278306 -0.384622 0.000000
-0.278123 -0.385722 -0.016667
-0.278005 -0.386261 -0.033333
-0.280069 -0.366813 0.033333
-0.279857 -0.369252 0.016667
-0.279620 -0.371305 0.000000
-0.279417 -0.372367 -0.016667
-0.279284 -0.372851 -0.033333
-0.281233 -0.354373 0.033333
-0.281026 -0.356142 0.016667
-0.280773 -0.357880 0.000000
-0.280554 -0.358907 -0.016667
-0.280412 -0.359351 -0.033333
-0.282258 -0.341744 0.033333
-0.282030 -0.342809 0.016667
-0.281767 -0.344295 0.000000
-0.281528 -0.345314 -0.016667
-0.281377 -0.345714 -0.033333
-0.283173 -0.328722 0.033333
-0.282909 -0.329240 0.016667
-0.282591 -0.330510 0.000000
-0.282336 -0.331538 -0.016667
-0.282170 -0.331919 -0.033333
-0.284092 -0.315430 0.033333
-0.283632 -0.315314 0.016667
-0.283264 -0.316482 0.000000
-0.282958 -0.317576 -0.016667
-0.282791 -0.317899 -0.033333
-0.284939 -0.301658 0.033333
-0.284313 -0.301101 0.016667
-0.283699 -0.302224 0.000000
-0.283421 -0.303336 -0.016667
-0.283215 -0.303708 -0.033333
-0.286108 -0.288024 0.033333
-0.284543 -0.286601 0.016667
-0.283990 -0.287577 0.000000
-0.283665 -0.288993 -0.016667
-0.283442 -0.289151 -0.033333
-0.285776 -0.275307 0.033333
-0.284770 -0.271422 0.016667
-0.283854 -0.272946 0.000000
-0.283715 -0.274251 -0.016667
-0.283528 -0.274462 -0.033333
-0.283678 -0.261443 0.033333
-0.283691 -0.255806 0.016667
-0.283767 -0.258552 0.000000
-0.283515 -0.258710 -0.016667
-0.283429 -0.260187 -0.033333
-0.282790 -0.245338 0.033333
-0.283085 -0.240755 0.016667
-0.283223 -0.243011 0.000000
-0.283249 -0.243972 -0.016667
-0.283121 -0.244746 -0.033333
-0.281903 -0.229233 0.033333
-0.282638 -0.225685 0.016667
-0.282700 -0.227463 0.000000
-0.282794 -0.228865 -0.016667
-0.282734 -0.229396 -0.033333
-0.281016 -0.213129 0.033333
-0.282044 -0.210379 0.016667
-0.282110 -0.212017 0.000000
-0.282264 -0.213476 -0.016667
-0.282219 -0.214047 -0.033333
-0.280129 -0.197024 0.033333
-0.281465 -0.194985 0.016667
-0.281426 -0.196499 0.000000
-0.281673 -0.197998 -0.016667
-0.281617 -0.198582 -0.033333
-0.279242 -0.180920 0.033333
-0.280802 -0.179505 0.016667
-0.280712 -0.180959 0.000000
-0.281013 -0.182427 -0.016667
-0.280956 -0.183046 -0.033333
-0.278354 -0.164815 0.033333
-0.280124 -0.163952 0.016667
-0.279955 -0.165375 0.000000
-0.280305 -0.166808 -0.016667
-0.280248 -0.167440 -0.033333
-0.277467 -0.148710 0.033333
-0.279403 -0.148343 0.016667
-0.279177 -0.149766 0.000000
-0.279561 -0.151147 -0.016667
-0.279499 -0.151787 -0.033333
-0.276580 -0.132606 0.033333
-0.278666 -0.132685 0.016667
-0.278376 -0.134129 0.000000
-0.278785 -0.135463 -0.016667
-0.278722 -0.136098 -0.033333
-0.275693 -0.116501 0.033333
-0.277896 -0.116992 0.016667
-0.277560 -0.118476 0.000000
-0.277985 -0.119762 -0.016667
-0.277918 -0.120385 -0.033333
-0.274805 -0.100397 0.033333
-0.277107 -0.101272 0.016667
-0.276727 -0.102810 0.000000
-0.277162 -0.104051 -0.016667
-0.277092 -0.104659 -0.033333
-0.273918 -0.084292 0.033333
-0.276288 -0.085538 0.016667
-0.275882 -0.087137 0.000000
-0.276319 -0.088339 -0.016667
-0.276246 -0.088923 -0.033333
-0.273031 -0.068187 0.033333
-0.275450 -0.069797 0.016667
-0.275020 -0.071464 0.000000
-0.275459 -0.072626 -0.016667
-0.275382 -0.073187 -0.033333
-0.272144 -0.052083 0.033333
-0.274584 -0.054059 0.016667
-0.274151 -0.055791 0.000000
-0.274576 -0.056922 -0.016667
-0.274501 -0.057449 -0.033333
-0.271257 -0.035978 0.033333
-0.273703 -0.038327 0.016667
-0.273260 -0.040127 0.000000
-0.273681 -0.041218 -0.016667
-0.273597 -0.041719 -0.033333
-0.270369 -0.019874 0.033333
-0.272783 -0.022612 0.016667
-0.272370 -0.024458 0.000000
-0.272751 -0.025530 -0.016667
-0.272687 -0.025979 -0.033333
-0.269482 -0.003769 0.033333
-0.271845 -0.006891 0.016667
-0.271435 -0.008813 0.000000
-0.271823 -0.009823 -0.016667
-0.271734 -0.010260 -0.033333
-0.268595 0.012336 0.033333
-0.270825 0.008798 0.016667
-0.270525 0.006887 0.000000
-0.270826 0.005840 -0.016667
-0.270798 0.005511 -0.033333
-0.267708 0.028440 0.033333
-0.269768 0.024610 0.016667
-0.269556 0.022519 0.000000
-0.269839 0.021589 -0.016667
-0.269809 0.021229 -0.033333
-0.266820 0.044545 0.033333
-0.268765 0.040442 0.016667
-0.268565 0.038232 0.000000
-0.268815 0.037304 -0.016667
-0.268829 0.037027 -0.033333
-0.265933 0.060650 0.033333
-0.267664 0.056273 0.016667
-0.267540 0.053996 0.000000
-0.267796 0.053082 -0.016667
-0.267854 0.052797 -0.033333
-0.265046 0.076754 0.033333
-0.266603 0.072292 0.016667
-0.266579 0.069781 0.000000
-0.266807 0.068865 -0.016667
-0.266889 0.068608 -0.033333
-0.264159 0.092859 0.033333
-0.265724 0.088234 0.016667
-0.265638 0.085566 0.000000
-0.265871 0.084671 -0.016667
-0.265971 0.084398 -0.033333
-0.263271 0.108963 0.033333
-0.264805 0.104084 0.016667
-0.264766 0.101345 0.000000
-0.264989 0.100437 -0.016667
-0.265091 0.100186 -0.033333
-0.262384 0.125068 0.033333
-0.263953 0.119929 0.016667
-0.263918 0.117030 0.000000
-0.264158 0.116190 -0.016667
-0.264263 0.115920 -0.033333
-0.261497 0.141173 0.033333
-0.263147 0.135652 0.016667
-0.263090 0.132674 0.000000
-0.263396 0.131868 -0.016667
-0.263452 0.131607 -0.033333
-0.260609 0.157277 0.033333
-0.262413 0.151262 0.016667
-0.262329 0.148237 0.000000
-0.262634 0.147457 -0.016667
-0.262706 0.147245 -0.033333
-0.259722 0.173382 0.033333
-0.261671 0.166649 0.016667
-0.261594 0.163680 0.000000
-0.261909 0.162998 -0.016667
-0.261949 0.162767 -0.033333
-0.258835 0.189486 0.033333
-0.260887 0.181884 0.016667
-0.260835 0.179041 0.000000
-0.261169 0.178412 -0.016667
-0.261209 0.178260 -0.033333
-0.257948 0.205591 0.033333
-0.259993 0.196929 0.016667
-0.260079 0.194298 0.000000
-0.260391 0.193785 -0.016667
-0.260481 0.193625 -0.033333
-0.257060 0.221696 0.033333
-0.259028 0.211835 0.016667
-0.259261 0.209507 0.000000
-0.259609 0.209030 -0.016667
-0.259750 0.208980 -0.033333
-0.256173 0.237800 0.033333
-0.257732 0.226367 0.016667
-0.258470 0.224667 0.000000
-0.258807 0.224255 -0.016667
-0.259096 0.224190 -0.033333
-0.255286 0.253905 0.033333
-0.256033 0.241097 0.016667
-0.257618 0.240043 0.000000
-0.258290 0.239103 -0.016667
-0.258281 0.239560 -0.033333
-0.254399 0.270010 0.033333
-0.255501 0.256985 0.016667
-0.257708 0.255086 0.000000
-0.257362 0.253607 -0.016667
-0.257958 0.255257 -0.033333
-0.257869 0.284405 0.033333
-0.257587 0.272204 0.016667
-0.256915 0.268794 0.000000
-0.257136 0.269499 -0.016667
-0.257219 0.269377 -0.033333
-0.259723 0.293894 0.033333
-0.257847 0.286116 0.016667
-0.256929 0.283270 0.000000
-0.256737 0.284368 -0.016667
-0.256575 0.284409 -0.033333
-0.259372 0.305032 0.033333
-0.257852 0.299642 0.016667
-0.256634 0.297865 0.000000
-0.256234 0.298991 -0.016667
-0.256075 0.299539 -0.033333
-0.258532 0.317544 0.033333
-0.257167 0.313348 0.016667
-0.256153 0.312274 0.000000
-0.255684 0.313762 -0.016667
-0.255470 0.314479 -0.033333
-0.257279 0.330465 0.033333
-0.256324 0.327257 0.016667
-0.255481 0.326707 0.000000
-0.255045 0.328537 -0.016667
-0.254854 0.329468 -0.033333
-0.256079 0.343818 0.033333
-0.255337 0.341252 0.016667
-0.254707 0.341192 0.000000
-0.254354 0.343423 -0.016667
-0.254198 0.344471 -0.033333
-0.254810 0.357401 0.033333
-0.254302 0.355410 0.016667
-0.253862 0.355771 0.000000
-0.253624 0.358444 -0.016667
-0.253551 0.359558 -0.033333
-0.253486 0.371331 0.033333
-0.253153 0.369732 0.016667
-0.252936 0.370493 0.000000
-0.252888 0.373669 -0.016667
-0.252955 0.374724 -0.033333
-0.251962 0.385645 0.033333
-0.251739 0.384372 0.016667
-0.251889 0.385373 0.000000
-0.252164 0.389200 -0.016667
-0.252532 0.389903 -0.033333
-0.239558 -0.489049 0.033333
-0.241553 -0.503882 0.016667
-0.243769 -0.506323 0.000000
-0.245226 -0.507679 -0.016667
-0.246070 -0.508868 -0.033333
-0.242764 -0.476641 0.033333
-0.243783 -0.488644 0.016667
-0.245117 -0.492613 0.000000
-0.246131 -0.493414 -0.016667
-0.246781 -0.495008 -0.033333
-0.245421 -0.464096 0.033333
-0.245977 -0.474419 0.016667
-0.246763 -0.478665 0.000000
-0.247434 -0.479627 -0.016667
-0.247874 -0.480972 -0.033333
-0.247765 -0.451716 0.033333
-0.248064 -0.460682 0.016667
-0.248527 -0.464877 0.000000
-0.248949 -0.465985 -0.016667
-0.249231 -0.467107 -0.033333
-0.249908 -0.439488 0.033333
-0.250055 -0.447269 0.016667
-0.250318 -0.451272 0.000000
-0.250571 -0.452457 -0.016667
-0.250741 -0.453417 -0.033333
-0.251912 -0.427373 0.033333
-0.251963 -0.434087 0.016667
-0.252096 -0.437820 0.000000
-0.252234 -0.439031 -0.016667
-0.252327 -0.439868 -0.033333
-0.253807 -0.415321 0.033333
-0.253795 -0.421062 0.016667
-0.253838 -0.424479 0.000000
-0.253895 -0.425682 -0.016667
-0.253934 -0.426423 -0.033333
-0.255612 -0.403294 0.033333
-0.255549 -0.408131 0.016667
-0.255527 -0.411206 0.000000
-0.255525 -0.412382 -0.016667
-0.255523 -0.413041 -0.033333
-0.257321 -0.391237 0.033333
-0.257225 -0.395238 0.016667
-0.257149 -0.397961 0.000000
-0.257099 -0.399094 -0.016667
-0.257068 -0.399685 -0.033333
-0.258955 -0.379131 0.033333
-0.258814 -0.382321 0.016667
-0.258692 -0.384695 0.000000
-0.258603 -0.385785 -0.016667
-0.258544 -0.386314 -0.033333
-0.260491 -0.366880 0.033333
-0.260321 -0.369338 0.016667
-0.260148 -0.371368 0.000000
-0.260019 -0.372411 -0.016667
-0.259937 -0.372890 -0.033333
-0.261963 -0.354516 0.033333
-0.261729 -0.356213 0.016667
-0.261507 -0.357931 0.000000
-0.261336 -0.358942 -0.016667
-0.261229 -0.359369 -0.033333
-0.263356 -0.341884 0.033333
-0.263059 -0.342929 0.016667
-0.262757 -0.344348 0.000000
-0.262541 -0.345329 -0.016667
-0.262406 -0.345723 -0.033333
-0.264715 -0.329082 0.033333
-0.264277 -0.329390 0.016667
-0.263895 -0.330569 0.000000
-0.263616 -0.331557 -0.016667
-0.263452 -0.331897 -0.033333
-0.265990 -0.315956 0.033333
-0.265427 -0.315618 0.016667
-0.264875 -0.316580 0.000000
-0.264553 -0.317564 -0.016667
-0.264347 -0.317892 -0.033333
-0.267270 -0.302722 0.033333
-0.266336 -0.301553 0.016667
-0.265716 -0.302304 0.000000
-0.265309 -0.303399 -0.016667
-0.265066 -0.303614 -0.033333
-0.267945 -0.289352 0.033333
-0.267165 -0.287107 0.016667
-0.266259 -0.287847 0.000000
-0.265867 -0.288954 -0.016667
-0.265617 -0.289116 -0.033333
-0.268514 -0.275288 0.033333
-0.267294 -0.272504 0.016667
-0.266599 -0.273047 0.000000
-0.266188 -0.274289 -0.016667
-0.265944 -0.274384 -0.033333
-0.267573 -0.262330 0.033333
-0.267022 -0.256211 0.016667
-0.266597 -0.258960 0.000000
-0.266303 -0.258635 -0.016667
-0.266055 -0.260094 -0.033333
-0.266686 -0.246225 0.033333
-0.266567 -0.241522 0.016667
-0.266365 -0.243204 0.000000
-0.266156 -0.243944 -0.016667
-0.266034 -0.244599 -0.033333
-0.265799 -0.230121 0.033333
-0.266045 -0.226274 0.016667
-0.265966 -0.227646 0.000000
-0.265882 -0.228751 -0.016667
-0.265785 -0.229253 -0.033333
-0.264911 -0.214016 0.033333
-0.265512 -0.210938 0.016667
-0.265467 -0.212063 0.000000
-0.265457 -0.213361 -0.016667
-0.265418 -0.213845 -0.033333
-0.264024 -0.197911 0.033333
-0.264877 -0.195468 0.016667
-0.264887 -0.196502 0.000000
-0.264931 -0.197821 -0.016667
-0.264929 -0.198373 -0.033333
-0.263137 -0.181807 0.033333
-0.264237 -0.179936 0.016667
-0.264229 -0.180895 0.000000
-0.264326 -0.182225 -0.016667
-0.264352 -0.182807 -0.033333
-0.262250 -0.165702 0.033333
-0.263545 -0.164336 0.016667
-0.263527 -0.165274 0.000000
-0.263659 -0.166569 -0.016667
-0.263702 -0.167187 -0.033333
-0.261363 -0.149598 0.033333
-0.262838 -0.148681 0.016667
-0.262786 -0.149623 0.000000
-0.262939 -0.150885 -0.016667
-0.263002 -0.151516 -0.033333
-0.260475 -0.133493 0.033333
-0.262096 -0.132982 0.016667
-0.262013 -0.133955 0.000000
-0.262183 -0.135178 -0.016667
-0.262254 -0.135812 -0.033333
-0.259588 -0.117388 0.033333
-0.261332 -0.117243 0.016667
-0.261214 -0.118272 0.000000
-0.261393 -0.119455 -0.016667
-0.261472 -0.120087 -0.033333
-0.258701 -0.101284 0.033333
-0.260531 -0.101481 0.016667
-0.260393 -0.102578 0.000000
-0.260575 -0.103727 -0.016667
-0.260659 -0.104347 -0.033333
-0.257814 -0.085179 0.033333
-0.259708 -0.085703 0.016667
-0.259551 -0.086880 0.000000
-0.259732 -0.087995 -0.016667
-0.259820 -0.088603 -0.033333
-0.256926 -0.069075 0.033333
-0.258850 -0.069922 0.016667
-0.258691 -0.071178 0.000000
-0.258866 -0.072269 -0.016667
-0.258957 -0.072854 -0.033333
-0.256039 -0.052970 0.033333
-0.257973 -0.054142 0.016667
-0.257809 -0.055482 0.000000
-0.257982 -0.056542 -0.016667
-0.258072 -0.057112 -0.033333
-0.255152 -0.036865 0.033333
-0.257069 -0.038374 0.016667
-0.256919 -0.039784 0.000000
-0.257075 -0.040830 -0.016667
-0.257171 -0.041364 -0.033333
-0.254265 -0.020761 0.033333
-0.256151 -0.022607 0.016667
-0.256001 -0.024102 0.000000
-0.256161 -0.025108 -0.016667
-0.256243 -0.025632 -0.033333
-0.253377 -0.004656 0.033333
-0.255205 -0.006855 0.016667
-0.255084 -0.008396 0.000000
-0.255214 -0.009415 -0.016667
-0.255310 -0.009877 -0.033333
-0.252490 0.011448 0.033333
-0.254237 0.008945 0.016667
-0.254137 0.007273 0.000000
-0.254265 0.006318 -0.016667
-0.254346 0.005849 -0.033333
-0.251603 0.027553 0.033333
-0.253281 0.024748 0.016667
-0.253174 0.022993 0.000000
-0.253292 0.022016 -0.016667
-0.253380 0.021625 -0.033333
-0.250716 0.043658 0.033333
-0.252269 0.040579 0.016667
-0.252212 0.038698 0.000000
-0.252309 0.037767 -0.016667
-0.252401 0.037374 -0.033333
-0.249828 0.059762 0.033333
-0.251281 0.056470 0.016667
-0.251229 0.054436 0.000000
-0.251327 0.053506 -0.016667
-0.251428 0.053169 -0.033333
-0.248941 0.075867 0.033333
-0.250310 0.072331 0.016667
-0.250261 0.070182 0.000000
-0.250362 0.069276 -0.016667
-0.250470 0.068945 -0.033333
-0.248054 0.091972 0.033333
-0.249332 0.088204 0.016667
-0.249335 0.085925 0.000000
-0.249422 0.085030 -0.016667
-0.249534 0.084735 -0.033333
-0.247167 0.108076 0.033333
-0.248422 0.104040 0.016667
-0.248419 0.101625 0.000000
-0.248513 0.100782 -0.016667
-0.248635 0.100494 -0.033333
-0.246279 0.124181 0.033333
-0.247510 0.119793 0.016667
-0.247529 0.117302 0.000000
-0.247643 0.116491 -0.016667
-0.247754 0.116229 -0.033333
-0.245392 0.140285 0.033333
-0.246634 0.135496 0.016667
-0.246667 0.132911 0.000000
-0.246784 0.132160 -0.016667
-0.246915 0.131918 -0.033333
-0.244505 0.156390 0.033333
-0.245757 0.151054 0.016667
-0.245826 0.148460 0.000000
-0.245956 0.147780 -0.016667
-0.246081 0.147539 -0.033333
-0.243618 0.172495 0.033333
-0.244894 0.166512 0.016667
-0.244982 0.163930 0.000000
-0.245138 0.163319 -0.016667
-0.245259 0.163116 -0.033333
-0.242730 0.188599 0.033333
-0.243990 0.181803 0.016667
-0.244149 0.179312 0.000000
-0.244302 0.178818 -0.016667
-0.244446 0.178592 -0.033333
-0.241843 0.204704 0.033333
-0.243054 0.196988 0.016667
-0.243260 0.194646 0.000000
-0.243474 0.194216 -0.016667
-0.243613 0.194038 -0.033333
-0.240956 0.220808 0.033333
-0.241989 0.211992 0.016667
-0.242373 0.209931 0.000000
-0.242613 0.209585 -0.016667
-0.242809 0.209368 -0.033333
-0.240068 0.236913 0.033333
-0.240732 0.227035 0.016667
-0.241414 0.225262 0.000000
-0.241837 0.224784 -0.016667
-0.241946 0.224713 -0.033333
-0.239181 0.253018 0.033333
-0.239777 0.242233 0.016667
-0.240669 0.240625 0.000000
-0.240953 0.239786 -0.016667
-0.241282 0.240100 -0.033333
-0.238294 0.269122 0.033333
-0.239569 0.256548 0.016667
-0.239879 0.256296 0.000000
-0.240364 0.254356 -0.016667
-0.240482 0.255670 -0.033333
-0.239683 0.280463 0.033333
-0.239101 0.273207 0.016667
-0.239622 0.269887 0.000000
-0.239727 0.270193 -0.016667
-0.239801 0.269978 -0.033333
-0.238854 0.294566 0.033333
-0.239430 0.287320 0.016667
-0.239192 0.284399 0.000000
-0.239155 0.284997 -0.016667
-0.239231 0.284989 -0.033333
-0.239647 0.306866 0.033333
-0.239139 0.301014 0.016667
-0.238791 0.298730 0.000000
-0.238635 0.299669 -0.016667
-0.238568 0.299978 -0.033333
-0.239276 0.319023 0.033333
-0.238775 0.314528 0.016667
-0.238256 0.313029 0.000000
-0.238053 0.314284 -0.016667
-0.237991 0.314922 -0.033333
-0.238655 0.331660 0.033333
-0.238115 0.328107 0.016667
-0.237672 0.327283 0.000000
-0.237467 0.328978 -0.016667
-0.237390 0.329814 -0.033333
-0.237803 0.344583 0.033333
-0.237404 0.341854 0.016667
-0.237042 0.341603 0.000000
-0.236874 0.343751 -0.016667
-0.236826 0.344762 -0.033333
-0.236960 0.357890 0.033333
-0.236646 0.355761 0.016667
-0.236403 0.356035 0.000000
-0.236304 0.358682 -0.016667
-0.236294 0.359779 -0.033333
-0.236061 0.371567 0.033333
-0.235867 0.369913 0.016667
-0.235756 0.370632 0.000000
-0.235764 0.373826 -0.016667
-0.235840 0.374892 -0.033333
-0.235092 0.385720 0.033333
-0.234954 0.384417 0.016667
-0.235070 0.385419 0.000000
-0.235272 0.389300 -0.016667
-0.235529 0.390021 -0.033333
-0.221998 -0.489075 0.033333
-0.223652 -0.503940 0.016667
-0.225500 -0.506386 0.000000
-0.226730 -0.507756 -0.016667
-0.227449 -0.508947 -0.033333
-0.224422 -0.476701 0.033333
-0.225380 -0.488718 0.016667
-0.226576 -0.492689 0.000000
-0.227479 -0.493492 -0.016667
-0.228057 -0.495089 -0.033333
-0.226521 -0.464179 0.033333
-0.227131 -0.474510 0.016667
-0.227924 -0.478749 0.000000
-0.228575 -0.479708 -0.016667
-0.228996 -0.481052 -0.033333
-0.228451 -0.451817 0.033333
-0.228861 -0.460787 0.016667
-0.229410 -0.464969 0.000000
-0.229876 -0.466069 -0.016667
-0.230179 -0.467186 -0.033333
-0.230293 -0.439609 0.033333
-0.230577 -0.447386 0.016667
-0.230969 -0.451371 0.000000
-0.231306 -0.452543 -0.016667
-0.231523 -0.453494 -0.033333
-0.232089 -0.427509 0.033333
-0.232287 -0.434216 0.016667
-0.232570 -0.437925 0.000000
-0.232814 -0.439117 -0.016667
-0.232969 -0.439944 -0.033333
-0.233866 -0.415476 0.033333
-0.233995 -0.421202 0.016667
-0.234193 -0.424589 0.000000
-0.234368 -0.425770 -0.016667
-0.234476 -0.426497 -0.033333
-0.235624 -0.403465 0.033333
-0.235699 -0.408284 0.016667
-0.235827 -0.411324 0.000000
-0.235942 -0.412471 -0.016667
-0.236015 -0.413115 -0.033333
-0.237381 -0.391443 0.033333
-0.237394 -0.395403 0.016667
-0.237456 -0.398085 0.000000
-0.237521 -0.399187 -0.016667
-0.237559 -0.399758 -0.033333
-0.239114 -0.379346 0.033333
-0.239079 -0.382512 0.016667
-0.239073 -0.384832 0.000000
-0.239085 -0.385880 -0.016667
-0.239092 -0.386389 -0.033333
-0.240855 -0.367183 0.033333
-0.240737 -0.369546 0.016667
-0.240663 -0.371517 0.000000
-0.240621 -0.372516 -0.016667
-0.240595 -0.372965 -0.033333
-0.242564 -0.354827 0.033333
-0.242379 -0.356481 0.016667
-0.242214 -0.358104 0.000000
-0.242112 -0.359051 -0.016667
-0.242050 -0.359452 -0.033333
-0.244275 -0.342366 0.033333
-0.243970 -0.343231 0.016667
-0.243713 -0.344544 0.000000
-0.243540 -0.345460 -0.016667
-0.243436 -0.345802 -0.033333
-0.245945 -0.329628 0.033333
-0.245528 -0.329802 0.016667
-0.245129 -0.330810 0.000000
-0.244883 -0.331691 -0.016667
-0.244732 -0.331997 -0.033333
-0.247594 -0.316743 0.033333
-0.246964 -0.316106 0.016667
-0.246452 -0.316845 0.000000
-0.246108 -0.317747 -0.016667
-0.245904 -0.317972 -0.033333
-0.249023 -0.303581 0.033333
-0.248323 -0.302121 0.016667
-0.247594 -0.302667 0.000000
-0.247181 -0.303561 -0.016667
-0.246933 -0.303732 -0.033333
-0.250410 -0.290074 0.033333
-0.249340 -0.287870 0.016667
-0.248552 -0.288168 0.000000
-0.248055 -0.289174 -0.016667
-0.247758 -0.289224 -0.033333
-0.251154 -0.276702 0.033333
-0.250111 -0.272973 0.016667
-0.249156 -0.273523 0.000000
-0.248710 -0.274499 -0.016667
-0.248362 -0.274463 -0.033333
-0.251468 -0.263217 0.033333
-0.250146 -0.256971 0.016667
-0.249585 -0.259345 0.000000
-0.248998 -0.258839 -0.016667
-0.248803 -0.260210 -0.033333
-0.250581 -0.247113 0.033333
-0.250035 -0.242149 0.016667
-0.249510 -0.243625 0.000000
-0.249161 -0.244122 -0.016667
-0.248910 -0.244678 -0.033333
-0.249694 -0.231008 0.033333
-0.249589 -0.226981 0.016667
-0.249289 -0.228002 0.000000
-0.249019 -0.228920 -0.016667
-0.248874 -0.229306 -0.033333
-0.248807 -0.214903 0.033333
-0.249011 -0.211579 0.016667
-0.248889 -0.212411 0.000000
-0.248716 -0.213478 -0.016667
-0.248631 -0.213889 -0.033333
-0.247920 -0.198799 0.033333
-0.248404 -0.196112 0.016667
-0.248367 -0.196778 0.000000
-0.248273 -0.197932 -0.016667
-0.248244 -0.198374 -0.033333
-0.247032 -0.182694 0.033333
-0.247740 -0.180558 0.016667
-0.247760 -0.181153 0.000000
-0.247729 -0.182290 -0.016667
-0.247735 -0.182802 -0.033333
-0.246145 -0.166589 0.033333
-0.247072 -0.164949 0.016667
-0.247096 -0.165490 0.000000
-0.247097 -0.166621 -0.016667
-0.247147 -0.167152 -0.033333
-0.245258 -0.150485 0.033333
-0.246376 -0.149275 0.016667
-0.246374 -0.149818 0.000000
-0.246419 -0.150915 -0.016667
-0.246473 -0.151464 -0.033333
-0.244371 -0.134380 0.033333
-0.245656 -0.133541 0.016667
-0.245617 -0.134135 0.000000
-0.245686 -0.135185 -0.016667
-0.245751 -0.135750 -0.033333
-0.243483 -0.118276 0.033333
-0.244889 -0.117777 0.016667
-0.244832 -0.118433 0.000000
-0.244911 -0.119447 -0.016667
-0.244984 -0.120009 -0.033333
-0.242596 -0.102171 0.033333
-0.244097 -0.101985 0.016667
-0.244015 -0.102723 0.000000
-0.244101 -0.103702 -0.016667
-0.244179 -0.104260 -0.033333
-0.241709 -0.086066 0.033333
-0.243262 -0.086175 0.016667
-0.243175 -0.087009 0.000000
-0.243260 -0.087956 -0.016667
-0.243343 -0.088503 -0.033333
-0.240822 -0.069962 0.033333
-0.242393 -0.070360 0.016667
-0.242315 -0.071296 0.000000
-0.242388 -0.072211 -0.016667
-0.242484 -0.072750 -0.033333
-0.239935 -0.053857 0.033333
-0.241491 -0.054557 0.016667
-0.241431 -0.055578 0.000000
-0.241497 -0.056480 -0.016667
-0.241598 -0.056990 -0.033333
-0.239047 -0.037753 0.033333
-0.240573 -0.038767 0.016667
-0.240529 -0.039875 0.000000
-0.240589 -0.040742 -0.016667
-0.240691 -0.041248 -0.033333
-0.238160 -0.021648 0.033333
-0.239644 -0.022993 0.016667
-0.239621 -0.024158 0.000000
-0.239657 -0.025030 -0.016667
-0.239774 -0.025489 -0.033333
-0.237273 -0.005543 0.033333
-0.238713 -0.007207 0.016667
-0.238689 -0.008460 0.000000
-0.238725 -0.009303 -0.016667
-0.238830 -0.009750 -0.033333
-0.236386 0.010561 0.033333
-0.237797 0.008581 0.016667
-0.237737 0.007260 0.000000
-0.237784 0.006400 -0.016667
-0.237873 0.006013 -0.033333
-0.235498 0.026666 0.033333
-0.236854 0.024405 0.016667
-0.236787 0.022952 0.000000
-0.236826 0.022142 -0.016667
-0.236909 0.021749 -0.033333
-0.234611 0.042770 0.033333
-0.235918 0.040257 0.016667
-0.235822 0.038676 0.000000
-0.235863 0.037854 -0.016667
-0.235942 0.037529 -0.033333
-0.233724 0.058875 0.033333
-0.234952 0.056118 0.016667
-0.234854 0.054381 0.000000
-0.234904 0.053607 -0.016667
-0.234968 0.053281 -0.033333
-0.232837 0.074980 0.033333
-0.233970 0.071980 0.016667
-0.233903 0.070101 0.000000
-0.233940 0.069341 -0.016667
-0.234013 0.069058 -0.033333
-0.231949 0.091084 0.033333
-0.233010 0.087810 0.016667
-0.232958 0.085804 0.000000
-0.232991 0.085081 -0.016667
-0.233074 0.084819 -0.033333
-0.231062 0.107189 0.033333
-0.232044 0.103603 0.016667
-0.232027 0.101493 0.000000
-0.232062 0.100796 -0.016667
-0.232145 0.100573 -0.033333
-0.230175 0.123293 0.033333
-0.231102 0.119362 0.016667
-0.231109 0.117134 0.000000
-0.231142 0.116496 -0.016667
-0.231242 0.116293 -0.033333
-0.229288 0.139398 0.033333
-0.230148 0.135025 0.016667
-0.230202 0.132741 0.000000
-0.230241 0.132159 -0.016667
-0.230344 0.131978 -0.033333
-0.228400 0.155503 0.033333
-0.229193 0.150632 0.016667
-0.229303 0.148279 0.000000
-0.229342 0.147786 -0.016667
-0.229464 0.147614 -0.033333
-0.227513 0.171607 0.033333
-0.228209 0.166082 0.016667
-0.228418 0.163779 0.000000
-0.228435 0.163359 -0.016667
-0.228592 0.163196 -0.033333
-0.226626 0.187712 0.033333
-0.227257 0.181437 0.016667
-0.227476 0.179229 0.000000
-0.227559 0.178865 -0.016667
-0.227686 0.178738 -0.033333
-0.225738 0.203816 0.033333
-0.226271 0.196676 0.016667
-0.226559 0.194618 0.000000
-0.226638 0.194355 -0.016667
-0.226806 0.194176 -0.033333
-0.224851 0.219921 0.033333
-0.225239 0.211886 0.016667
-0.225571 0.210024 0.000000
-0.225747 0.209723 -0.016667
-0.225882 0.209610 -0.033333
-0.223964 0.236026 0.033333
-0.224262 0.227104 0.016667
-0.224615 0.225418 0.000000
-0.224807 0.225015 -0.016667
-0.225016 0.224978 -0.033333
-0.223077 0.252130 0.033333
-0.223357 0.242084 0.016667
-0.223622 0.240879 0.000000
-0.223986 0.240121 -0.016667
-0.224073 0.240339 -0.033333
-0.222189 0.268235 0.033333
-0.222448 0.256739 0.016667
-0.222944 0.256554 0.000000
-0.222992 0.254667 -0.016667
-0.223379 0.256087 -0.033333
-0.221501 0.281192 0.033333
-0.221877 0.272754 0.016667
-0.222068 0.270247 0.000000
-0.222361 0.270654 -0.016667
-0.222462 0.270237 -0.033333
-0.221152 0.293363 0.033333
-0.221093 0.287365 0.016667
-0.221457 0.284790 0.000000
-0.221622 0.285378 -0.016667
-0.221737 0.285368 -0.033333
-0.220294 0.306617 0.033333
-0.220704 0.301277 0.016667
-0.220831 0.299182 0.000000
-0.220944 0.300026 -0.016667
-0.221083 0.300318 -0.033333
-0.220186 0.319395 0.033333
-0.220187 0.314958 0.016667
-0.220261 0.313417 0.000000
-0.220351 0.314637 -0.016667
-0.220429 0.315205 -0.033333
-0.219732 0.332075 0.033333
-0.219734 0.328545 0.016667
-0.219719 0.327629 0.000000
-0.219791 0.329259 -0.016667
-0.219879 0.330075 -0.033333
-0.219308 0.344983 0.033333
-0.219241 0.342183 0.016667
-0.219236 0.341865 0.000000
-0.219309 0.343982 -0.016667
-0.219385 0.344968 -0.033333
-0.218848 0.358150 0.033333
-0.218812 0.355990 0.016667
-0.218819 0.356211 0.000000
-0.218899 0.358849 -0.016667
-0.218986 0.359945 -0.033333
-0.218462 0.371713 0.033333
-0.218431 0.370022 0.016667
-0.218474 0.370728 0.000000
-0.218576 0.373940 -0.016667
-0.218676 0.375016 -0.033333
-0.218107 0.385763 0.033333
-0.218084 0.384452 0.016667
-0.218184 0.385450 0.000000
-0.218331 0.389370 -0.016667
-0.218488 0.390111 -0.033333
-0.204385 -0.489094 0.033333
-0.205735 -0.503966 0.016667
-0.207223 -0.506418 0.000000
-0.208231 -0.507797 -0.016667
-0.208832 -0.508992 -0.033333
-0.206047 -0.476751 0.033333
-0.206957 -0.488761 0.016667
-0.208030 -0.492730 0.000000
-0.208829 -0.493534 -0.016667
-0.209339 -0.495131 -0.033333
-0.207589 -0.464251 0.033333
-0.208266 -0.474573 0.016667
-0.209079 -0.478798 0.000000
-0.209718 -0.479752 -0.016667
-0.210125 -0.481091 -0.033333
-0.209104 -0.451914 0.033333
-0.209639 -0.460867 0.016667
-0.210287 -0.465027 0.000000
-0.210806 -0.466114 -0.016667
-0.211134 -0.467223 -0.033333
-0.210642 -0.439730 0.033333
-0.211078 -0.447486 0.016667
-0.211612 -0.451440 0.000000
-0.212042 -0.452591 -0.016667
-0.212311 -0.453531 -0.033333
-0.212228 -0.427660 0.033333
-0.212587 -0.434336 0.016667
-0.213033 -0.438006 0.000000
-0.213393 -0.439172 -0.016667
-0.213616 -0.439983 -0.033333
-0.213873 -0.415658 0.033333
-0.214166 -0.421347 0.016667
-0.214535 -0.424687 0.000000
-0.214835 -0.425833 -0.016667
-0.215021 -0.426540 -0.033333
-0.215586 -0.403688 0.033333
-0.215810 -0.408457 0.016667
-0.216106 -0.411440 0.000000
-0.216353 -0.412546 -0.016667
-0.216502 -0.413165 -0.033333
-0.217354 -0.391703 0.033333
-0.217517 -0.395613 0.016667
-0.217738 -0.398225 0.000000
-0.217927 -0.399276 -0.016667
-0.218044 -0.399819 -0.033333
-0.219198 -0.379684 0.033333
-0.219273 -0.382758 0.016667
-0.219416 -0.384999 0.000000
-0.219548 -0.385990 -0.016667
-0.219627 -0.386463 -0.033333
-0.221073 -0.367544 0.033333
-0.221083 -0.369855 0.016667
-0.221130 -0.371722 0.000000
-0.221194 -0.372646 -0.016667
-0.221236 -0.373059 -0.033333
-0.223024 -0.355341 0.033333
-0.222912 -0.356831 0.016667
-0.222862 -0.358345 0.000000
-0.222852 -0.359215 -0.016667
-0.222847 -0.359562 -0.033333
-0.224986 -0.342896 0.033333
-0.224774 -0.343680 0.016667
-0.224591 -0.344838 0.000000
-0.224496 -0.345647 -0.016667
-0.224440 -0.345944 -0.033333
-0.226980 -0.330346 0.033333
-0.226604 -0.330301 0.016667
-0.226295 -0.331144 0.000000
-0.226098 -0.331927 -0.016667
-0.225980 -0.332150 -0.033333
-0.228924 -0.317504 0.033333
-0.228417 -0.316702 0.016667
-0.227919 -0.317252 0.000000
-0.227618 -0.317998 -0.016667
-0.227438 -0.318165 -0.033333
-0.230850 -0.304436 0.033333
-0.230078 -0.302807 0.016667
-0.229435 -0.303086 0.000000
-0.229011 -0.303866 -0.016667
-0.228754 -0.303936 -0.033333
-0.232501 -0.291166 0.033333
-0.231609 -0.288509 0.016667
-0.230732 -0.288676 0.000000
-0.230217 -0.289491 -0.016667
-0.229896 -0.289436 -0.033333
-0.233956 -0.277382 0.033333
-0.232800 -0.273793 0.016667
-0.231742 -0.273985 0.000000
-0.231182 -0.274835 -0.016667
-0.230791 -0.274709 -0.033333
-0.235364 -0.264104 0.033333
-0.233327 -0.257610 0.016667
-0.232488 -0.259873 0.000000
-0.231780 -0.259172 -0.016667
-0.231479 -0.260435 -0.033333
-0.234477 -0.248000 0.033333
-0.233491 -0.242870 0.016667
-0.232697 -0.244122 0.000000
-0.232145 -0.244444 -0.016667
-0.231844 -0.244914 -0.033333
-0.233589 -0.231895 0.033333
-0.233129 -0.227666 0.016667
-0.232622 -0.228498 0.000000
-0.232206 -0.229228 -0.016667
-0.231958 -0.229519 -0.033333
-0.232702 -0.215791 0.033333
-0.232593 -0.212271 0.016667
-0.232327 -0.212883 0.000000
-0.232015 -0.213764 -0.016667
-0.231867 -0.214092 -0.033333
-0.231815 -0.199686 0.033333
-0.231923 -0.196763 0.016667
-0.231903 -0.197257 0.000000
-0.231632 -0.198171 -0.016667
-0.231601 -0.198583 -0.033333
-0.230928 -0.183581 0.033333
-0.231257 -0.181256 0.016667
-0.231348 -0.181541 0.000000
-0.231134 -0.182570 -0.016667
-0.231177 -0.182940 -0.033333
-0.230041 -0.167477 0.033333
-0.230644 -0.165651 0.016667
-0.230659 -0.165862 0.000000
-0.230596 -0.166878 -0.016667
-0.230591 -0.167282 -0.033333
-0.229153 -0.151372 0.033333
-0.229993 -0.149946 0.016667
-0.229947 -0.150195 0.000000
-0.229956 -0.151138 -0.016667
-0.229945 -0.151599 -0.033333
-0.228266 -0.135267 0.033333
-0.229282 -0.134203 0.016667
-0.229201 -0.134500 0.000000
-0.229253 -0.135397 -0.016667
-0.229237 -0.135870 -0.033333
-0.227379 -0.119163 0.033333
-0.228540 -0.118415 0.016667
-0.228419 -0.118794 0.000000
-0.228497 -0.119641 -0.016667
-0.228479 -0.120127 -0.033333
-0.226492 -0.103058 0.033333
-0.227745 -0.102603 0.016667
-0.227608 -0.103075 0.000000
-0.227697 -0.103887 -0.016667
-0.227680 -0.104368 -0.033333
-0.225604 -0.086954 0.033333
-0.226920 -0.086773 0.016667
-0.226764 -0.087351 0.000000
-0.226861 -0.088132 -0.016667
-0.226845 -0.088606 -0.033333
-0.224717 -0.070849 0.033333
-0.226045 -0.070918 0.016667
-0.225892 -0.071641 0.000000
-0.225992 -0.072372 -0.016667
-0.225980 -0.072850 -0.033333
-0.223830 -0.054744 0.033333
-0.225081 -0.055090 0.016667
-0.225034 -0.055935 0.000000
-0.225070 -0.056613 -0.016667
-0.225116 -0.057105 -0.033333
-0.222943 -0.038640 0.033333
-0.224132 -0.039317 0.016667
-0.224146 -0.040189 0.000000
-0.224134 -0.040904 -0.016667
-0.224228 -0.041325 -0.033333
-0.222056 -0.022535 0.033333
-0.223207 -0.023542 0.016667
-0.223222 -0.024471 0.000000
-0.223210 -0.025177 -0.016667
-0.223298 -0.025574 -0.033333
-0.221168 -0.006431 0.033333
-0.222290 -0.007759 0.016667
-0.222288 -0.008753 0.000000
-0.222273 -0.009461 -0.016667
-0.222359 -0.009818 -0.033333
-0.220281 0.009674 0.033333
-0.221373 0.008015 0.016667
-0.221347 0.006963 0.000000
-0.221329 0.006255 -0.016667
-0.221408 0.005932 -0.033333
-0.219394 0.025779 0.033333
-0.220518 0.023805 0.016667
-0.220352 0.022697 0.000000
-0.220417 0.021943 -0.016667
-0.220415 0.021713 -0.033333
-0.218507 0.041883 0.033333
-0.219639 0.039675 0.016667
-0.219362 0.038343 0.000000
-0.219492 0.037718 -0.016667
-0.219423 0.037417 -0.033333
-0.217619 0.057988 0.033333
-0.218654 0.055534 0.016667
-0.218434 0.054032 0.000000
-0.218511 0.053443 -0.016667
-0.218480 0.053174 -0.033333
-0.216732 0.074092 0.033333
-0.217672 0.071350 0.016667
-0.217489 0.069729 0.000000
-0.217540 0.069163 -0.016667
-0.217531 0.068931 -0.033333
-0.215845 0.090197 0.033333
-0.216687 0.087150 0.016667
-0.216543 0.085421 0.000000
-0.216580 0.084871 -0.016667
-0.216582 0.084688 -0.033333
-0.214957 0.106302 0.033333
-0.215708 0.102930 0.016667
-0.215601 0.101078 0.000000
-0.215621 0.100581 -0.016667
-0.215647 0.100420 -0.033333
-0.214070 0.122406 0.033333
-0.214718 0.118654 0.016667
-0.214664 0.116720 0.000000
-0.214672 0.116262 -0.016667
-0.214714 0.116139 -0.033333
-0.213183 0.138511 0.033333
-0.213718 0.134351 0.016667
-0.213730 0.132306 0.000000
-0.213718 0.131933 -0.016667
-0.213793 0.131819 -0.033333
-0.212296 0.154616 0.033333
-0.212686 0.149946 0.016667
-0.212805 0.147867 0.000000
-0.212760 0.147564 -0.016667
-0.212876 0.147467 -0.033333
-0.211408 0.170720 0.033333
-0.211618 0.165497 0.016667
-0.211882 0.163353 0.000000
-0.211788 0.163186 -0.016667
-0.211964 0.163049 -0.033333
-0.210521 0.186825 0.033333
-0.210505 0.180838 0.016667
-0.211012 0.178888 0.000000
-0.210760 0.178718 -0.016667
-0.211085 0.178618 -0.033333
-0.209634 0.202929 0.033333
-0.209612 0.196098 0.016667
-0.209962 0.194456 0.000000
-0.209849 0.194128 -0.016667
-0.210080 0.194209 -0.033333
-0.208747 0.219034 0.033333
-0.208748 0.211457 0.016667
-0.208890 0.209857 0.000000
-0.208923 0.209623 -0.016667
-0.209057 0.209609 -0.033333
-0.207859 0.235138 0.033333
-0.207791 0.226705 0.016667
-0.207823 0.225269 0.000000
-0.207965 0.225004 -0.016667
-0.208035 0.224977 -0.033333
-0.206972 0.251243 0.033333
-0.206778 0.241739 0.016667
-0.206828 0.240787 0.000000
-0.206915 0.240107 -0.016667
-0.207089 0.240442 -0.033333
-0.206085 0.267348 0.033333
-0.205738 0.256221 0.016667
-0.205718 0.256436 0.000000
-0.205947 0.254794 -0.016667
-0.206102 0.256094 -0.033333
-0.204042 0.279671 0.033333
-0.204350 0.272553 0.016667
-0.204733 0.270209 0.000000
-0.204975 0.270679 -0.016667
-0.205162 0.270431 -0.033333
-0.202644 0.293355 0.033333
-0.203315 0.287036 0.016667
-0.203748 0.284787 0.000000
-0.204075 0.285516 -0.016667
-0.204319 0.285465 -0.033333
-0.202070 0.306096 0.033333
-0.202405 0.301119 0.016667
-0.202924 0.299236 0.000000
-0.203294 0.300146 -0.016667
-0.203524 0.300474 -0.033333
-0.201319 0.319099 0.033333
-0.201815 0.314910 0.016667
-0.202251 0.313527 0.000000
-0.202611 0.314761 -0.016667
-0.202876 0.315345 -0.033333
-0.201019 0.332025 0.033333
-0.201329 0.328591 0.016667
-0.201733 0.327736 0.000000
-0.202087 0.329388 -0.016667
-0.202322 0.330196 -0.033333
-0.200747 0.345005 0.033333
-0.201036 0.342275 0.016667
-0.201368 0.341968 0.000000
-0.201693 0.344085 -0.016667
-0.201920 0.345078 -0.033333
-0.200680 0.358207 0.033333
-0.200882 0.356058 0.016667
-0.201166 0.356285 0.000000
-0.201451 0.358931 -0.016667
-0.201639 0.360032 -0.033333
-0.200766 0.371749 0.033333
-0.200921 0.370068 0.016667
-0.201131 0.370771 0.000000
-0.201345 0.373995 -0.016667
-0.201484 0.375086 -0.033333
-0.201070 0.385776 0.033333
-0.201162 0.384461 0.016667
-0.201256 0.385463 0.000000
-0.201362 0.389403 -0.016667
-0.201416 0.390160 -0.033333
-0.186727 -0.489105 0.033333
-0.187805 -0.503953 0.016667
-0.188940 -0.506414 0.000000
-0.189736 -0.507797 -0.016667
-0.190222 -0.508994 -0.033333
-0.187636 -0.476783 0.033333
-0.188517 -0.488764 0.016667
-0.189480 -0.492727 0.000000
-0.190184 -0.493531 -0.016667
-0.190630 -0.495125 -0.033333
-0.188619 -0.464304 0.033333
-0.189382 -0.474594 0.016667
-0.190229 -0.478799 0.000000
-0.190867 -0.479747 -0.016667
-0.191264 -0.481078 -0.033333
-0.189716 -0.451991 0.033333
-0.190394 -0.460908 0.016667
-0.191158 -0.465036 0.000000
-0.191739 -0.466108 -0.016667
-0.192097 -0.467205 -0.033333
-0.190944 -0.439836 0.033333
-0.191552 -0.447548 0.016667
-0.192244 -0.451460 0.000000
-0.192778 -0.452588 -0.016667
-0.193104 -0.453511 -0.033333
-0.192309 -0.427799 0.033333
-0.192852 -0.434425 0.016667
-0.193479 -0.438043 0.000000
-0.193967 -0.439175 -0.016667
-0.194263 -0.439966 -0.033333
-0.193816 -0.415840 0.033333
-0.194291 -0.421469 0.016667
-0.194851 -0.424744 0.000000
-0.195292 -0.425848 -0.016667
-0.195560 -0.426530 -0.033333
-0.195457 -0.403917 0.033333
-0.195865 -0.408619 0.016667
-0.196352 -0.411526 0.000000
-0.196742 -0.412578 -0.016667
-0.196980 -0.413168 -0.033333
-0.197240 -0.391996 0.033333
-0.197565 -0.395821 0.016667
-0.197972 -0.398345 0.000000
-0.198307 -0.399334 -0.016667
-0.198509 -0.399840 -0.033333
-0.199135 -0.380028 0.033333
-0.199388 -0.383027 0.016667
-0.199703 -0.385162 0.000000
-0.199970 -0.386076 -0.016667
-0.200135 -0.386509 -0.033333
-0.201179 -0.368013 0.033333
-0.201311 -0.370178 0.016667
-0.201527 -0.371930 0.000000
-0.201721 -0.372774 -0.016667
-0.201839 -0.373132 -0.033333
-0.203296 -0.355819 0.033333
-0.203342 -0.357247 0.016667
-0.203429 -0.358614 0.000000
-0.203535 -0.359378 -0.016667
-0.203603 -0.359675 -0.033333
-0.205536 -0.343571 0.033333
-0.205426 -0.344144 0.016667
-0.205386 -0.345158 0.000000
-0.205390 -0.345867 -0.016667
-0.205393 -0.346087 -0.033333
-0.207823 -0.331026 0.033333
-0.207577 -0.330879 0.016667
-0.207359 -0.331538 0.000000
-0.207248 -0.332181 -0.016667
-0.207183 -0.332343 -0.033333
-0.210156 -0.318336 0.033333
-0.209702 -0.317332 0.016667
-0.209316 -0.317685 0.000000
-0.209067 -0.318314 -0.016667
-0.208915 -0.318386 -0.033333
-0.212436 -0.305349 0.033333
-0.211805 -0.303492 0.016667
-0.211179 -0.303593 0.000000
-0.210786 -0.304211 -0.016667
-0.210546 -0.304193 -0.033333
-0.214695 -0.291990 0.033333
-0.213746 -0.289278 0.016667
-0.212887 -0.289188 0.000000
-0.212333 -0.289872 -0.016667
-0.211995 -0.289730 -0.033333
-0.216730 -0.278433 0.033333
-0.215521 -0.274486 0.016667
-0.214269 -0.274545 0.000000
-0.213651 -0.275245 -0.016667
-0.213185 -0.274994 -0.033333
-0.219259 -0.264992 0.033333
-0.216457 -0.258356 0.016667
-0.215426 -0.260437 0.000000
-0.214507 -0.259563 -0.016667
-0.214193 -0.260771 -0.033333
-0.218372 -0.248887 0.033333
-0.216951 -0.243577 0.016667
-0.215856 -0.244685 0.000000
-0.215168 -0.244852 -0.016667
-0.214747 -0.245224 -0.033333
-0.217485 -0.232782 0.033333
-0.216693 -0.228385 0.016667
-0.215973 -0.229051 0.000000
-0.215390 -0.229623 -0.016667
-0.215073 -0.229836 -0.033333
-0.216598 -0.216678 0.033333
-0.216191 -0.212967 0.016667
-0.215774 -0.213431 0.000000
-0.215341 -0.214150 -0.016667
-0.215110 -0.214395 -0.033333
-0.215710 -0.200573 0.033333
-0.215549 -0.197377 0.016667
-0.215403 -0.197851 0.000000
-0.215052 -0.198487 -0.016667
-0.214942 -0.198931 -0.033333
-0.214646 -0.184059 0.033333
-0.214914 -0.182054 0.016667
-0.214860 -0.181984 0.000000
-0.214637 -0.182985 -0.016667
-0.214570 -0.183177 -0.033333
-0.213922 -0.168041 0.033333
-0.214224 -0.166364 0.016667
-0.214261 -0.166342 0.000000
-0.214087 -0.167237 -0.016667
-0.214080 -0.167552 -0.033333
-0.213094 -0.152036 0.033333
-0.213549 -0.150657 0.016667
-0.213589 -0.150660 0.000000
-0.213461 -0.151495 -0.016667
-0.213480 -0.151853 -0.033333
-0.212287 -0.136003 0.033333
-0.212836 -0.134897 0.016667
-0.212878 -0.134966 0.000000
-0.212761 -0.135737 -0.016667
-0.212808 -0.136127 -0.033333
-0.211438 -0.119949 0.033333
-0.212076 -0.119104 0.016667
-0.212123 -0.119254 0.000000
-0.212007 -0.119981 -0.016667
-0.212073 -0.120373 -0.033333
-0.210601 -0.103860 0.033333
-0.211286 -0.103284 0.016667
-0.211324 -0.103531 0.000000
-0.211208 -0.104222 -0.016667
-0.211287 -0.104614 -0.033333
-0.209716 -0.087756 0.033333
-0.210454 -0.087434 0.016667
-0.210484 -0.087809 0.000000
-0.210370 -0.088464 -0.016667
-0.210458 -0.088848 -0.033333
-0.208891 -0.071603 0.033333
-0.209556 -0.071602 0.016667
-0.209608 -0.072082 0.000000
-0.209499 -0.072709 -0.016667
-0.209594 -0.073086 -0.033333
-0.207725 -0.055632 0.033333
-0.208666 -0.055705 0.016667
-0.208680 -0.056411 0.000000
-0.208621 -0.056921 -0.016667
-0.208684 -0.057362 -0.033333
-0.206838 -0.039527 0.033333
-0.207733 -0.039960 0.016667
-0.207750 -0.040645 0.000000
-0.207711 -0.041221 -0.016667
-0.207764 -0.041574 -0.033333
-0.205951 -0.023423 0.033333
-0.206809 -0.024178 0.016667
-0.206822 -0.024921 0.000000
-0.206777 -0.025500 -0.016667
-0.206838 -0.025817 -0.033333
-0.205064 -0.007318 0.033333
-0.205884 -0.008411 0.016667
-0.205887 -0.009203 0.000000
-0.205837 -0.009780 -0.016667
-0.205897 -0.010069 -0.033333
-0.204176 0.008787 0.033333
-0.204985 0.007356 0.016667
-0.204933 0.006514 0.000000
-0.204901 0.005925 -0.016667
-0.204938 0.005684 -0.033333
-0.203289 0.024891 0.033333
-0.204087 0.023039 0.016667
-0.203990 0.022294 0.000000
-0.203944 0.021564 -0.016667
-0.203988 0.021494 -0.033333
-0.202680 0.040561 0.033333
-0.203116 0.039029 0.016667
-0.203069 0.037839 0.000000
-0.202972 0.037388 -0.016667
-0.203040 0.037139 -0.033333
-0.201679 0.056551 0.033333
-0.202198 0.054803 0.016667
-0.202111 0.053533 0.000000
-0.202013 0.053085 -0.016667
-0.202081 0.052895 -0.033333
-0.200799 0.072526 0.033333
-0.201227 0.070598 0.016667
-0.201156 0.069210 0.000000
-0.201053 0.068784 -0.016667
-0.201116 0.068645 -0.033333
-0.199880 0.088540 0.033333
-0.200263 0.086369 0.016667
-0.200192 0.084874 0.000000
-0.200092 0.084486 -0.016667
-0.200155 0.084380 -0.033333
-0.198971 0.104546 0.033333
-0.199289 0.102121 0.016667
-0.199224 0.100525 0.000000
-0.199134 0.100175 -0.016667
-0.199191 0.100109 -0.033333
-0.198050 0.120578 0.033333
-0.198308 0.117853 0.016667
-0.198251 0.116143 0.000000
-0.198171 0.115861 -0.016667
-0.198229 0.115814 -0.033333
-0.197127 0.136605 0.033333
-0.197306 0.133534 0.016667
-0.197275 0.131741 0.000000
-0.197207 0.131527 -0.016667
-0.197263 0.131499 -0.033333
-0.196167 0.152657 0.033333
-0.196289 0.149195 0.016667
-0.196286 0.147287 0.000000
-0.196236 0.147190 -0.016667
-0.196291 0.147140 -0.033333
-0.195245 0.168748 0.033333
-0.195221 0.164766 0.016667
-0.195317 0.162822 0.000000
-0.195241 0.162824 -0.016667
-0.195320 0.162745 -0.033333
-0.194089 0.184891 0.033333
-0.194251 0.180372 0.016667
-0.194297 0.178265 0.000000
-0.194262 0.178486 -0.016667
-0.194311 0.178249 -0.033333
-0.193529 0.202042 0.033333
-0.193244 0.195285 0.016667
-0.193322 0.194179 0.000000
-0.193209 0.193697 -0.016667
-0.193330 0.194076 -0.033333
-0.192642 0.218147 0.033333
-0.192325 0.210861 0.016667
-0.192234 0.209480 0.000000
-0.192202 0.209356 -0.016667
-0.192248 0.209392 -0.033333
-0.191755 0.234251 0.033333
-0.191328 0.226158 0.016667
-0.191156 0.224948 0.000000
-0.191107 0.224745 -0.016667
-0.191183 0.224827 -0.033333
-0.190867 0.250356 0.033333
-0.190280 0.241202 0.016667
-0.189942 0.240427 0.000000
-0.190017 0.239945 -0.016667
-0.190050 0.240258 -0.033333
-0.189980 0.266460 0.033333
-0.188800 0.255742 0.016667
-0.188754 0.256157 0.000000
-0.188778 0.254582 -0.016667
-0.189019 0.256028 -0.033333
-0.186652 0.279258 0.033333
-0.187167 0.271953 0.016667
-0.187365 0.269936 0.000000
-0.187688 0.270574 -0.016667
-0.187880 0.270302 -0.033333
-0.184937 0.292284 0.033333
-0.185486 0.286639 0.016667
-0.186152 0.284587 0.000000
-0.186586 0.285374 -0.016667
-0.186901 0.285448 -0.033333
-0.183542 0.305714 0.033333
-0.184366 0.300770 0.016667
-0.185093 0.299074 0.000000
-0.185648 0.300082 -0.016667
-0.186033 0.300423 -0.033333
-0.182912 0.318679 0.033333
-0.183532 0.314666 0.016667
-0.184298 0.313418 0.000000
-0.184916 0.314714 -0.016667
-0.185303 0.315334 -0.033333
-0.182408 0.331728 0.033333
-0.183061 0.328433 0.016667
-0.183771 0.327680 0.000000
-0.184379 0.329362 -0.016667
-0.184783 0.330193 -0.033333
-0.182335 0.344831 0.033333
-0.182852 0.342180 0.016667
-0.183503 0.341936 0.000000
-0.184078 0.344077 -0.016667
-0.184439 0.345081 -0.033333
-0.182520 0.358111 0.033333
-0.182964 0.356020 0.016667
-0.183500 0.356273 0.000000
-0.183987 0.358927 -0.016667
-0.184289 0.360041 -0.033333
-0.183084 0.371704 0.033333
-0.183389 0.370047 0.016667
-0.183768 0.370764 0.000000
-0.184103 0.373993 -0.016667
-0.184279 0.375093 -0.033333
-0.184023 0.385762 0.033333
-0.184229 0.384458 0.016667
-0.184312 0.385460 0.000000
-0.184378 0.389397 -0.016667
-0.184337 0.390169 -0.033333
-0.169035 -0.489105 0.033333
-0.169866 -0.503895 0.016667
-0.170659 -0.506365 0.000000
-0.171252 -0.507745 -0.016667
-0.171628 -0.508947 -0.033333
-0.169193 -0.476789 0.033333
-0.170062 -0.488719 0.016667
-0.170932 -0.492670 0.000000
-0.171551 -0.493472 -0.016667
-0.171938 -0.495060 -0.033333
-0.169612 -0.464324 0.033333
-0.170481 -0.474561 0.016667
-0.171380 -0.478739 0.000000
-0.172025 -0.479679 -0.016667
-0.172419 -0.480999 -0.033333
-0.170283 -0.452031 0.033333
-0.171127 -0.460890 0.016667
-0.172023 -0.464979 0.000000
-0.172679 -0.466033 -0.016667
-0.173075 -0.467116 -0.033333
-0.171192 -0.439903 0.033333
-0.171994 -0.447551 0.016667
-0.172866 -0.451411 0.000000
-0.173516 -0.452511 -0.016667
-0.173906 -0.453416 -0.033333
-0.172327 -0.427901 0.033333
-0.173075 -0.434455 0.016667
-0.173905 -0.438008 0.000000
-0.174535 -0.439102 -0.016667
-0.174913 -0.439869 -0.033333
-0.173676 -0.415985 0.033333
-0.174363 -0.421535 0.016667
-0.175138 -0.424733 0.000000
-0.175734 -0.425787 -0.016667
-0.176093 -0.426440 -0.033333
-0.175238 -0.404117 0.033333
-0.175850 -0.408729 0.016667
-0.176555 -0.411546 0.000000
-0.177108 -0.412538 -0.016667
-0.177440 -0.413092 -0.033333
-0.176997 -0.392259 0.033333
-0.177532 -0.395988 0.016667
-0.178153 -0.398407 0.000000
-0.178648 -0.399322 -0.016667
-0.178948 -0.399787 -0.033333
-0.178967 -0.380379 0.033333
-0.179394 -0.383256 0.016667
-0.179919 -0.385273 0.000000
-0.180347 -0.386105 -0.016667
-0.180605 -0.386486 -0.033333
-0.181093 -0.368408 0.033333
-0.181438 -0.370490 0.016667
-0.181844 -0.372104 0.000000
-0.182185 -0.372844 -0.016667
-0.182398 -0.373151 -0.033333
-0.183439 -0.356401 0.033333
-0.183624 -0.357621 0.016667
-0.183904 -0.358847 0.000000
-0.184151 -0.359510 -0.016667
-0.184300 -0.359734 -0.033333
-0.185898 -0.344127 0.033333
-0.185968 -0.344640 0.016667
-0.186078 -0.345471 0.000000
-0.186208 -0.346046 -0.016667
-0.186290 -0.346205 -0.033333
-0.188513 -0.331799 0.033333
-0.188391 -0.331418 0.016667
-0.188332 -0.331909 0.000000
-0.188324 -0.332434 -0.016667
-0.188317 -0.332502 -0.033333
-0.191217 -0.319125 0.033333
-0.190905 -0.317986 0.016667
-0.190611 -0.318139 0.000000
-0.190443 -0.318610 -0.016667
-0.190339 -0.318606 -0.033333
-0.193990 -0.306206 0.033333
-0.193404 -0.304191 0.016667
-0.192861 -0.304085 0.000000
-0.192499 -0.304569 -0.016667
-0.192276 -0.304455 -0.033333
-0.196761 -0.292967 0.033333
-0.195868 -0.290002 0.016667
-0.194972 -0.289740 0.000000
-0.194406 -0.290267 -0.016667
-0.194055 -0.290024 -0.033333
-0.199529 -0.279262 0.033333
-0.198183 -0.275266 0.016667
-0.196782 -0.275101 0.000000
-0.196075 -0.275668 -0.016667
-0.195561 -0.275326 -0.033333
-0.203155 -0.265879 0.033333
-0.199614 -0.259077 0.016667
-0.198311 -0.261026 0.000000
-0.197254 -0.260000 -0.016667
-0.196853 -0.261114 -0.033333
-0.202267 -0.249774 0.033333
-0.200403 -0.244303 0.016667
-0.199029 -0.245273 0.000000
-0.198161 -0.245286 -0.016667
-0.197667 -0.245590 -0.033333
-0.201380 -0.233670 0.033333
-0.200266 -0.229106 0.016667
-0.199314 -0.229633 0.000000
-0.198592 -0.230066 -0.016667
-0.198172 -0.230191 -0.033333
-0.200493 -0.217565 0.033333
-0.199829 -0.213664 0.016667
-0.199228 -0.214019 0.000000
-0.198670 -0.214573 -0.016667
-0.198366 -0.214765 -0.033333
-0.199606 -0.201460 0.033333
-0.199218 -0.198079 0.016667
-0.198897 -0.198422 0.000000
-0.198495 -0.198911 -0.016667
-0.198282 -0.199291 -0.033333
-0.198506 -0.184998 0.033333
-0.198564 -0.182728 0.016667
-0.198414 -0.182540 0.000000
-0.198122 -0.183407 -0.016667
-0.198000 -0.183530 -0.033333
-0.197674 -0.168878 0.033333
-0.197880 -0.167082 0.016667
-0.197827 -0.166869 0.000000
-0.197623 -0.167664 -0.016667
-0.197549 -0.167892 -0.033333
-0.196939 -0.152853 0.033333
-0.197199 -0.151346 0.016667
-0.197182 -0.151195 0.000000
-0.197019 -0.151903 -0.016667
-0.196986 -0.152205 -0.033333
-0.196154 -0.136821 0.033333
-0.196489 -0.135587 0.016667
-0.196482 -0.135496 0.000000
-0.196340 -0.136148 -0.016667
-0.196331 -0.136472 -0.033333
-0.195376 -0.120753 0.033333
-0.195748 -0.119791 0.016667
-0.195735 -0.119784 0.000000
-0.195598 -0.120389 -0.016667
-0.195607 -0.120726 -0.033333
-0.194543 -0.104679 0.033333
-0.194957 -0.103966 0.016667
-0.194941 -0.104065 0.000000
-0.194805 -0.104635 -0.016667
-0.194827 -0.104964 -0.033333
-0.193720 -0.088571 0.033333
-0.194129 -0.088140 0.016667
-0.194098 -0.088338 0.000000
-0.193971 -0.088882 -0.016667
-0.193999 -0.089204 -0.033333
-0.192826 -0.072519 0.033333
-0.193229 -0.072283 0.016667
-0.193211 -0.072622 0.000000
-0.193105 -0.073134 -0.016667
-0.193130 -0.073441 -0.033333
-0.191621 -0.056519 0.033333
-0.192302 -0.056430 0.016667
-0.192296 -0.056931 0.000000
-0.192205 -0.057362 -0.016667
-0.192236 -0.057713 -0.033333
-0.190733 -0.040414 0.033333
-0.191354 -0.040642 0.016667
-0.191361 -0.041192 0.000000
-0.191287 -0.041648 -0.016667
-0.191317 -0.041940 -0.033333
-0.189846 -0.024310 0.033333
-0.190428 -0.024881 0.016667
-0.190419 -0.025458 0.000000
-0.190353 -0.025932 -0.016667
-0.190382 -0.026187 -0.033333
-0.188959 -0.008205 0.033333
-0.189508 -0.009099 0.016667
-0.189471 -0.009746 0.000000
-0.189410 -0.010217 -0.016667
-0.189436 -0.010443 -0.033333
-0.188072 0.007899 0.033333
-0.188574 0.006636 0.016667
-0.188530 0.005980 0.000000
-0.188456 0.005472 -0.016667
-0.188486 0.005310 -0.033333
-0.187184 0.024004 0.033333
-0.187664 0.022357 0.016667
-0.187585 0.021714 0.000000
-0.187498 0.021126 -0.016667
-0.187532 0.021092 -0.033333
-0.186427 0.039805 0.033333
-0.186733 0.038254 0.016667
-0.186641 0.037271 0.000000
-0.186540 0.036926 -0.016667
-0.186572 0.036733 -0.033333
-0.185575 0.055634 0.033333
-0.185797 0.054047 0.016667
-0.185690 0.052934 0.000000
-0.185580 0.052609 -0.016667
-0.185609 0.052483 -0.033333
-0.184647 0.071625 0.033333
-0.184853 0.069784 0.016667
-0.184731 0.068600 0.000000
-0.184616 0.068296 -0.016667
-0.184646 0.068216 -0.033333
-0.183749 0.087578 0.033333
-0.183895 0.085541 0.016667
-0.183764 0.084252 0.000000
-0.183652 0.083979 -0.016667
-0.183676 0.083948 -0.033333
-0.182828 0.103598 0.033333
-0.182926 0.101277 0.016667
-0.182789 0.099888 0.000000
-0.182681 0.099665 -0.016667
-0.182704 0.099663 -0.033333
-0.181902 0.119602 0.033333
-0.181943 0.116997 0.016667
-0.181806 0.115510 0.000000
-0.181705 0.115340 -0.016667
-0.181726 0.115370 -0.033333
-0.180954 0.135649 0.033333
-0.180943 0.132704 0.016667
-0.180809 0.131101 0.000000
-0.180720 0.131015 -0.016667
-0.180739 0.131051 -0.033333
-0.180017 0.151721 0.033333
-0.179917 0.148366 0.016667
-0.179811 0.146676 0.000000
-0.179720 0.146677 -0.016667
-0.179743 0.146707 -0.033333
-0.179006 0.167837 0.033333
-0.178907 0.164042 0.016667
-0.178790 0.162193 0.000000
-0.178711 0.162353 -0.016667
-0.178729 0.162306 -0.033333
-0.178117 0.184241 0.033333
-0.177890 0.179568 0.016667
-0.177785 0.177730 0.000000
-0.177669 0.178004 -0.016667
-0.177697 0.177852 -0.033333
-0.177425 0.201155 0.033333
-0.176969 0.194627 0.016667
-0.176704 0.193624 0.000000
-0.176631 0.193274 -0.016667
-0.176610 0.193674 -0.033333
-0.176537 0.217259 0.033333
-0.175958 0.210175 0.016667
-0.175647 0.209019 0.000000
-0.175502 0.208910 -0.016667
-0.175511 0.209061 -0.033333
-0.175650 0.233364 0.033333
-0.174917 0.225529 0.016667
-0.174463 0.224452 0.000000
-0.174349 0.224380 -0.016667
-0.174330 0.224473 -0.033333
-0.174763 0.249469 0.033333
-0.173725 0.240574 0.016667
-0.173178 0.239996 0.000000
-0.173085 0.239561 -0.016667
-0.173129 0.239977 -0.033333
-0.173875 0.265573 0.033333
-0.172061 0.255152 0.016667
-0.171706 0.255675 0.000000
-0.171759 0.254300 -0.016667
-0.171895 0.255700 -0.033333
-0.169520 0.278175 0.033333
-0.169924 0.271420 0.016667
-0.170118 0.269555 0.000000
-0.170423 0.270237 -0.016667
-0.170661 0.270094 -0.033333
-0.167074 0.291798 0.033333
-0.167897 0.286080 0.016667
-0.168607 0.284228 0.000000
-0.169149 0.285127 -0.016667
-0.169544 0.285209 -0.033333
-0.165554 0.304929 0.033333
-0.166382 0.300325 0.016667
-0.167342 0.298785 0.000000
-0.168077 0.299844 -0.016667
-0.168553 0.300257 -0.033333
-0.164461 0.318218 0.033333
-0.165420 0.314311 0.016667
-0.166423 0.313183 0.000000
-0.167247 0.314536 -0.016667
-0.167790 0.315177 -0.033333
-0.164053 0.331337 0.033333
-0.164868 0.328163 0.016667
-0.165866 0.327502 0.000000
-0.166721 0.329220 -0.016667
-0.167255 0.330076 -0.033333
-0.164000 0.344560 0.033333
-0.164771 0.342000 0.016667
-0.165679 0.341815 0.000000
-0.166482 0.343970 -0.016667
-0.166989 0.344989 -0.033333
-0.164477 0.357933 0.033333
-0.165088 0.355901 0.016667
-0.165858 0.356193 0.000000
-0.166544 0.358850 -0.016667
-0.166946 0.359972 -0.033333
-0.165445 0.371612 0.033333
-0.165894 0.369994 0.016667
-0.166419 0.370720 0.000000
-0.166866 0.373937 -0.016667
-0.167086 0.375044 -0.033333
-0.167011 0.385729 0.033333
-0.167307 0.384438 0.016667
-0.167377 0.385443 0.000000
-0.167401 0.389356 -0.016667
-0.167261 0.390136 -0.033333
-0.151325 -0.489090 0.033333
-0.151927 -0.503785 0.016667
-0.152391 -0.506265 0.000000
-0.152789 -0.507634 -0.016667
-0.153061 -0.508840 -0.033333
-0.150726 -0.476762 0.033333
-0.151604 -0.488613 0.016667
-0.152396 -0.492548 0.000000
-0.152940 -0.493346 -0.016667
-0.153275 -0.494924 -0.033333
-0.150574 -0.464299 0.033333
-0.151569 -0.474458 0.016667
-0.152538 -0.478604 0.000000
-0.153204 -0.479533 -0.016667
-0.153601 -0.480839 -0.033333
-0.150811 -0.452016 0.033333
-0.151842 -0.460794 0.016667
-0.152892 -0.464836 0.000000
-0.153635 -0.465871 -0.016667
-0.154075 -0.466936 -0.033333
-0.151391 -0.439907 0.033333
-0.152411 -0.447468 0.016667
-0.153483 -0.451268 0.000000
-0.154264 -0.452338 -0.016667
-0.154726 -0.453222 -0.033333
-0.152279 -0.427933 0.033333
-0.153261 -0.434395 0.016667
-0.154318 -0.437874 0.000000
-0.155105 -0.438926 -0.016667
-0.155573 -0.439667 -0.033333
-0.153459 -0.416057 0.033333
-0.154382 -0.421507 0.016667
-0.155397 -0.424617 0.000000
-0.156166 -0.425618 -0.016667
-0.156626 -0.426239 -0.033333
-0.154914 -0.404240 0.033333
-0.155767 -0.408747 0.016667
-0.156718 -0.411460 0.000000
-0.157449 -0.412387 -0.016667
-0.157889 -0.412902 -0.033333
-0.156645 -0.392451 0.033333
-0.157407 -0.396062 0.016667
-0.158275 -0.398363 0.000000
-0.158954 -0.399201 -0.016667
-0.159361 -0.399620 -0.033333
-0.158628 -0.380646 0.033333
-0.159301 -0.383403 0.016667
-0.160064 -0.385286 0.000000
-0.160669 -0.386024 -0.016667
-0.161037 -0.386354 -0.033333
-0.160900 -0.368805 0.033333
-0.161427 -0.370714 0.016667
-0.162069 -0.372180 0.000000
-0.162589 -0.372820 -0.016667
-0.162901 -0.373060 -0.033333
-0.163361 -0.356801 0.033333
-0.163795 -0.357957 0.016667
-0.164281 -0.359007 0.000000
-0.164687 -0.359540 -0.016667
-0.164940 -0.359704 -0.033333
-0.166111 -0.344794 0.033333
-0.166342 -0.345033 0.016667
-0.166667 -0.345702 0.000000
-0.166946 -0.346158 -0.016667
-0.167112 -0.346225 -0.033333
-0.169036 -0.332414 0.033333
-0.169099 -0.331964 0.016667
-0.169195 -0.332236 0.000000
-0.169313 -0.332603 -0.016667
-0.169385 -0.332600 -0.033333
-0.172142 -0.319937 0.033333
-0.171963 -0.318564 0.016667
-0.171817 -0.318531 0.000000
-0.171740 -0.318865 -0.016667
-0.171688 -0.318755 -0.033333
-0.175409 -0.307074 0.033333
-0.174934 -0.304883 0.016667
-0.174452 -0.304559 0.000000
-0.174144 -0.304876 -0.016667
-0.173950 -0.304671 -0.033333
-0.178803 -0.293832 0.033333
-0.177906 -0.290726 0.016667
-0.177007 -0.290255 0.000000
-0.176420 -0.290631 -0.016667
-0.176064 -0.290291 -0.033333
-0.182299 -0.280212 0.033333
-0.180833 -0.276011 0.016667
-0.179242 -0.275651 0.000000
-0.178472 -0.276079 -0.016667
-0.177890 -0.275619 -0.033333
-0.187050 -0.266766 0.033333
-0.182747 -0.259802 0.016667
-0.181202 -0.261610 0.000000
-0.179953 -0.260412 -0.016667
-0.179512 -0.261461 -0.033333
-0.186163 -0.250661 0.033333
-0.183866 -0.245028 0.016667
-0.182176 -0.245854 0.000000
-0.181161 -0.245726 -0.016667
-0.180554 -0.245939 -0.033333
-0.185275 -0.234557 0.033333
-0.183848 -0.229813 0.016667
-0.182663 -0.230218 0.000000
-0.181776 -0.230506 -0.016667
-0.181279 -0.230559 -0.033333
-0.184388 -0.218452 0.033333
-0.183478 -0.214383 0.016667
-0.182676 -0.214597 0.000000
-0.182010 -0.215019 -0.016667
-0.181609 -0.215133 -0.033333
-0.183501 -0.202348 0.033333
-0.182890 -0.198769 0.016667
-0.182426 -0.199004 0.000000
-0.181912 -0.199346 -0.016667
-0.181651 -0.199673 -0.033333
-0.182317 -0.185832 0.033333
-0.182245 -0.183459 0.016667
-0.181960 -0.183097 0.000000
-0.181623 -0.183854 -0.016667
-0.181423 -0.183903 -0.033333
-0.181501 -0.169707 0.033333
-0.181556 -0.167778 0.016667
-0.181407 -0.167424 0.000000
-0.181153 -0.168108 -0.016667
-0.181031 -0.168272 -0.033333
-0.180753 -0.153642 0.033333
-0.180871 -0.152050 0.016667
-0.180772 -0.151743 0.000000
-0.180579 -0.152351 -0.016667
-0.180494 -0.152586 -0.033333
-0.180033 -0.137574 0.033333
-0.180178 -0.136274 0.016667
-0.180081 -0.136048 0.000000
-0.179915 -0.136594 -0.016667
-0.179859 -0.136867 -0.033333
-0.179256 -0.121524 0.033333
-0.179431 -0.120475 0.016667
-0.179340 -0.120341 0.000000
-0.179184 -0.120846 -0.016667
-0.179145 -0.121121 -0.033333
-0.178477 -0.105446 0.033333
-0.178653 -0.104669 0.016667
-0.178545 -0.104627 0.000000
-0.178398 -0.105098 -0.016667
-0.178369 -0.105375 -0.033333
-0.177622 -0.089403 0.033333
-0.177813 -0.088838 0.016667
-0.177702 -0.088914 0.000000
-0.177565 -0.089360 -0.016667
-0.177544 -0.089617 -0.033333
-0.176728 -0.073365 0.033333
-0.176910 -0.073029 0.016667
-0.176816 -0.073194 0.000000
-0.176695 -0.073624 -0.016667
-0.176679 -0.073866 -0.033333
-0.175516 -0.057406 0.033333
-0.175961 -0.057141 0.016667
-0.175900 -0.057526 0.000000
-0.175793 -0.057855 -0.016667
-0.175784 -0.058148 -0.033333
-0.174629 -0.041302 0.033333
-0.175002 -0.041383 0.016667
-0.174963 -0.041776 0.000000
-0.174868 -0.042151 -0.016667
-0.174866 -0.042384 -0.033333
-0.173742 -0.025197 0.033333
-0.174069 -0.025583 0.016667
-0.174013 -0.026058 0.000000
-0.173926 -0.026436 -0.016667
-0.173930 -0.026641 -0.033333
-0.172854 -0.009092 0.033333
-0.173124 -0.009835 0.016667
-0.173061 -0.010334 0.000000
-0.172975 -0.010734 -0.016667
-0.172979 -0.010902 -0.033333
-0.171967 0.007012 0.033333
-0.172196 0.005926 0.016667
-0.172100 0.005369 0.000000
-0.172019 0.004956 -0.016667
-0.172022 0.004835 -0.033333
-0.171080 0.023117 0.033333
-0.171250 0.021622 0.016667
-0.171154 0.021100 0.000000
-0.171054 0.020599 -0.016667
-0.171067 0.020605 -0.033333
-0.170236 0.038875 0.033333
-0.170329 0.037541 0.016667
-0.170197 0.036641 0.000000
-0.170099 0.036380 -0.016667
-0.170100 0.036247 -0.033333
-0.169362 0.054833 0.033333
-0.169398 0.053279 0.016667
-0.169248 0.052299 0.000000
-0.169135 0.052057 -0.016667
-0.169139 0.051974 -0.033333
-0.168484 0.070713 0.033333
-0.168473 0.069044 0.016667
-0.168285 0.067948 0.000000
-0.168175 0.067728 -0.016667
-0.168169 0.067705 -0.033333
-0.167585 0.086727 0.033333
-0.167521 0.084773 0.016667
-0.167323 0.083593 0.000000
-0.167203 0.083405 -0.016667
-0.167199 0.083420 -0.033333
-0.166668 0.102690 0.033333
-0.166566 0.100518 0.016667
-0.166345 0.099225 0.000000
-0.166226 0.099079 -0.016667
-0.166220 0.099134 -0.033333
-0.165743 0.118729 0.033333
-0.165584 0.116245 0.016667
-0.165357 0.114842 0.000000
-0.165238 0.114755 -0.016667
-0.165231 0.114832 -0.033333
-0.164806 0.134763 0.033333
-0.164591 0.131954 0.016667
-0.164358 0.130445 0.000000
-0.164237 0.130425 -0.016667
-0.164231 0.130518 -0.033333
-0.163848 0.150854 0.033333
-0.163587 0.147662 0.016667
-0.163340 0.146014 0.000000
-0.163223 0.146102 -0.016667
-0.163212 0.146173 -0.033333
-0.162927 0.167045 0.033333
-0.162572 0.163306 0.016667
-0.162323 0.161568 0.000000
-0.162182 0.161782 -0.016667
-0.162175 0.161782 -0.033333
-0.162027 0.183334 0.033333
-0.161603 0.178908 0.016667
-0.161262 0.177102 0.000000
-0.161135 0.177451 -0.016667
-0.161086 0.177342 -0.033333
-0.161320 0.200267 0.033333
-0.160642 0.193929 0.016667
-0.160203 0.193037 0.000000
-0.160013 0.192734 -0.016667
-0.159984 0.193183 -0.033333
-0.160433 0.216372 0.033333
-0.159622 0.209502 0.016667
-0.159055 0.208426 0.000000
-0.158865 0.208408 -0.016667
-0.158786 0.208572 -0.033333
-0.159545 0.232477 0.033333
-0.158494 0.224835 0.016667
-0.157840 0.223912 0.000000
-0.157589 0.223866 -0.016667
-0.157551 0.224034 -0.033333
-0.158658 0.248581 0.033333
-0.157239 0.239933 0.016667
-0.156384 0.239421 0.000000
-0.156245 0.239112 -0.016667
-0.156205 0.239520 -0.033333
-0.157771 0.264686 0.033333
-0.155263 0.254499 0.016667
-0.154789 0.255171 0.000000
-0.154711 0.253833 -0.016667
-0.154881 0.255310 -0.033333
-0.152433 0.277460 0.033333
-0.152827 0.270779 0.016667
-0.152889 0.269051 0.000000
-0.153237 0.269839 -0.016667
-0.153478 0.269693 -0.033333
-0.149532 0.290853 0.033333
-0.150328 0.285511 0.016667
-0.151152 0.283797 0.000000
-0.151775 0.284725 -0.016667
-0.152231 0.284888 -0.033333
-0.147486 0.304379 0.033333
-0.148570 0.299817 0.016667
-0.149672 0.298395 0.000000
-0.150557 0.299516 -0.016667
-0.151146 0.299943 -0.033333
-0.146349 0.317600 0.033333
-0.147389 0.313882 0.016667
-0.148627 0.312864 0.000000
-0.149656 0.314246 -0.016667
-0.150309 0.314923 -0.033333
-0.145748 0.330918 0.033333
-0.146814 0.327841 0.016667
-0.148042 0.327250 0.000000
-0.149106 0.328988 -0.016667
-0.149789 0.329856 -0.033333
-0.145849 0.344230 0.033333
-0.146765 0.341758 0.016667
-0.147918 0.341629 0.000000
-0.148941 0.343787 -0.016667
-0.149569 0.344815 -0.033333
-0.146516 0.357728 0.033333
-0.147302 0.355754 0.016667
-0.148269 0.356070 0.000000
-0.149134 0.358712 -0.016667
-0.149643 0.359837 -0.033333
-0.147901 0.371491 0.033333
-0.148449 0.369913 0.016667
-0.149107 0.370648 0.000000
-0.149662 0.373839 -0.016667
-0.149916 0.374943 -0.033333
-0.150045 0.385690 0.033333
-0.150421 0.384416 0.016667
-0.150467 0.385416 0.000000
-0.150442 0.389283 -0.016667
-0.150210 0.390068 -0.033333
-0.133619 -0.489059 0.033333
-0.134001 -0.503616 0.016667
-0.134148 -0.506106 0.000000
-0.134362 -0.507454 -0.016667
-0.134534 -0.508664 -0.033333
-0.132248 -0.476695 0.033333
-0.133153 -0.488439 0.016667
-0.133886 -0.492349 0.000000
-0.134366 -0.493141 -0.016667
-0.134654 -0.494702 -0.033333
-0.131518 -0.464216 0.033333
-0.132661 -0.474271 0.016667
-0.133720 -0.478377 0.000000
-0.134418 -0.479294 -0.016667
-0.134824 -0.480582 -0.033333
-0.131314 -0.451927 0.033333
-0.132554 -0.460598 0.016667
-0.133779 -0.464587 0.000000
-0.134622 -0.465601 -0.016667
-0.135113 -0.466645 -0.033333
-0.131551 -0.439820 0.033333
-0.132814 -0.447272 0.016667
-0.134110 -0.451005 0.000000
-0.135034 -0.452043 -0.016667
-0.135577 -0.452904 -0.033333
-0.132179 -0.427861 0.033333
-0.133419 -0.434209 0.016667
-0.134728 -0.437606 0.000000
-0.135687 -0.438617 -0.016667
-0.136254 -0.439330 -0.033333
-0.133165 -0.416013 0.033333
-0.134357 -0.421344 0.016667
-0.135640 -0.424358 0.000000
-0.136598 -0.425305 -0.016667
-0.137168 -0.425893 -0.033333
-0.134499 -0.404244 0.033333
-0.135618 -0.408623 0.016667
-0.136846 -0.411225 0.000000
-0.137777 -0.412083 -0.016667
-0.138333 -0.412559 -0.033333
-0.136163 -0.392516 0.033333
-0.137200 -0.395994 0.016667
-0.138346 -0.398167 0.000000
-0.139226 -0.398922 -0.016667
-0.139756 -0.399294 -0.033333
-0.138171 -0.380795 0.033333
-0.139094 -0.383407 0.016667
-0.140134 -0.385144 0.000000
-0.140946 -0.385787 -0.016667
-0.141432 -0.386059 -0.033333
-0.140481 -0.369033 0.033333
-0.141303 -0.370812 0.016667
-0.142210 -0.372112 0.000000
-0.142923 -0.372636 -0.016667
-0.143359 -0.372815 -0.033333
-0.143174 -0.357241 0.033333
-0.143797 -0.358142 0.016667
-0.144550 -0.359017 0.000000
-0.145152 -0.359433 -0.016667
-0.145510 -0.359512 -0.033333
-0.146097 -0.345163 0.033333
-0.146603 -0.345372 0.016667
-0.147143 -0.345819 0.000000
-0.147591 -0.346116 -0.016667
-0.147867 -0.346116 -0.033333
-0.149372 -0.333127 0.033333
-0.149627 -0.332347 0.016667
-0.149947 -0.332437 0.000000
-0.150215 -0.332666 -0.016667
-0.150370 -0.332551 -0.033333
-0.152923 -0.320618 0.033333
-0.152911 -0.319137 0.016667
-0.152909 -0.318842 0.000000
-0.152948 -0.318995 -0.016667
-0.152965 -0.318802 -0.033333
-0.156701 -0.307899 0.033333
-0.156340 -0.305477 0.016667
-0.155961 -0.304945 0.000000
-0.155710 -0.305102 -0.016667
-0.155551 -0.304778 -0.033333
-0.160752 -0.294745 0.033333
-0.159882 -0.291430 0.016667
-0.158964 -0.290717 0.000000
-0.158377 -0.290916 -0.016667
-0.158012 -0.290471 -0.033333
-0.165048 -0.281084 0.033333
-0.163429 -0.276734 0.016667
-0.161670 -0.276151 0.000000
-0.160813 -0.276426 -0.016667
-0.160183 -0.275845 -0.033333
-0.170945 -0.267653 0.033333
-0.165897 -0.260520 0.016667
-0.164047 -0.262151 0.000000
-0.162646 -0.260782 -0.016667
-0.162115 -0.261738 -0.033333
-0.170058 -0.251549 0.033333
-0.167319 -0.245719 0.016667
-0.165327 -0.246408 0.000000
-0.164126 -0.246117 -0.016667
-0.163435 -0.246247 -0.033333
-0.169171 -0.235444 0.033333
-0.167441 -0.230528 0.016667
-0.165995 -0.230770 0.000000
-0.164964 -0.230916 -0.016667
-0.164357 -0.230882 -0.033333
-0.168284 -0.219339 0.033333
-0.167133 -0.215063 0.016667
-0.166138 -0.215153 0.000000
-0.165327 -0.215436 -0.016667
-0.164859 -0.215473 -0.033333
-0.167397 -0.203235 0.033333
-0.166572 -0.199470 0.016667
-0.165942 -0.199562 0.000000
-0.165343 -0.199764 -0.016667
-0.164994 -0.200029 -0.033333
-0.166150 -0.186682 0.033333
-0.165944 -0.184143 0.016667
-0.165525 -0.183641 0.000000
-0.165101 -0.184287 -0.016667
-0.164856 -0.184262 -0.033333
-0.165335 -0.170529 0.033333
-0.165241 -0.168479 0.016667
-0.164984 -0.167965 0.000000
-0.164682 -0.168547 -0.016667
-0.164501 -0.168641 -0.033333
-0.164615 -0.154410 0.033333
-0.164578 -0.152724 0.016667
-0.164362 -0.152286 0.000000
-0.164126 -0.152795 -0.016667
-0.164001 -0.152972 -0.033333
-0.163893 -0.138348 0.033333
-0.163863 -0.136944 0.016667
-0.163677 -0.136597 0.000000
-0.163478 -0.137052 -0.016667
-0.163380 -0.137261 -0.033333
-0.163158 -0.122253 0.033333
-0.163132 -0.121155 0.016667
-0.162931 -0.120899 0.000000
-0.162755 -0.121312 -0.016667
-0.162676 -0.121540 -0.033333
-0.162334 -0.106226 0.033333
-0.162329 -0.105347 0.016667
-0.162137 -0.105205 0.000000
-0.161970 -0.105586 -0.016667
-0.161906 -0.105801 -0.033333
-0.161508 -0.090201 0.033333
-0.161494 -0.089566 0.016667
-0.161292 -0.089501 0.000000
-0.161140 -0.089864 -0.016667
-0.161083 -0.090067 -0.033333
-0.160575 -0.074219 0.033333
-0.160574 -0.073744 0.016667
-0.160411 -0.073808 0.000000
-0.160271 -0.074146 -0.016667
-0.160221 -0.074326 -0.033333
-0.159412 -0.058293 0.033333
-0.159639 -0.057898 0.016667
-0.159499 -0.058141 0.000000
-0.159371 -0.058387 -0.016667
-0.159327 -0.058632 -0.033333
-0.158524 -0.042189 0.033333
-0.158670 -0.042089 0.016667
-0.158564 -0.042408 0.000000
-0.158443 -0.042691 -0.016667
-0.158411 -0.042877 -0.033333
-0.157637 -0.026084 0.033333
-0.157714 -0.026332 0.016667
-0.157608 -0.026670 0.000000
-0.157497 -0.026989 -0.016667
-0.157469 -0.027144 -0.033333
-0.156750 -0.009980 0.033333
-0.156764 -0.010539 0.016667
-0.156638 -0.010970 0.000000
-0.156534 -0.011288 -0.016667
-0.156518 -0.011422 -0.033333
-0.155863 0.006125 0.033333
-0.155793 0.005175 0.016667
-0.155668 0.004746 0.000000
-0.155571 0.004380 -0.016667
-0.155552 0.004312 -0.033333
-0.154975 0.022230 0.033333
-0.154870 0.020892 0.016667
-0.154688 0.020444 0.000000
-0.154615 0.020026 -0.016667
-0.154583 0.020059 -0.033333
-0.154036 0.038078 0.033333
-0.153914 0.036748 0.016667
-0.153749 0.036001 0.000000
-0.153641 0.035782 -0.016667
-0.153628 0.035695 -0.033333
-0.153172 0.053900 0.033333
-0.153016 0.052550 0.016667
-0.152782 0.051627 0.000000
-0.152689 0.051455 -0.016667
-0.152656 0.051411 -0.033333
-0.152318 0.069938 0.033333
-0.152080 0.068267 0.016667
-0.151837 0.067284 0.000000
-0.151718 0.067116 -0.016667
-0.151693 0.067126 -0.033333
-0.151406 0.085850 0.033333
-0.151164 0.084037 0.016667
-0.150868 0.082915 0.000000
-0.150750 0.082786 -0.016667
-0.150717 0.082836 -0.033333
-0.150513 0.101888 0.033333
-0.150201 0.099767 0.016667
-0.149899 0.098550 0.000000
-0.149765 0.098455 -0.016667
-0.149736 0.098539 -0.033333
-0.149581 0.117877 0.033333
-0.149241 0.115506 0.016667
-0.148910 0.114168 0.000000
-0.148771 0.114124 -0.016667
-0.148740 0.114236 -0.033333
-0.148657 0.133947 0.033333
-0.148252 0.131231 0.016667
-0.147906 0.129769 0.000000
-0.147761 0.129796 -0.016667
-0.147727 0.129917 -0.033333
-0.147724 0.150037 0.033333
-0.147260 0.146927 0.016667
-0.146890 0.145353 0.000000
-0.146729 0.145472 -0.016667
-0.146695 0.145573 -0.033333
-0.146809 0.166200 0.033333
-0.146263 0.162612 0.016667
-0.145848 0.160904 0.000000
-0.145680 0.161156 -0.016667
-0.145626 0.161188 -0.033333
-0.145915 0.182497 0.033333
-0.145291 0.178175 0.016667
-0.144796 0.176463 0.000000
-0.144586 0.176830 -0.016667
-0.144523 0.176755 -0.033333
-0.145215 0.199380 0.033333
-0.144328 0.193240 0.016667
-0.143680 0.192381 0.000000
-0.143454 0.192137 -0.016667
-0.143350 0.192594 -0.033333
-0.144328 0.215485 0.033333
-0.143261 0.208781 0.016667
-0.142524 0.207802 0.000000
-0.142216 0.207807 -0.016667
-0.142120 0.208008 -0.033333
-0.143441 0.231589 0.033333
-0.142105 0.224154 0.016667
-0.141202 0.223272 0.000000
-0.140888 0.223299 -0.016667
-0.140777 0.223470 -0.033333
-0.142554 0.247694 0.033333
-0.140728 0.239223 0.016667
-0.139664 0.238831 0.000000
-0.139402 0.238537 -0.016667
-0.139351 0.238996 -0.033333
-0.141666 0.263799 0.033333
-0.138566 0.253865 0.016667
-0.137854 0.254546 0.000000
-0.137755 0.253326 -0.016667
-0.137870 0.254769 -0.033333
-0.135461 0.276519 0.033333
-0.135739 0.270125 0.016667
-0.135744 0.268512 0.000000
-0.136087 0.269312 -0.016667
-0.136357 0.269228 -0.033333
-0.131994 0.290188 0.033333
-0.132893 0.284900 0.016667
-0.133755 0.283286 0.000000
-0.134464 0.284261 -0.016667
-0.134980 0.284434 -0.033333
-0.129699 0.303595 0.033333
-0.130819 0.299264 0.016667
-0.132086 0.297950 0.000000
-0.133114 0.299086 -0.016667
-0.133787 0.299549 -0.033333
-0.128247 0.317072 0.033333
-0.129504 0.313435 0.016667
-0.130920 0.312481 0.000000
-0.132126 0.313882 -0.016667
-0.132905 0.314566 -0.033333
-0.127679 0.330423 0.033333
-0.128847 0.327467 0.016667
-0.130299 0.326944 0.000000
-0.131572 0.328681 -0.016667
-0.132370 0.329558 -0.033333
-0.127782 0.343900 0.033333
-0.128885 0.341498 0.016667
-0.130240 0.341399 0.000000
-0.131456 0.343543 -0.016667
-0.132214 0.344569 -0.033333
-0.128700 0.357486 0.033333
-0.129593 0.355577 0.016667
-0.130745 0.355913 0.000000
-0.131785 0.358525 -0.016667
-0.132382 0.359644 -0.033333
-0.130439 0.371369 0.033333
-0.131083 0.369828 0.016667
-0.131849 0.370556 0.000000
-0.132499 0.373703 -0.016667
-0.132791 0.374797 -0.033333
-0.133140 0.385641 0.033333
-0.133571 0.384386 0.016667
-0.133592 0.385381 0.000000
-0.133519 0.389184 -0.016667
-0.133192 0.389969 -0.033333
-0.115939 -0.489008 0.033333
-0.116101 -0.503384 0.016667
-0.115948 -0.505880 0.000000
-0.115989 -0.507196 -0.016667
-0.116066 -0.508409 -0.033333
-0.113780 -0.476581 0.033333
-0.114730 -0.488185 0.016667
-0.115420 -0.492062 0.000000
-0.115846 -0.492844 -0.016667
-0.116093 -0.494384 -0.033333
-0.112467 -0.464063 0.033333
-0.113777 -0.473984 0.016667
-0.114944 -0.478042 0.000000
-0.115685 -0.478946 -0.016667
-0.116107 -0.480210 -0.033333
-0.111812 -0.451742 0.033333
-0.113285 -0.460282 0.016667
-0.114703 -0.464210 0.000000
-0.115658 -0.465203 -0.016667
-0.116206 -0.466224 -0.033333
-0.111697 -0.439614 0.033333
-0.113225 -0.446934 0.016667
-0.114765 -0.450594 0.000000
-0.115848 -0.451602 -0.016667
-0.116476 -0.452437 -0.033333
-0.112045 -0.427646 0.033333
-0.113571 -0.433861 0.016667
-0.115156 -0.437172 0.000000
-0.116302 -0.438142 -0.016667
-0.116975 -0.438827 -0.033333
-0.112819 -0.415808 0.033333
-0.114306 -0.421002 0.016667
-0.115884 -0.423916 0.000000
-0.117049 -0.424810 -0.016667
-0.117738 -0.425364 -0.033333
-0.113996 -0.404070 0.033333
-0.115422 -0.408306 0.016667
-0.116957 -0.410791 0.000000
-0.118106 -0.411584 -0.016667
-0.118790 -0.412020 -0.033333
-0.115578 -0.392400 0.033333
-0.116914 -0.395725 0.016667
-0.118375 -0.397763 0.000000
-0.119483 -0.398437 -0.016667
-0.120143 -0.398761 -0.033333
-0.117551 -0.380761 0.033333
-0.118790 -0.383210 0.016667
-0.120144 -0.384791 0.000000
-0.121182 -0.385335 -0.016667
-0.121806 -0.385552 -0.033333
-0.119949 -0.369106 0.033333
-0.121040 -0.370704 0.016667
-0.122259 -0.371830 0.000000
-0.123205 -0.372240 -0.016667
-0.123769 -0.372350 -0.033333
-0.122692 -0.357365 0.033333
-0.123678 -0.358159 0.016667
-0.124721 -0.358832 0.000000
-0.125532 -0.359104 -0.016667
-0.126028 -0.359115 -0.033333
-0.125943 -0.345654 0.033333
-0.126657 -0.345481 0.016667
-0.127497 -0.345728 0.000000
-0.128156 -0.345892 -0.016667
-0.128541 -0.345783 -0.033333
-0.129503 -0.333469 0.033333
-0.130032 -0.332676 0.016667
-0.130572 -0.332482 0.000000
-0.131014 -0.332518 -0.016667
-0.131281 -0.332328 -0.033333
-0.133469 -0.321332 0.033333
-0.133677 -0.319491 0.016667
-0.133888 -0.318989 0.000000
-0.134062 -0.318979 -0.016667
-0.134155 -0.318648 -0.033333
-0.137859 -0.308655 0.033333
-0.137628 -0.306060 0.016667
-0.137355 -0.305213 0.000000
-0.137190 -0.305164 -0.016667
-0.137076 -0.304741 -0.033333
-0.142586 -0.295589 0.033333
-0.141759 -0.292027 0.016667
-0.140847 -0.291075 0.000000
-0.140255 -0.291084 -0.016667
-0.139898 -0.290501 -0.033333
-0.147760 -0.281988 0.033333
-0.145982 -0.277442 0.016667
-0.144032 -0.276568 0.000000
-0.143111 -0.276664 -0.016667
-0.142416 -0.275949 -0.033333
-0.154841 -0.268540 0.033333
-0.149029 -0.261180 0.016667
-0.146883 -0.262631 0.000000
-0.145285 -0.261055 -0.016667
-0.144694 -0.261910 -0.033333
-0.153954 -0.252436 0.033333
-0.150783 -0.246408 0.016667
-0.148450 -0.246897 0.000000
-0.147083 -0.246428 -0.016667
-0.146271 -0.246459 -0.033333
-0.153066 -0.236331 0.033333
-0.151031 -0.231175 0.016667
-0.149332 -0.231269 0.000000
-0.148118 -0.231253 -0.016667
-0.147427 -0.231122 -0.033333
-0.152179 -0.220227 0.033333
-0.150794 -0.215750 0.016667
-0.149582 -0.215655 0.000000
-0.148645 -0.215788 -0.016667
-0.148074 -0.215741 -0.033333
-0.151292 -0.204122 0.033333
-0.150264 -0.200107 0.016667
-0.149470 -0.200072 0.000000
-0.148741 -0.200128 -0.016667
-0.148339 -0.200321 -0.033333
-0.150011 -0.187546 0.033333
-0.149639 -0.184830 0.016667
-0.149079 -0.184142 0.000000
-0.148579 -0.184674 -0.016667
-0.148259 -0.184567 -0.033333
-0.149198 -0.171328 0.033333
-0.148965 -0.169133 0.016667
-0.148562 -0.168468 0.000000
-0.148187 -0.168947 -0.016667
-0.147964 -0.168970 -0.033333
-0.148502 -0.155220 0.033333
-0.148270 -0.153382 0.016667
-0.147945 -0.152801 0.000000
-0.147661 -0.153212 -0.016667
-0.147483 -0.153319 -0.033333
-0.147789 -0.139067 0.033333
-0.147586 -0.137601 0.016667
-0.147254 -0.137119 0.000000
-0.147022 -0.137484 -0.016667
-0.146884 -0.137639 -0.033333
-0.147018 -0.123038 0.033333
-0.146801 -0.121799 0.016667
-0.146508 -0.121448 0.000000
-0.146302 -0.121771 -0.016667
-0.146187 -0.121932 -0.033333
-0.146228 -0.106959 0.033333
-0.146000 -0.106045 0.016667
-0.145699 -0.105769 0.000000
-0.145522 -0.106065 -0.016667
-0.145418 -0.106229 -0.033333
-0.145288 -0.090993 0.033333
-0.145136 -0.090263 0.016667
-0.144857 -0.090110 0.000000
-0.144689 -0.090370 -0.016667
-0.144603 -0.090512 -0.033333
-0.144401 -0.075084 0.033333
-0.144241 -0.074508 0.016667
-0.143987 -0.074426 0.000000
-0.143826 -0.074680 -0.016667
-0.143744 -0.074798 -0.033333
-0.143307 -0.059181 0.033333
-0.143304 -0.058604 0.016667
-0.143099 -0.058801 0.000000
-0.142930 -0.058929 -0.016667
-0.142857 -0.059129 -0.033333
-0.142420 -0.043076 0.033333
-0.142357 -0.042861 0.016667
-0.142170 -0.043033 0.000000
-0.142010 -0.043258 -0.016667
-0.141940 -0.043392 -0.033333
-0.141532 -0.026971 0.033333
-0.141392 -0.027012 0.016667
-0.141200 -0.027316 0.000000
-0.141056 -0.027560 -0.016667
-0.141003 -0.027674 -0.033333
-0.140645 -0.010867 0.033333
-0.140375 -0.011276 0.016667
-0.140211 -0.011594 0.000000
-0.140087 -0.011878 -0.016667
-0.140037 -0.011965 -0.033333
-0.139758 0.005238 0.033333
-0.139402 0.004470 0.016667
-0.139217 0.004077 0.000000
-0.139104 0.003797 -0.016667
-0.139080 0.003738 -0.033333
-0.138871 0.021342 0.033333
-0.138414 0.020097 0.016667
-0.138245 0.019814 0.000000
-0.138139 0.019387 -0.016667
-0.138106 0.019506 -0.033333
-0.137873 0.037055 0.033333
-0.137537 0.036029 0.016667
-0.137260 0.035299 0.000000
-0.137196 0.035177 -0.016667
-0.137124 0.035091 -0.033333
-0.137060 0.053185 0.033333
-0.136598 0.051719 0.016667
-0.136333 0.050975 0.000000
-0.136219 0.050809 -0.016667
-0.136174 0.050817 -0.033333
-0.136123 0.069036 0.033333
-0.135732 0.067544 0.016667
-0.135363 0.066579 0.000000
-0.135267 0.066489 -0.016667
-0.135198 0.066504 -0.033333
-0.135268 0.085098 0.033333
-0.134781 0.083264 0.016667
-0.134422 0.082236 0.000000
-0.134284 0.082137 -0.016667
-0.134233 0.082211 -0.033333
-0.134334 0.101034 0.033333
-0.133862 0.099035 0.016667
-0.133442 0.097856 0.000000
-0.133303 0.097805 -0.016667
-0.133246 0.097905 -0.033333
-0.133441 0.117095 0.033333
-0.132887 0.114765 0.016667
-0.132462 0.113479 0.000000
-0.132301 0.113466 -0.016667
-0.132246 0.113594 -0.033333
-0.132505 0.133116 0.033333
-0.131926 0.130493 0.016667
-0.131457 0.129081 0.000000
-0.131283 0.129134 -0.016667
-0.131227 0.129269 -0.033333
-0.131597 0.149224 0.033333
-0.130932 0.146205 0.016667
-0.130433 0.144663 0.000000
-0.130245 0.144805 -0.016667
-0.130176 0.144923 -0.033333
-0.130680 0.165366 0.033333
-0.129949 0.161865 0.016667
-0.129396 0.160224 0.000000
-0.129169 0.160488 -0.016667
-0.129098 0.160535 -0.033333
-0.129793 0.181642 0.033333
-0.128972 0.177457 0.016667
-0.128314 0.175776 0.000000
-0.128067 0.176161 -0.016667
-0.127952 0.176105 -0.033333
-0.129111 0.198493 0.033333
-0.127991 0.192503 0.016667
-0.127199 0.191697 0.000000
-0.126877 0.191478 -0.016667
-0.126758 0.191939 -0.033333
-0.128223 0.214598 0.033333
-0.126913 0.208078 0.016667
-0.125974 0.207111 0.000000
-0.125612 0.207156 -0.016667
-0.125451 0.207360 -0.033333
-0.127336 0.230702 0.033333
-0.125696 0.223413 0.016667
-0.124613 0.222613 0.000000
-0.124185 0.222645 -0.016667
-0.124053 0.222839 -0.033333
-0.126449 0.246807 0.033333
-0.124258 0.238544 0.016667
-0.122935 0.238152 0.000000
-0.122619 0.237917 -0.016667
-0.122507 0.238366 -0.033333
-0.125562 0.262911 0.033333
-0.121860 0.253155 0.016667
-0.120998 0.253917 0.000000
-0.120806 0.252710 -0.016667
-0.120933 0.254169 -0.033333
-0.118538 0.275714 0.033333
-0.118728 0.269470 0.016667
-0.118633 0.267895 0.000000
-0.119003 0.268737 -0.016667
-0.119277 0.268649 -0.033333
-0.114615 0.289321 0.033333
-0.115504 0.284245 0.016667
-0.116436 0.282735 0.000000
-0.117216 0.283706 -0.016667
-0.117786 0.283909 -0.033333
-0.111936 0.302959 0.033333
-0.113198 0.298712 0.016667
-0.114579 0.297447 0.000000
-0.115740 0.298592 -0.016667
-0.116503 0.299059 -0.033333
-0.110375 0.316426 0.033333
-0.111697 0.312929 0.016667
-0.113302 0.312053 0.000000
-0.114682 0.313445 -0.016667
-0.115560 0.314135 -0.033333
-0.109671 0.329970 0.033333
-0.111020 0.327088 0.016667
-0.112653 0.326595 0.000000
-0.114108 0.328314 -0.016667
-0.115033 0.329185 -0.033333
-0.109899 0.343514 0.033333
-0.111094 0.341201 0.016667
-0.112646 0.341135 0.000000
-0.114055 0.343245 -0.016667
-0.114917 0.344261 -0.033333
-0.110979 0.357258 0.033333
-0.111997 0.355394 0.016667
-0.113302 0.355732 0.000000
-0.114497 0.358297 -0.016667
-0.115190 0.359398 -0.033333
-0.113083 0.371221 0.033333
-0.113784 0.369729 0.016667
-0.114652 0.370449 0.000000
-0.115395 0.373535 -0.016667
-0.115717 0.374611 -0.033333
-0.116289 0.385598 0.033333
-0.116768 0.384359 0.016667
-0.116762 0.385340 0.000000
-0.116636 0.389061 -0.016667
-0.116225 0.389841 -0.033333
-0.098310 -0.488937 0.033333
-0.098246 -0.503084 0.016667
-0.097812 -0.505580 0.000000
-0.097690 -0.506852 -0.016667
-0.097678 -0.508066 -0.033333
-0.095349 -0.476416 0.033333
-0.096358 -0.487846 0.016667
-0.097021 -0.491678 0.000000
-0.097402 -0.492446 -0.016667
-0.097614 -0.493956 -0.033333
-0.093451 -0.463827 0.033333
-0.094944 -0.473586 0.016667
-0.096236 -0.477586 0.000000
-0.097029 -0.478474 -0.016667
-0.097472 -0.479710 -0.033333
-0.092343 -0.451442 0.033333
-0.094063 -0.459825 0.016667
-0.095691 -0.463686 0.000000
-0.096769 -0.464657 -0.016667
-0.097380 -0.465653 -0.033333
-0.091863 -0.439257 0.033333
-0.093677 -0.446425 0.016667
-0.095479 -0.450008 0.000000
-0.096730 -0.450988 -0.016667
-0.097451 -0.451798 -0.033333
-0.091916 -0.427249 0.033333
-0.093749 -0.433313 0.016667
-0.095630 -0.436537 0.000000
-0.096976 -0.437470 -0.016667
-0.097761 -0.438128 -0.033333
-0.092448 -0.415389 0.033333
-0.094260 -0.420433 0.016667
-0.096159 -0.423246 0.000000
-0.097545 -0.424094 -0.016667
-0.098361 -0.424618 -0.033333
-0.093442 -0.403657 0.033333
-0.095202 -0.407739 0.016667
-0.097075 -0.410108 0.000000
-0.098462 -0.410842 -0.016667
-0.099283 -0.411243 -0.033333
-0.094887 -0.392024 0.033333
-0.096578 -0.395187 0.016667
-0.098388 -0.397091 0.000000
-0.099743 -0.397691 -0.016667
-0.100550 -0.397973 -0.033333
-0.096806 -0.380461 0.033333
-0.098391 -0.382732 0.016667
-0.100106 -0.384158 0.000000
-0.101402 -0.384610 -0.016667
-0.102172 -0.384774 -0.033333
-0.099194 -0.368927 0.033333
-0.100661 -0.370326 0.016667
-0.102240 -0.371265 0.000000
-0.103438 -0.371561 -0.016667
-0.104158 -0.371608 -0.033333
-0.102123 -0.357361 0.033333
-0.103382 -0.357899 0.016667
-0.104782 -0.358360 0.000000
-0.105857 -0.358503 -0.016667
-0.106490 -0.358427 -0.033333
-0.105434 -0.345593 0.033333
-0.106586 -0.345399 0.016667
-0.107738 -0.345390 0.000000
-0.108623 -0.345372 -0.016667
-0.109161 -0.345191 -0.033333
-0.109393 -0.333998 0.033333
-0.110190 -0.332676 0.016667
-0.111064 -0.332260 0.000000
-0.111725 -0.332143 -0.016667
-0.112103 -0.331810 -0.033333
-0.113836 -0.321708 0.033333
-0.114297 -0.319810 0.016667
-0.114724 -0.318936 0.000000
-0.115070 -0.318692 -0.016667
-0.115268 -0.318276 -0.033333
-0.118755 -0.309357 0.033333
-0.118742 -0.306388 0.016667
-0.118638 -0.305292 0.000000
-0.118570 -0.305039 -0.016667
-0.118518 -0.304447 -0.033333
-0.124293 -0.296414 0.033333
-0.123520 -0.292611 0.016667
-0.122622 -0.291281 0.000000
-0.122059 -0.291050 -0.016667
-0.121706 -0.290344 -0.033333
-0.130399 -0.282855 0.033333
-0.128459 -0.278038 0.016667
-0.126345 -0.276864 0.000000
-0.125335 -0.276748 -0.016667
-0.124599 -0.275856 -0.033333
-0.138736 -0.269428 0.033333
-0.132180 -0.261826 0.016667
-0.129667 -0.262998 0.000000
-0.127904 -0.261184 -0.016667
-0.127204 -0.261924 -0.033333
-0.137849 -0.253323 0.033333
-0.134232 -0.247003 0.016667
-0.131571 -0.247296 0.000000
-0.129994 -0.246613 -0.016667
-0.129083 -0.246520 -0.033333
-0.136962 -0.237218 0.033333
-0.134633 -0.231826 0.016667
-0.132646 -0.231677 0.000000
-0.131264 -0.231471 -0.016667
-0.130450 -0.231236 -0.033333
-0.136074 -0.221114 0.033333
-0.134460 -0.216332 0.016667
-0.133030 -0.216076 0.000000
-0.131924 -0.216038 -0.016667
-0.131277 -0.215887 -0.033333
-0.135187 -0.205009 0.033333
-0.133955 -0.200749 0.016667
-0.132973 -0.200505 0.000000
-0.132138 -0.200396 -0.016667
-0.131634 -0.200512 -0.033333
-0.133879 -0.188376 0.033333
-0.133365 -0.185437 0.016667
-0.132630 -0.184571 0.000000
-0.132018 -0.184981 -0.016667
-0.131649 -0.184778 -0.033333
-0.133110 -0.172177 0.033333
-0.132659 -0.169773 0.016667
-0.132126 -0.168915 0.000000
-0.131676 -0.169278 -0.016667
-0.131386 -0.169215 -0.033333
-0.132400 -0.155968 0.033333
-0.132016 -0.154009 0.016667
-0.131506 -0.153255 0.000000
-0.131165 -0.153571 -0.016667
-0.130942 -0.153601 -0.033333
-0.131722 -0.139898 0.033333
-0.131256 -0.138213 0.016667
-0.130816 -0.137613 0.000000
-0.130537 -0.137870 -0.016667
-0.130351 -0.137950 -0.033333
-0.130919 -0.123709 0.033333
-0.130500 -0.122467 0.016667
-0.130040 -0.121951 0.000000
-0.129824 -0.122190 -0.016667
-0.129660 -0.122285 -0.033333
-0.130003 -0.107802 0.033333
-0.129610 -0.106674 0.016667
-0.129229 -0.106340 0.000000
-0.129038 -0.106514 -0.016667
-0.128900 -0.106608 -0.033333
-0.129184 -0.091798 0.033333
-0.128723 -0.091012 0.016667
-0.128380 -0.090699 0.000000
-0.128214 -0.090852 -0.016667
-0.128083 -0.090935 -0.033333
-0.128098 -0.075846 0.033333
-0.127859 -0.075285 0.016667
-0.127531 -0.075075 0.000000
-0.127349 -0.075189 -0.016667
-0.127238 -0.075252 -0.033333
-0.127202 -0.060068 0.033333
-0.127017 -0.059436 0.016667
-0.126686 -0.059457 0.000000
-0.126463 -0.059470 -0.016667
-0.126363 -0.059618 -0.033333
-0.126315 -0.043963 0.033333
-0.126086 -0.043538 0.016667
-0.125804 -0.043714 0.000000
-0.125548 -0.043823 -0.016667
-0.125457 -0.043895 -0.033333
-0.125428 -0.027859 0.033333
-0.125069 -0.027763 0.016667
-0.124810 -0.027924 0.000000
-0.124610 -0.028157 -0.016667
-0.124505 -0.028202 -0.033333
-0.124540 -0.011754 0.033333
-0.124033 -0.011915 0.016667
-0.123751 -0.012249 0.000000
-0.123621 -0.012472 -0.016667
-0.123552 -0.012519 -0.033333
-0.123653 0.004351 0.033333
-0.122919 0.003754 0.016667
-0.122745 0.003414 0.000000
-0.122640 0.003178 -0.016667
-0.122570 0.003173 -0.033333
-0.122766 0.020455 0.033333
-0.121939 0.019391 0.016667
-0.121806 0.019066 0.000000
-0.121629 0.018819 -0.016667
-0.121637 0.018864 -0.033333
-0.121879 0.036560 0.033333
-0.121033 0.035065 0.016667
-0.120849 0.034738 0.000000
-0.120677 0.034437 -0.016667
-0.120660 0.034574 -0.033333
-0.120876 0.052226 0.033333
-0.120256 0.051031 0.016667
-0.119833 0.050223 0.000000
-0.119774 0.050209 -0.016667
-0.119651 0.050154 -0.033333
-0.120038 0.068357 0.033333
-0.119320 0.066714 0.016667
-0.118923 0.065920 0.000000
-0.118785 0.065813 -0.016667
-0.118709 0.065883 -0.033333
-0.119072 0.084217 0.033333
-0.118453 0.082546 0.016667
-0.117945 0.081514 0.000000
-0.117828 0.081493 -0.016667
-0.117726 0.081550 -0.033333
-0.118214 0.100292 0.033333
-0.117485 0.098265 0.016667
-0.116996 0.097165 0.000000
-0.116829 0.097130 -0.016667
-0.116749 0.097247 -0.033333
-0.117266 0.116247 0.033333
-0.116561 0.114026 0.016667
-0.116002 0.112771 0.000000
-0.115829 0.112791 -0.016667
-0.115744 0.112920 -0.033333
-0.116381 0.132328 0.033333
-0.115576 0.129746 0.016667
-0.115003 0.128375 0.000000
-0.114804 0.128444 -0.016667
-0.114715 0.128588 -0.033333
-0.115448 0.148381 0.033333
-0.114614 0.145448 0.016667
-0.113979 0.143955 0.000000
-0.113751 0.144109 -0.016667
-0.113660 0.144230 -0.033333
-0.114558 0.164537 0.033333
-0.113616 0.161125 0.016667
-0.112929 0.159508 0.000000
-0.112671 0.159781 -0.016667
-0.112555 0.159837 -0.033333
-0.113652 0.180777 0.033333
-0.112649 0.176687 0.016667
-0.111849 0.175065 0.000000
-0.111534 0.175449 -0.016667
-0.111400 0.175398 -0.033333
-0.113006 0.197606 0.033333
-0.111655 0.191788 0.016667
-0.110693 0.190961 0.000000
-0.110332 0.190772 -0.016667
-0.110152 0.191222 -0.033333
-0.112119 0.213710 0.033333
-0.110552 0.207313 0.016667
-0.109456 0.206398 0.000000
-0.108998 0.206442 -0.016667
-0.108815 0.206646 -0.033333
-0.111232 0.229815 0.033333
-0.109303 0.222706 0.016667
-0.108012 0.221887 0.000000
-0.107523 0.221940 -0.016667
-0.107331 0.222130 -0.033333
-0.110344 0.245920 0.033333
-0.107775 0.237791 0.016667
-0.106257 0.237460 0.000000
-0.105843 0.237216 -0.016667
-0.105712 0.237667 -0.033333
-0.109457 0.262024 0.033333
-0.105213 0.252491 0.016667
-0.104145 0.253204 0.000000
-0.103923 0.252049 -0.016667
-0.104012 0.253473 -0.033333
-0.101682 0.274821 0.033333
-0.101746 0.268747 0.016667
-0.101588 0.267251 0.000000
-0.101960 0.268078 -0.016667
-0.102256 0.267998 -0.033333
-0.097283 0.288577 0.033333
-0.098207 0.283615 0.016667
-0.099175 0.282122 0.000000
-0.100034 0.283088 -0.016667
-0.100655 0.283294 -0.033333
-0.094341 0.302194 0.033333
-0.095638 0.298077 0.016667
-0.097158 0.296898 0.000000
-0.098445 0.298026 -0.016667
-0.099284 0.298491 -0.033333
-0.092555 0.315838 0.033333
-0.094030 0.312436 0.016667
-0.095778 0.311574 0.000000
-0.097316 0.312944 -0.016667
-0.098302 0.313627 -0.033333
-0.091864 0.329431 0.033333
-0.093277 0.326652 0.016667
-0.095103 0.326203 0.000000
-0.096740 0.327888 -0.016667
-0.097766 0.328744 -0.033333
-0.092107 0.343159 0.033333
-0.093440 0.340897 0.016667
-0.095153 0.340836 0.000000
-0.096732 0.342899 -0.016667
-0.097709 0.343894 -0.033333
-0.093406 0.356977 0.033333
-0.094488 0.355186 0.016667
-0.095945 0.355526 0.000000
-0.097294 0.358028 -0.016667
-0.098064 0.359106 -0.033333
-0.095817 0.371091 0.033333
-0.096577 0.369628 0.016667
-0.097528 0.370327 0.000000
-0.098355 0.373338 -0.016667
-0.098713 0.374387 -0.033333
-0.099499 0.385537 0.033333
-0.100007 0.384323 0.016667
-0.099979 0.385292 0.000000
-0.099808 0.388917 -0.016667
-0.099315 0.389687 -0.033333
-0.080754 -0.488844 0.033333
-0.080458 -0.502715 0.016667
-0.079762 -0.505202 0.000000
-0.079488 -0.506417 -0.016667
-0.079392 -0.507627 -0.033333
-0.076987 -0.476195 0.033333
-0.078065 -0.487414 0.016667
-0.078715 -0.491188 0.000000
-0.079060 -0.491936 -0.016667
-0.079242 -0.493410 -0.033333
-0.074513 -0.463498 0.033333
-0.076198 -0.473063 0.016667
-0.077625 -0.476996 0.000000
-0.078478 -0.477866 -0.016667
-0.078945 -0.479069 -0.033333
-0.072952 -0.451005 0.033333
-0.074931 -0.459207 0.016667
-0.076779 -0.462997 0.000000
-0.077984 -0.463948 -0.016667
-0.078661 -0.464916 -0.033333
-0.072102 -0.438720 0.033333
-0.074212 -0.445717 0.016667
-0.076288 -0.449224 0.000000
-0.077713 -0.450181 -0.016667
-0.078529 -0.450966 -0.033333
-0.071839 -0.426623 0.033333
-0.073998 -0.432526 0.016667
-0.076189 -0.435667 0.000000
-0.077742 -0.436573 -0.016667
-0.078644 -0.437208 -0.033333
-0.072105 -0.414701 0.033333
-0.074263 -0.419586 0.016667
-0.076502 -0.422308 0.000000
-0.078121 -0.423121 -0.016667
-0.079069 -0.423621 -0.033333
-0.072871 -0.402936 0.033333
-0.075002 -0.406859 0.016667
-0.077239 -0.409124 0.000000
-0.078879 -0.409813 -0.016667
-0.079846 -0.410186 -0.033333
-0.074146 -0.391309 0.033333
-0.076220 -0.394309 0.016667
-0.078417 -0.396091 0.000000
-0.080044 -0.396631 -0.016667
-0.081005 -0.396878 -0.033333
-0.075934 -0.379793 0.033333
-0.077936 -0.381894 0.016667
-0.080055 -0.383175 0.000000
-0.081631 -0.383548 -0.016667
-0.082568 -0.383668 -0.033333
-0.078284 -0.368357 0.033333
-0.080165 -0.369568 0.016667
-0.082164 -0.370337 0.000000
-0.083658 -0.370530 -0.016667
-0.084542 -0.370520 -0.033333
-0.081198 -0.356970 0.033333
-0.082945 -0.357280 0.016667
-0.084766 -0.357525 0.000000
-0.086122 -0.357535 -0.016667
-0.086936 -0.357392 -0.033333
-0.084846 -0.345577 0.033333
-0.086273 -0.344942 0.016667
-0.087847 -0.344677 0.000000
-0.089032 -0.344516 -0.016667
-0.089717 -0.344223 -0.033333
-0.088932 -0.333712 0.033333
-0.090214 -0.332498 0.016667
-0.091420 -0.331733 0.000000
-0.092326 -0.331383 -0.016667
-0.092871 -0.330979 -0.033333
-0.093806 -0.322211 0.033333
-0.094632 -0.319681 0.016667
-0.095419 -0.318560 0.000000
-0.095979 -0.318131 -0.016667
-0.096288 -0.317526 -0.033333
-0.099459 -0.309850 0.033333
-0.099671 -0.306702 0.016667
-0.099761 -0.305118 0.000000
-0.099850 -0.304585 -0.016667
-0.099877 -0.303886 -0.033333
-0.105749 -0.297149 0.033333
-0.105120 -0.292933 0.016667
-0.104294 -0.291277 0.000000
-0.103761 -0.290785 -0.016667
-0.103440 -0.289871 -0.033333
-0.112962 -0.283715 0.033333
-0.110854 -0.278617 0.016667
-0.108569 -0.276977 0.000000
-0.107505 -0.276593 -0.016667
-0.106704 -0.275533 -0.033333
-0.122632 -0.270315 0.033333
-0.115311 -0.262346 0.016667
-0.112434 -0.263226 0.000000
-0.110459 -0.261117 -0.016667
-0.109676 -0.261694 -0.033333
-0.121744 -0.254210 0.033333
-0.117703 -0.247588 0.016667
-0.114660 -0.247553 0.000000
-0.112887 -0.246609 -0.016667
-0.111833 -0.246387 -0.033333
-0.120857 -0.238106 0.033333
-0.118232 -0.232322 0.016667
-0.115956 -0.231959 0.000000
-0.114362 -0.231528 -0.016667
-0.113447 -0.231151 -0.033333
-0.119970 -0.222001 0.033333
-0.118122 -0.216924 0.016667
-0.116449 -0.216372 0.000000
-0.115188 -0.216131 -0.016667
-0.114419 -0.215872 -0.033333
-0.119083 -0.205896 0.033333
-0.117658 -0.201251 0.016667
-0.116470 -0.200827 0.000000
-0.115478 -0.200532 -0.016667
-0.114909 -0.200543 -0.033333
-0.117788 -0.189249 0.033333
-0.117052 -0.186039 0.016667
-0.116151 -0.184902 0.000000
-0.115435 -0.185164 -0.016667
-0.114976 -0.184856 -0.033333
-0.117009 -0.172958 0.033333
-0.116413 -0.170341 0.016667
-0.115657 -0.169264 0.000000
-0.115119 -0.169510 -0.016667
-0.114773 -0.169338 -0.033333
-0.116374 -0.156837 0.033333
-0.115682 -0.154591 0.016667
-0.115048 -0.153658 0.000000
-0.114631 -0.153834 -0.016667
-0.114345 -0.153778 -0.033333
-0.115617 -0.140614 0.033333
-0.114993 -0.138855 0.016667
-0.114321 -0.138013 0.000000
-0.114018 -0.138196 -0.016667
-0.113770 -0.138164 -0.033333
-0.114868 -0.124686 0.033333
-0.114093 -0.123029 0.016667
-0.113547 -0.122460 0.000000
-0.113299 -0.122526 -0.016667
-0.113090 -0.122558 -0.033333
-0.113900 -0.108431 0.033333
-0.113199 -0.107436 0.016667
-0.112699 -0.106820 0.000000
-0.112526 -0.106920 -0.016667
-0.112323 -0.106913 -0.033333
-0.112778 -0.092729 0.033333
-0.112223 -0.091705 0.016667
-0.111859 -0.091290 0.000000
-0.111692 -0.091267 -0.016667
-0.111520 -0.091298 -0.033333
-0.111985 -0.077060 0.033333
-0.111358 -0.076080 0.016667
-0.111043 -0.075726 0.000000
-0.110819 -0.075623 -0.016667
-0.110704 -0.075683 -0.033333
-0.111098 -0.060955 0.033333
-0.110648 -0.060381 0.016667
-0.110263 -0.060119 0.000000
-0.109938 -0.059989 -0.016667
-0.109850 -0.060034 -0.033333
-0.110210 -0.044851 0.033333
-0.110068 -0.044503 0.016667
-0.109411 -0.044368 0.000000
-0.109076 -0.044383 -0.016667
-0.108923 -0.044358 -0.033333
-0.109323 -0.028746 0.033333
-0.108920 -0.028221 0.016667
-0.108448 -0.028675 0.000000
-0.108120 -0.028720 -0.016667
-0.107995 -0.028704 -0.033333
-0.108436 -0.012641 0.033333
-0.107448 -0.012569 0.016667
-0.107293 -0.012926 0.000000
-0.107162 -0.013083 -0.016667
-0.107013 -0.013042 -0.033333
-0.107549 0.003463 0.033333
-0.106401 0.002928 0.016667
-0.106261 0.002716 0.000000
-0.106143 0.002577 -0.016667
-0.106058 0.002603 -0.033333
-0.106661 0.019568 0.033333
-0.105516 0.018607 0.016667
-0.105291 0.018335 0.000000
-0.105171 0.018221 -0.016667
-0.105079 0.018255 -0.033333
-0.105774 0.035672 0.033333
-0.104618 0.034313 0.016667
-0.104398 0.034005 0.000000
-0.104168 0.033826 -0.016667
-0.104160 0.033946 -0.033333
-0.104887 0.051777 0.033333
-0.103748 0.050042 0.016667
-0.103457 0.049675 0.000000
-0.103225 0.049442 -0.016667
-0.103190 0.049632 -0.033333
-0.103845 0.067419 0.033333
-0.102999 0.066039 0.016667
-0.102421 0.065152 0.000000
-0.102339 0.065213 -0.016667
-0.102165 0.065189 -0.033333
-0.103004 0.083553 0.033333
-0.102038 0.081720 0.016667
-0.101511 0.080853 0.000000
-0.101333 0.080798 -0.016667
-0.101224 0.080910 -0.033333
-0.102013 0.099415 0.033333
-0.101165 0.097545 0.016667
-0.100513 0.096434 0.000000
-0.100363 0.096470 -0.016667
-0.100224 0.096555 -0.033333
-0.101160 0.115497 0.033333
-0.100178 0.113252 0.016667
-0.099547 0.112067 0.000000
-0.099342 0.112091 -0.016667
-0.099226 0.112233 -0.033333
-0.100207 0.131469 0.033333
-0.099251 0.128988 0.016667
-0.098533 0.127650 0.000000
-0.098315 0.127741 -0.016667
-0.098193 0.127875 -0.033333
-0.099334 0.147573 0.033333
-0.098258 0.144686 0.016667
-0.097510 0.143223 0.000000
-0.097257 0.143383 -0.016667
-0.097122 0.143507 -0.033333
-0.098413 0.163674 0.033333
-0.097292 0.160341 0.016667
-0.096461 0.158770 0.000000
-0.096156 0.159043 -0.016667
-0.096013 0.159092 -0.033333
-0.097524 0.179931 0.033333
-0.096305 0.175936 0.016667
-0.095361 0.174311 0.000000
-0.095013 0.174693 -0.016667
-0.094824 0.174645 -0.033333
-0.096901 0.196718 0.033333
-0.095312 0.191006 0.016667
-0.094206 0.190200 0.000000
-0.093767 0.190017 -0.016667
-0.093563 0.190441 -0.033333
-0.096014 0.212823 0.033333
-0.094187 0.206587 0.016667
-0.092919 0.205625 0.000000
-0.092411 0.205674 -0.016667
-0.092167 0.205869 -0.033333
-0.095127 0.228928 0.033333
-0.092904 0.221913 0.016667
-0.091443 0.221137 0.000000
-0.090859 0.221169 -0.016667
-0.090639 0.221344 -0.033333
-0.094240 0.245032 0.033333
-0.091315 0.237084 0.016667
-0.089578 0.236695 0.000000
-0.089111 0.236456 -0.016667
-0.088926 0.236890 -0.033333
-0.093352 0.261137 0.033333
-0.088573 0.251734 0.016667
-0.087349 0.252471 0.000000
-0.087058 0.251307 -0.016667
-0.087145 0.252696 -0.033333
-0.084869 0.273978 0.033333
-0.084809 0.268070 0.016667
-0.084578 0.266533 0.000000
-0.084977 0.267350 -0.016667
-0.085279 0.267261 -0.033333
-0.080040 0.287726 0.033333
-0.080953 0.282861 0.016667
-0.081988 0.281462 0.000000
-0.082917 0.282396 -0.016667
-0.083585 0.282588 -0.033333
-0.076797 0.301464 0.033333
-0.078197 0.297480 0.016667
-0.079814 0.296285 0.000000
-0.081227 0.297383 -0.016667
-0.082146 0.297843 -0.033333
-0.074911 0.315150 0.033333
-0.076425 0.311835 0.016667
-0.078353 0.311040 0.000000
-0.080048 0.312376 -0.016667
-0.081119 0.313036 -0.033333
-0.074132 0.328911 0.033333
-0.075690 0.326208 0.016667
-0.077661 0.325762 0.000000
-0.079462 0.327399 -0.016667
-0.080599 0.328235 -0.033333
-0.074495 0.342708 0.033333
-0.075879 0.340544 0.016667
-0.077765 0.340499 0.000000
-0.079515 0.342500 -0.016667
-0.080581 0.343467 -0.033333
-0.075942 0.356727 0.033333
-0.077107 0.354965 0.016667
-0.078688 0.355293 0.000000
-0.080175 0.357719 -0.016667
-0.081031 0.358763 -0.033333
-0.078661 0.370913 0.033333
-0.079446 0.369510 0.016667
-0.080481 0.370190 0.000000
-0.081396 0.373110 -0.016667
-0.081781 0.374127 -0.033333
-0.082771 0.385491 0.033333
-0.083299 0.384291 0.016667
-0.083252 0.385240 0.000000
-0.083039 0.388751 -0.016667
-0.082477 0.389506 -0.033333
-0.063296 -0.488730 0.033333
-0.062759 -0.502277 0.016667
-0.061823 -0.504742 0.000000
-0.061409 -0.505887 -0.016667
-0.061234 -0.507089 -0.033333
-0.058736 -0.475918 0.033333
-0.059884 -0.486887 0.016667
-0.060531 -0.490587 0.000000
-0.060846 -0.491310 -0.016667
-0.061003 -0.492741 -0.033333
-0.055703 -0.463066 0.033333
-0.057581 -0.472408 0.016667
-0.059146 -0.476263 0.000000
-0.060061 -0.477113 -0.016667
-0.060554 -0.478279 -0.033333
-0.053700 -0.450414 0.033333
-0.055937 -0.458414 0.016667
-0.058005 -0.462128 0.000000
-0.059338 -0.463062 -0.016667
-0.060081 -0.464002 -0.033333
-0.052477 -0.437969 0.033333
-0.054887 -0.444784 0.016667
-0.057236 -0.448219 0.000000
-0.058835 -0.449162 -0.016667
-0.059746 -0.449926 -0.033333
-0.051887 -0.425725 0.033333
-0.054376 -0.431462 0.016667
-0.056882 -0.434534 0.000000
-0.058644 -0.435427 -0.016667
-0.059662 -0.436046 -0.033333
-0.051852 -0.413677 0.033333
-0.054375 -0.418410 0.016667
-0.056964 -0.421061 0.000000
-0.058820 -0.421860 -0.016667
-0.059903 -0.422347 -0.033333
-0.052353 -0.401825 0.033333
-0.054877 -0.405600 0.016667
-0.057500 -0.407788 0.000000
-0.059405 -0.408456 -0.016667
-0.060521 -0.408816 -0.033333
-0.053389 -0.390160 0.033333
-0.055895 -0.393008 0.016667
-0.058513 -0.394696 0.000000
-0.060426 -0.395204 -0.016667
-0.061554 -0.395434 -0.033333
-0.055003 -0.378664 0.033333
-0.057456 -0.380603 0.016667
-0.060027 -0.381763 0.000000
-0.061916 -0.382085 -0.016667
-0.063028 -0.382179 -0.033333
-0.057220 -0.367302 0.033333
-0.059603 -0.368342 0.016667
-0.062076 -0.368954 0.000000
-0.063893 -0.369071 -0.016667
-0.064970 -0.369021 -0.033333
-0.060116 -0.356023 0.033333
-0.062363 -0.356164 0.016667
-0.064680 -0.356226 0.000000
-0.066382 -0.356124 -0.016667
-0.067379 -0.355921 -0.033333
-0.063679 -0.344822 0.033333
-0.065794 -0.344019 0.016667
-0.067870 -0.343510 0.000000
-0.069369 -0.343191 -0.016667
-0.070267 -0.342831 -0.033333
-0.068263 -0.333794 0.033333
-0.069894 -0.331786 0.016667
-0.071622 -0.330725 0.000000
-0.072868 -0.330224 -0.016667
-0.073568 -0.329666 -0.033333
-0.073486 -0.321821 0.033333
-0.074800 -0.319437 0.016667
-0.075944 -0.317812 0.000000
-0.076772 -0.317082 -0.016667
-0.077255 -0.316410 -0.033333
-0.079649 -0.310270 0.033333
-0.080298 -0.306457 0.016667
-0.080742 -0.304578 0.000000
-0.081015 -0.303800 -0.016667
-0.081150 -0.302857 -0.033333
-0.086960 -0.297797 0.033333
-0.086508 -0.293246 0.016667
-0.085803 -0.290962 0.000000
-0.085379 -0.290136 -0.016667
-0.085088 -0.289076 -0.033333
-0.095358 -0.284533 0.033333
-0.093121 -0.278954 0.016667
-0.090727 -0.276859 0.000000
-0.089577 -0.276152 -0.016667
-0.088757 -0.274830 -0.033333
-0.106527 -0.271202 0.033333
-0.098490 -0.262825 0.016667
-0.095141 -0.263227 0.000000
-0.092991 -0.260765 -0.016667
-0.092056 -0.261180 -0.033333
-0.105640 -0.255098 0.033333
-0.101157 -0.247969 0.016667
-0.097746 -0.247625 0.000000
-0.095718 -0.246362 -0.016667
-0.094545 -0.245954 -0.033333
-0.104752 -0.238993 0.033333
-0.101843 -0.232829 0.016667
-0.099235 -0.232052 0.000000
-0.097436 -0.231348 -0.016667
-0.096366 -0.230828 -0.033333
-0.103865 -0.222888 0.033333
-0.101795 -0.217294 0.016667
-0.099848 -0.216506 0.000000
-0.098387 -0.216024 -0.016667
-0.097522 -0.215612 -0.033333
-0.102978 -0.206784 0.033333
-0.101322 -0.201763 0.016667
-0.099916 -0.200996 0.000000
-0.098791 -0.200473 -0.016667
-0.098091 -0.200378 -0.033333
-0.101679 -0.190065 0.033333
-0.100791 -0.186492 0.016667
-0.099630 -0.185089 0.000000
-0.098783 -0.185195 -0.016667
-0.098257 -0.184735 -0.033333
-0.100998 -0.173837 0.033333
-0.100056 -0.170870 0.016667
-0.099153 -0.169517 0.000000
-0.098510 -0.169585 -0.016667
-0.098081 -0.169303 -0.033333
-0.100264 -0.157581 0.033333
-0.099433 -0.155159 0.016667
-0.098510 -0.153920 0.000000
-0.098047 -0.154000 -0.016667
-0.097684 -0.153786 -0.033333
-0.099610 -0.141638 0.033333
-0.098565 -0.139359 0.016667
-0.097806 -0.138419 0.000000
-0.097431 -0.138363 -0.016667
-0.097131 -0.138272 -0.033333
-0.098716 -0.125416 0.033333
-0.097713 -0.123810 0.016667
-0.096980 -0.122767 0.000000
-0.096742 -0.122838 -0.016667
-0.096441 -0.122654 -0.033333
-0.097655 -0.110156 0.033333
-0.096643 -0.107858 0.016667
-0.096190 -0.107410 0.000000
-0.095916 -0.107104 -0.016667
-0.095727 -0.107205 -0.033333
-0.096767 -0.094052 0.033333
-0.095626 -0.092381 0.016667
-0.095367 -0.091725 0.000000
-0.095044 -0.091647 -0.016667
-0.094978 -0.091513 -0.033333
-0.095880 -0.077947 0.033333
-0.094585 -0.076756 0.016667
-0.094531 -0.076289 0.000000
-0.094226 -0.075976 -0.016667
-0.094121 -0.076004 -0.033333
-0.094993 -0.061842 0.033333
-0.094111 -0.061567 0.016667
-0.093680 -0.060625 0.000000
-0.093442 -0.060453 -0.016667
-0.093227 -0.060354 -0.033333
-0.094106 -0.045738 0.033333
-0.094106 -0.045738 0.016667
-0.092992 -0.045046 0.000000
-0.092539 -0.044828 -0.016667
-0.092346 -0.044766 -0.033333
-0.093219 -0.029633 0.033333
-0.093219 -0.029633 0.016667
-0.091970 -0.029306 0.000000
-0.091642 -0.029270 -0.016667
-0.091399 -0.029125 -0.033333
-0.092331 -0.013529 0.033333
-0.090729 -0.013621 0.016667
-0.090915 -0.013694 0.000000
-0.090636 -0.013614 -0.016667
-0.090459 -0.013541 -0.033333
-0.091444 0.002576 0.033333
-0.089906 0.001993 0.016667
-0.089780 0.001991 0.000000
-0.089633 0.002001 -0.016667
-0.089499 0.002072 -0.033333
-0.090557 0.018681 0.033333
-0.089107 0.017727 0.016667
-0.088834 0.017648 0.000000
-0.088633 0.017603 -0.016667
-0.088556 0.017715 -0.033333
-0.089670 0.034785 0.033333
-0.088271 0.033538 0.016667
-0.087890 0.033273 0.000000
-0.087705 0.033240 -0.016667
-0.087573 0.033332 -0.033333
-0.088782 0.050890 0.033333
-0.087363 0.049295 0.016667
-0.087010 0.048956 0.000000
-0.086711 0.048830 -0.016667
-0.086663 0.049003 -0.033333
-0.087895 0.066995 0.033333
-0.086471 0.065045 0.016667
-0.086068 0.064626 0.000000
-0.085761 0.064431 -0.016667
-0.085698 0.064669 -0.033333
-0.086797 0.082619 0.033333
-0.085729 0.081056 0.016667
-0.084996 0.080084 0.000000
-0.084879 0.080197 -0.016667
-0.084652 0.080195 -0.033333
-0.085962 0.098754 0.033333
-0.084729 0.096725 0.016667
-0.084073 0.095769 0.000000
-0.083850 0.095760 -0.016667
-0.083698 0.095895 -0.033333
-0.084947 0.114614 0.033333
-0.083851 0.112520 0.016667
-0.083047 0.111329 0.000000
-0.082857 0.111411 -0.016667
-0.082674 0.111508 -0.033333
-0.084113 0.130693 0.033333
-0.082850 0.128206 0.016667
-0.082056 0.126927 0.000000
-0.081810 0.127010 -0.016667
-0.081639 0.127151 -0.033333
-0.083173 0.146702 0.033333
-0.081923 0.143896 0.016667
-0.081019 0.142474 0.000000
-0.080743 0.142642 -0.016667
-0.080565 0.142742 -0.033333
-0.082304 0.162844 0.033333
-0.080927 0.159562 0.016667
-0.079963 0.158004 0.000000
-0.079639 0.158266 -0.016667
-0.079434 0.158314 -0.033333
-0.081395 0.179055 0.033333
-0.079972 0.175124 0.016667
-0.078868 0.173530 0.000000
-0.078468 0.173900 -0.016667
-0.078243 0.173831 -0.033333
-0.080797 0.195831 0.033333
-0.078944 0.190268 0.016667
-0.077687 0.189379 0.000000
-0.077216 0.189210 -0.016667
-0.076941 0.189603 -0.033333
-0.079910 0.211936 0.033333
-0.077824 0.205761 0.016667
-0.076396 0.204820 0.000000
-0.075808 0.204846 -0.016667
-0.075531 0.205009 -0.033333
-0.079022 0.228040 0.033333
-0.076497 0.221179 0.016667
-0.074863 0.220313 0.000000
-0.074222 0.220328 -0.016667
-0.073939 0.220487 -0.033333
-0.078135 0.244145 0.033333
-0.074852 0.236262 0.016667
-0.072936 0.235897 0.000000
-0.072384 0.235618 -0.016667
-0.072175 0.236016 -0.033333
-0.077248 0.260250 0.033333
-0.071970 0.251027 0.016667
-0.070558 0.251649 0.000000
-0.070249 0.250485 -0.016667
-0.070294 0.251836 -0.033333
-0.068081 0.273082 0.033333
-0.067892 0.267238 0.016667
-0.067625 0.265765 0.000000
-0.068035 0.266541 -0.016667
-0.068357 0.266415 -0.033333
-0.062831 0.286876 0.033333
-0.063772 0.282181 0.016667
-0.064852 0.280711 0.000000
-0.065867 0.281608 -0.016667
-0.066582 0.281800 -0.033333
-0.059364 0.300636 0.033333
-0.060785 0.296690 0.016667
-0.062563 0.295597 0.000000
-0.064098 0.296661 -0.016667
-0.065080 0.297090 -0.033333
-0.057324 0.314416 0.033333
-0.058986 0.311238 0.016667
-0.061030 0.310428 0.000000
-0.062872 0.311720 -0.016667
-0.064041 0.312367 -0.033333
-0.056601 0.328259 0.033333
-0.058180 0.325661 0.016667
-0.060337 0.325255 0.000000
-0.062303 0.326840 -0.016667
-0.063521 0.327645 -0.033333
-0.056994 0.342278 0.033333
-0.058482 0.340156 0.016667
-0.060499 0.340111 0.000000
-0.062399 0.342043 -0.016667
-0.063565 0.342974 -0.033333
-0.058638 0.356372 0.033333
-0.059828 0.354705 0.016667
-0.061540 0.355027 0.000000
-0.063165 0.357364 -0.016667
-0.064087 0.358370 -0.033333
-0.061614 0.370766 0.033333
-0.062423 0.369383 0.016667
-0.063527 0.370035 0.000000
-0.064521 0.372851 -0.016667
-0.064943 0.373825 -0.033333
-0.066102 0.385411 0.033333
-0.066638 0.384249 0.016667
-0.066583 0.385178 0.000000
-0.066341 0.388564 -0.016667
-0.065716 0.389299 -0.033333
-0.045957 -0.488595 0.033333
-0.045176 -0.501770 0.016667
-0.044022 -0.504199 0.000000
-0.043479 -0.505262 -0.016667
-0.043229 -0.506451 -0.033333
-0.040639 -0.475582 0.033333
-0.041852 -0.486264 0.016667
-0.042502 -0.489874 0.000000
-0.042789 -0.490565 -0.016667
-0.042923 -0.491946 -0.033333
-0.037081 -0.462527 0.033333
-0.039140 -0.471618 0.016667
-0.040838 -0.475385 0.000000
-0.041812 -0.476214 -0.016667
-0.042330 -0.477339 -0.033333
-0.034658 -0.449655 0.033333
-0.037138 -0.457436 0.016667
-0.039415 -0.461075 0.000000
-0.040869 -0.461996 -0.016667
-0.041674 -0.462907 -0.033333
-0.033073 -0.436982 0.033333
-0.035766 -0.443610 0.016667
-0.038375 -0.446984 0.000000
-0.040139 -0.447925 -0.016667
-0.041140 -0.448672 -0.033333
-0.032147 -0.424511 0.033333
-0.034958 -0.430093 0.016667
-0.037766 -0.433119 0.000000
-0.039727 -0.434020 -0.016667
-0.040857 -0.434632 -0.033333
-0.031792 -0.412255 0.033333
-0.034675 -0.416859 0.016667
-0.037609 -0.419477 0.000000
-0.039697 -0.420291 -0.016667
-0.040910 -0.420779 -0.033333
-0.031972 -0.400229 0.033333
-0.034909 -0.403894 0.016667
-0.037925 -0.406054 0.000000
-0.040092 -0.406741 -0.016667
-0.041358 -0.407108 -0.033333
-0.032705 -0.388449 0.033333
-0.035676 -0.391190 0.016667
-0.038741 -0.392845 0.000000
-0.040953 -0.393368 -0.016667
-0.042246 -0.393607 -0.033333
-0.034033 -0.376922 0.033333
-0.037020 -0.378736 0.016667
-0.040094 -0.379838 0.000000
-0.042312 -0.380163 -0.016667
-0.043614 -0.380262 -0.033333
-0.036050 -0.365632 0.033333
-0.038996 -0.366508 0.016667
-0.042024 -0.367015 0.000000
-0.044209 -0.367108 -0.016667
-0.045486 -0.367053 -0.033333
-0.038815 -0.354519 0.033333
-0.041686 -0.354455 0.016667
-0.044583 -0.354337 0.000000
-0.046666 -0.354175 -0.016667
-0.047891 -0.353947 -0.033333
-0.042448 -0.343456 0.033333
-0.045131 -0.342478 0.016667
-0.047803 -0.341753 0.000000
-0.049716 -0.341318 -0.016667
-0.050819 -0.340897 -0.033333
-0.046823 -0.332382 0.033333
-0.049410 -0.330514 0.016667
-0.051727 -0.329167 0.000000
-0.053325 -0.328465 -0.016667
-0.054276 -0.327852 -0.033333
-0.052568 -0.321978 0.033333
-0.054496 -0.318389 0.016667
-0.056304 -0.316457 0.000000
-0.057505 -0.315575 -0.016667
-0.058147 -0.314681 -0.033333
-0.059517 -0.310070 0.033333
-0.060671 -0.306196 0.016667
-0.061510 -0.303568 0.000000
-0.062077 -0.302420 -0.016667
-0.062368 -0.301405 -0.033333
-0.067642 -0.298237 0.033333
-0.067596 -0.292956 0.016667
-0.067181 -0.290255 0.000000
-0.066871 -0.289082 -0.016667
-0.066668 -0.287716 -0.033333
-0.077561 -0.285321 0.033333
-0.075241 -0.279252 0.016667
-0.072762 -0.276370 0.000000
-0.071596 -0.275271 -0.016667
-0.070718 -0.273742 -0.033333
-0.090422 -0.272089 0.033333
-0.081653 -0.263065 0.016667
-0.077839 -0.262964 0.000000
-0.075442 -0.260057 -0.016667
-0.074392 -0.260225 -0.033333
-0.089535 -0.255985 0.033333
-0.084666 -0.248330 0.016667
-0.080798 -0.247412 0.000000
-0.078525 -0.245769 -0.016667
-0.077160 -0.245180 -0.033333
-0.088648 -0.239880 0.033333
-0.085452 -0.232999 0.016667
-0.082490 -0.231912 0.000000
-0.080433 -0.230867 -0.016667
-0.079237 -0.230147 -0.033333
-0.087761 -0.223776 0.033333
-0.085413 -0.217698 0.016667
-0.083196 -0.216396 0.000000
-0.081537 -0.215631 -0.016667
-0.080517 -0.215062 -0.033333
-0.086873 -0.207671 0.033333
-0.085026 -0.202004 0.016667
-0.083302 -0.200959 0.000000
-0.082008 -0.200179 -0.016667
-0.081211 -0.199919 -0.033333
-0.085642 -0.190929 0.033333
-0.084384 -0.186941 0.016667
-0.083049 -0.185109 0.000000
-0.082058 -0.184991 -0.016667
-0.081427 -0.184382 -0.033333
-0.084885 -0.174618 0.033333
-0.083806 -0.171299 0.016667
-0.082542 -0.169576 0.000000
-0.081824 -0.169505 -0.016667
-0.081302 -0.169013 -0.033333
-0.084309 -0.158591 0.033333
-0.082962 -0.155578 0.016667
-0.081937 -0.154150 0.000000
-0.081372 -0.153935 -0.016667
-0.080938 -0.153637 -0.033333
-0.083443 -0.142332 0.033333
-0.082182 -0.140066 0.016667
-0.081183 -0.138551 0.000000
-0.080804 -0.138486 -0.016667
-0.080384 -0.138112 -0.033333
-0.082437 -0.127148 0.033333
-0.081103 -0.124089 0.016667
-0.080483 -0.123270 0.000000
-0.080029 -0.122788 -0.016667
-0.079793 -0.122763 -0.033333
-0.081550 -0.111043 0.033333
-0.080102 -0.108564 0.016667
-0.079664 -0.107649 0.000000
-0.079225 -0.107336 -0.016667
-0.079088 -0.107186 -0.033333
-0.080663 -0.094939 0.033333
-0.079102 -0.092910 0.016667
-0.078736 -0.092127 0.000000
-0.078456 -0.091788 -0.016667
-0.078256 -0.091676 -0.033333
-0.079776 -0.078834 0.033333
-0.078177 -0.077219 0.016667
-0.077820 -0.076564 0.000000
-0.077658 -0.076301 -0.016667
-0.077426 -0.076093 -0.033333
-0.078888 -0.062730 0.033333
-0.076835 -0.061713 0.016667
-0.077235 -0.061087 0.000000
-0.076801 -0.060686 -0.016667
-0.076580 -0.060627 -0.033333
-0.078001 -0.046625 0.033333
-0.078001 -0.046625 0.016667
-0.076365 -0.045347 0.000000
-0.075974 -0.045263 -0.016667
-0.075696 -0.044994 -0.033333
-0.077114 -0.030520 0.033333
-0.077114 -0.030520 0.016667
-0.075542 -0.030020 0.000000
-0.074995 -0.029570 -0.016667
-0.074831 -0.029548 -0.033333
-0.076227 -0.014416 0.033333
-0.074210 -0.014940 0.016667
-0.074613 -0.014283 0.000000
-0.073944 -0.014102 -0.016667
-0.073950 -0.013927 -0.033333
-0.075340 0.001689 0.033333
-0.073505 0.000960 0.016667
-0.073370 0.001395 0.000000
-0.073015 0.001414 -0.016667
-0.072958 0.001695 -0.033333
-0.074452 0.017793 0.033333
-0.072772 0.016893 0.016667
-0.072337 0.016975 0.000000
-0.072120 0.017059 -0.016667
-0.071933 0.017216 -0.033333
-0.073565 0.033898 0.033333
-0.071913 0.032729 0.016667
-0.071440 0.032614 0.000000
-0.071153 0.032662 -0.016667
-0.071008 0.032797 -0.033333
-0.072678 0.050003 0.033333
-0.071030 0.048560 0.016667
-0.070511 0.048249 0.000000
-0.070221 0.048264 -0.016667
-0.070052 0.048395 -0.033333
-0.071790 0.066107 0.033333
-0.070094 0.064317 0.016667
-0.069610 0.063932 0.000000
-0.069232 0.063822 -0.016667
-0.069136 0.064044 -0.033333
-0.070903 0.082212 0.033333
-0.069157 0.080070 0.016667
-0.068654 0.079576 0.000000
-0.068264 0.079405 -0.016667
-0.068164 0.079672 -0.033333
-0.069725 0.097820 0.033333
-0.068414 0.096065 0.016667
-0.067534 0.095009 0.000000
-0.067375 0.095146 -0.016667
-0.067089 0.095159 -0.033333
-0.068917 0.113938 0.033333
-0.067370 0.111712 0.016667
-0.066584 0.110655 0.000000
-0.066319 0.110680 -0.016667
-0.066103 0.110818 -0.033333
-0.067897 0.129821 0.033333
-0.066492 0.127440 0.016667
-0.065532 0.126188 0.000000
-0.065289 0.126294 -0.016667
-0.065046 0.126383 -0.033333
-0.067086 0.145879 0.033333
-0.065504 0.143106 0.016667
-0.064498 0.141730 0.000000
-0.064214 0.141860 -0.016667
-0.063955 0.141967 -0.033333
-0.066204 0.161969 0.033333
-0.064573 0.158740 0.016667
-0.063434 0.157220 0.000000
-0.063094 0.157469 -0.016667
-0.062820 0.157475 -0.033333
-0.065299 0.178233 0.033333
-0.063590 0.174334 0.016667
-0.062326 0.172707 0.000000
-0.061919 0.173054 -0.016667
-0.061605 0.172966 -0.033333
-0.064692 0.194944 0.033333
-0.062589 0.189434 0.016667
-0.061157 0.188514 0.000000
-0.060632 0.188353 -0.016667
-0.060309 0.188675 -0.033333
-0.063805 0.211049 0.033333
-0.061410 0.205003 0.016667
-0.059851 0.203927 0.000000
-0.059212 0.203944 -0.016667
-0.058862 0.204075 -0.033333
-0.062918 0.227153 0.033333
-0.060103 0.220285 0.016667
-0.058299 0.219443 0.000000
-0.057572 0.219404 -0.016667
-0.057254 0.219519 -0.033333
-0.062031 0.243258 0.033333
-0.058390 0.235509 0.016667
-0.056294 0.234997 0.000000
-0.055692 0.234681 -0.016667
-0.055421 0.235056 -0.033333
-0.061143 0.259362 0.033333
-0.055371 0.250161 0.016667
-0.053815 0.250776 0.000000
-0.053454 0.249564 -0.016667
-0.053491 0.250845 -0.033333
-0.051287 0.272171 0.033333
-0.050984 0.266504 0.016667
-0.050693 0.264874 0.000000
-0.051150 0.265613 -0.016667
-0.051480 0.265479 -0.033333
-0.045628 0.285927 0.033333
-0.046582 0.281194 0.016667
-0.047790 0.279871 0.000000
-0.048885 0.280724 -0.016667
-0.049643 0.280872 -0.033333
-0.041958 0.299649 0.033333
-0.043528 0.295948 0.016667
-0.045387 0.294790 0.000000
-0.047053 0.295817 -0.016667
-0.048114 0.296247 -0.033333
-0.039930 0.313537 0.033333
-0.041576 0.310434 0.016667
-0.043828 0.309714 0.000000
-0.045818 0.310972 -0.016667
-0.047049 0.311587 -0.033333
-0.039163 0.327558 0.033333
-0.040875 0.325048 0.016667
-0.043147 0.324662 0.000000
-0.045255 0.326194 -0.016667
-0.046572 0.326973 -0.033333
-0.039717 0.341670 0.033333
-0.041200 0.339686 0.016667
-0.043370 0.339657 0.000000
-0.045419 0.341517 -0.016667
-0.046653 0.342413 -0.033333
-0.041481 0.356062 0.033333
-0.042712 0.354407 0.016667
-0.044523 0.354719 0.000000
-0.046269 0.356962 -0.016667
-0.047261 0.357918 -0.033333
-0.044693 0.370530 0.033333
-0.045497 0.369232 0.016667
-0.046674 0.369856 0.000000
-0.047752 0.372557 -0.016667
-0.048200 0.373485 -0.033333
-0.049516 0.385363 0.033333
-0.050044 0.384208 0.016667
-0.049984 0.385110 0.000000
-0.049721 0.388353 -0.016667
-0.049047 0.389059 -0.033333
-0.028755 -0.488440 0.033333
-0.027735 -0.501200 0.016667
-0.026384 -0.503576 0.000000
-0.025723 -0.504547 -0.016667
-0.025403 -0.505716 -0.033333
-0.022743 -0.475191 0.033333
-0.024007 -0.485550 0.016667
-0.024657 -0.489053 0.000000
-0.024916 -0.489707 -0.016667
-0.025029 -0.491031 -0.033333
-0.018708 -0.461882 0.033333
-0.020925 -0.470697 0.016667
-0.022739 -0.474365 0.000000
-0.023762 -0.475172 -0.016667
-0.024301 -0.476252 -0.033333
-0.015904 -0.448726 0.033333
-0.018596 -0.456275 0.016667
-0.021054 -0.459839 0.000000
-0.022614 -0.460754 -0.016667
-0.023472 -0.461638 -0.033333
-0.013982 -0.435746 0.033333
-0.016924 -0.442192 0.016667
-0.019760 -0.445519 0.000000
-0.021670 -0.446472 -0.016667
-0.022749 -0.447210 -0.033333
-0.012734 -0.422960 0.033333
-0.015828 -0.428408 0.016667
-0.018904 -0.431419 0.000000
-0.021045 -0.432351 -0.016667
-0.022274 -0.432970 -0.033333
-0.012046 -0.410387 0.033333
-0.015262 -0.414907 0.016667
-0.018510 -0.417542 0.000000
-0.020808 -0.418408 -0.016667
-0.022139 -0.418919 -0.033333
-0.011877 -0.398065 0.033333
-0.015208 -0.401690 0.016667
-0.018595 -0.403898 0.000000
-0.021010 -0.404655 -0.016667
-0.022413 -0.405057 -0.033333
-0.012228 -0.386031 0.033333
-0.015686 -0.388767 0.016667
-0.019194 -0.390492 0.000000
-0.021692 -0.391098 -0.016667
-0.023148 -0.391383 -0.033333
-0.013164 -0.374336 0.033333
-0.016738 -0.376153 0.016667
-0.020345 -0.377330 0.000000
-0.022901 -0.377741 -0.016667
-0.024385 -0.377893 -0.033333
-0.014775 -0.363019 0.033333
-0.018449 -0.363860 0.016667
-0.022108 -0.364412 0.000000
-0.024675 -0.364580 -0.016667
-0.026168 -0.364574 -0.033333
-0.017241 -0.352093 0.033333
-0.020919 -0.351877 0.016667
-0.024546 -0.351723 0.000000
-0.027067 -0.351599 -0.016667
-0.028521 -0.351408 -0.033333
-0.020718 -0.341482 0.033333
-0.024295 -0.340152 0.016667
-0.027733 -0.339218 0.000000
-0.030100 -0.338772 -0.016667
-0.031475 -0.338358 -0.033333
-0.025436 -0.330860 0.033333
-0.028652 -0.328492 0.016667
-0.031716 -0.326839 0.000000
-0.033816 -0.326036 -0.016667
-0.034994 -0.325367 -0.033333
-0.030977 -0.319716 0.033333
-0.034081 -0.316779 0.016667
-0.036550 -0.314442 0.000000
-0.038141 -0.313293 -0.016667
-0.039077 -0.312378 -0.033333
-0.038328 -0.310011 0.033333
-0.040473 -0.304710 0.016667
-0.042132 -0.301830 0.000000
-0.043066 -0.300512 -0.016667
-0.043519 -0.299182 -0.033333
-0.047750 -0.298437 0.033333
-0.048293 -0.292708 0.016667
-0.048313 -0.288924 0.000000
-0.048296 -0.287342 -0.016667
-0.048180 -0.285862 -0.033333
-0.059395 -0.285998 0.033333
-0.057144 -0.279003 0.016667
-0.054737 -0.275472 0.000000
-0.053492 -0.273880 -0.016667
-0.052640 -0.272006 -0.033333
-0.074318 -0.272977 0.033333
-0.064987 -0.263176 0.016667
-0.060484 -0.262243 0.000000
-0.057889 -0.258853 -0.016667
-0.056602 -0.258796 -0.033333
-0.073430 -0.256872 0.033333
-0.068151 -0.248225 0.016667
-0.063850 -0.246862 0.000000
-0.061242 -0.244736 -0.016667
-0.059728 -0.243897 -0.033333
-0.072543 -0.240767 0.033333
-0.069027 -0.233224 0.016667
-0.065696 -0.231385 0.000000
-0.063375 -0.229982 -0.016667
-0.061970 -0.229053 -0.033333
-0.071656 -0.224663 0.033333
-0.069082 -0.217633 0.016667
-0.066450 -0.216004 0.000000
-0.064572 -0.214875 -0.016667
-0.063427 -0.214104 -0.033333
-0.070769 -0.208558 0.033333
-0.068535 -0.202289 0.016667
-0.066602 -0.200644 0.000000
-0.065129 -0.199553 -0.016667
-0.064178 -0.199117 -0.033333
-0.069537 -0.191800 0.033333
-0.068113 -0.187120 0.016667
-0.066321 -0.184873 0.000000
-0.065221 -0.184539 -0.016667
-0.064481 -0.183671 -0.033333
-0.068986 -0.175542 0.033333
-0.067245 -0.171612 0.016667
-0.065866 -0.169524 0.000000
-0.065016 -0.169112 -0.016667
-0.064399 -0.168480 -0.033333
-0.068128 -0.159286 0.033333
-0.066568 -0.156145 0.016667
-0.065216 -0.154049 0.000000
-0.064629 -0.153761 -0.016667
-0.064054 -0.153126 -0.033333
-0.067220 -0.144140 0.033333
-0.065495 -0.140199 0.016667
-0.064635 -0.138876 0.000000
-0.063971 -0.138145 -0.016667
-0.063627 -0.137923 -0.033333
-0.066333 -0.128035 0.033333
-0.064557 -0.124691 0.016667
-0.063889 -0.123344 0.000000
-0.063268 -0.122753 -0.016667
-0.063029 -0.122476 -0.033333
-0.065445 -0.111931 0.033333
-0.063632 -0.109042 0.016667
-0.063000 -0.107843 0.000000
-0.062564 -0.107304 -0.016667
-0.062274 -0.107026 -0.033333
-0.064558 -0.095826 0.033333
-0.062697 -0.093304 0.016667
-0.062127 -0.092303 0.000000
-0.061763 -0.091850 -0.016667
-0.061508 -0.091550 -0.033333
-0.063671 -0.079721 0.033333
-0.061629 -0.077592 0.016667
-0.061278 -0.076745 0.000000
-0.060944 -0.076331 -0.016667
-0.060700 -0.076131 -0.033333
-0.062784 -0.063617 0.033333
-0.060655 -0.061415 0.016667
-0.060538 -0.061180 0.000000
-0.060125 -0.060932 -0.016667
-0.059859 -0.060578 -0.033333
-0.061897 -0.047512 0.033333
-0.060779 -0.045270 0.016667
-0.059836 -0.046039 0.000000
-0.059245 -0.045217 -0.016667
-0.059013 -0.045299 -0.033333
-0.060485 -0.031243 0.033333
-0.060029 -0.031157 0.016667
-0.059003 -0.030159 0.000000
-0.058291 -0.029962 -0.016667
-0.058160 -0.029656 -0.033333
-0.059337 -0.015731 0.033333
-0.058415 -0.015576 0.016667
-0.057830 -0.014803 0.000000
-0.057440 -0.014372 -0.016667
-0.057150 -0.014247 -0.033333
-0.059235 0.000801 0.033333
-0.057290 0.000130 0.016667
-0.056786 0.000939 0.000000
-0.056480 0.000965 -0.016667
-0.056208 0.001407 -0.033333
-0.058348 0.016906 0.033333
-0.056414 0.016119 0.016667
-0.055886 0.016418 0.000000
-0.055488 0.016616 -0.016667
-0.055311 0.016803 -0.033333
-0.057460 0.033011 0.033333
-0.055565 0.031991 0.016667
-0.054953 0.032023 0.000000
-0.054576 0.032157 -0.016667
-0.054365 0.032340 -0.033333
-0.056573 0.049115 0.033333
-0.054673 0.047809 0.016667
-0.054034 0.047641 0.000000
-0.053645 0.047710 -0.016667
-0.053434 0.047884 -0.033333
-0.055686 0.065220 0.033333
-0.053741 0.063629 0.016667
-0.053102 0.063241 0.000000
-0.052705 0.063283 -0.016667
-0.052485 0.063426 -0.033333
-0.054798 0.081325 0.033333
-0.052775 0.079359 0.016667
-0.052172 0.078916 0.000000
-0.051702 0.078784 -0.016667
-0.051559 0.079048 -0.033333
-0.053911 0.097429 0.033333
-0.051761 0.095117 0.016667
-0.051199 0.094501 0.000000
-0.050703 0.094347 -0.016667
-0.050568 0.094611 -0.033333
-0.052613 0.113009 0.033333
-0.051007 0.111047 0.016667
-0.050031 0.109923 0.000000
-0.049790 0.110025 -0.016667
-0.049450 0.110055 -0.033333
-0.051889 0.129014 0.033333
-0.049973 0.126714 0.016667
-0.049016 0.125489 0.000000
-0.048722 0.125526 -0.016667
-0.048397 0.125638 -0.033333
-0.050973 0.145034 0.033333
-0.049069 0.142349 0.016667
-0.047944 0.140976 0.000000
-0.047636 0.141083 -0.016667
-0.047295 0.141124 -0.033333
-0.050140 0.161105 0.033333
-0.048111 0.157972 0.016667
-0.046851 0.156434 0.000000
-0.046519 0.156599 -0.016667
-0.046133 0.156616 -0.033333
-0.049334 0.177304 0.033333
-0.047185 0.173517 0.016667
-0.045740 0.171836 0.000000
-0.045329 0.172167 -0.016667
-0.044917 0.172010 -0.033333
-0.048588 0.194057 0.033333
-0.046126 0.188667 0.016667
-0.044576 0.187550 0.000000
-0.044036 0.187430 -0.016667
-0.043606 0.187655 -0.033333
-0.047700 0.210161 0.033333
-0.045023 0.204053 0.016667
-0.043287 0.202969 0.000000
-0.042580 0.202955 -0.016667
-0.042182 0.203016 -0.033333
-0.046813 0.226266 0.033333
-0.043640 0.219478 0.016667
-0.041734 0.218436 0.000000
-0.040928 0.218368 -0.016667
-0.040539 0.218453 -0.033333
-0.045926 0.242371 0.033333
-0.041958 0.234511 0.016667
-0.039681 0.234032 0.000000
-0.038993 0.233621 -0.016667
-0.038695 0.233945 -0.033333
-0.045039 0.258475 0.033333
-0.038793 0.249372 0.016667
-0.037060 0.249738 0.000000
-0.036721 0.248504 -0.016667
-0.036688 0.249749 -0.033333
-0.034378 0.271171 0.033333
-0.034026 0.265383 0.016667
-0.033817 0.263888 0.000000
-0.034299 0.264564 -0.016667
-0.034659 0.264365 -0.033333
-0.028391 0.284723 0.033333
-0.029480 0.280356 0.016667
-0.030757 0.278847 0.000000
-0.031977 0.279679 -0.016667
-0.032788 0.279845 -0.033333
-0.024663 0.298532 0.033333
-0.026204 0.294803 0.016667
-0.028331 0.293841 0.000000
-0.030119 0.294854 -0.016667
-0.031224 0.295251 -0.033333
-0.022580 0.312420 0.033333
-0.024421 0.309539 0.016667
-0.026752 0.308861 0.000000
-0.028874 0.310093 -0.016667
-0.030199 0.310707 -0.033333
-0.022033 0.326598 0.033333
-0.023673 0.324275 0.016667
-0.026117 0.323952 0.000000
-0.028367 0.325447 -0.016667
-0.029730 0.326205 -0.033333
-0.022613 0.341082 0.033333
-0.024149 0.339121 0.016667
-0.026411 0.339125 0.000000
-0.028578 0.340917 -0.016667
-0.029886 0.341770 -0.033333
-0.024547 0.355571 0.033333
-0.025743 0.354056 0.016667
-0.027656 0.354359 0.000000
-0.029515 0.356502 -0.016667
-0.030553 0.357413 -0.033333
-0.027928 0.370369 0.033333
-0.028711 0.369058 0.016667
-0.029945 0.369655 0.000000
-0.031095 0.372228 -0.016667
-0.031573 0.373097 -0.033333
-0.032993 0.385252 0.033333
-0.033511 0.384157 0.016667
-0.033458 0.385031 0.000000
-0.033191 0.388120 -0.016667
-0.032477 0.388791 -0.033333
-0.011711 -0.488267 0.033333
-0.010459 -0.500575 0.016667
-0.008933 -0.502880 0.000000
-0.008162 -0.503750 -0.016667
-0.007777 -0.504892 -0.033333
-0.005091 -0.474751 0.033333
-0.006384 -0.484754 0.016667
-0.007028 -0.488135 0.000000
-0.007254 -0.488745 -0.016667
-0.007344 -0.490008 -0.033333
-0.000648 -0.461139 0.033333
-0.002983 -0.469656 0.016667
-0.004885 -0.473217 0.000000
-0.005942 -0.474002 -0.016667
-0.006494 -0.475035 -0.033333
0.002484 -0.447637 0.033333
-0.000370 -0.454948 0.016667
-0.002969 -0.458438 0.000000
-0.004609 -0.459352 -0.016667
-0.005507 -0.460211 -0.033333
0.004698 -0.434275 0.033333
0.001567 -0.440547 0.016667
-0.001445 -0.443843 0.000000
-0.003469 -0.444822 -0.016667
-0.004610 -0.445557 -0.033333
0.006238 -0.421077 0.033333
0.002922 -0.426422 0.016667
-0.000364 -0.429451 0.000000
-0.002646 -0.430441 -0.016667
-0.003954 -0.431080 -0.033333
0.007235 -0.408073 0.033333
0.003755 -0.412564 0.016667
0.000256 -0.415274 0.000000
-0.002214 -0.416233 -0.016667
-0.003642 -0.416787 -0.033333
0.007754 -0.395304 0.033333
0.004089 -0.398984 0.016667
0.000393 -0.401328 0.000000
-0.002226 -0.402214 -0.016667
-0.003746 -0.402683 -0.033333
0.007800 -0.382828 0.033333
0.003916 -0.385705 0.016667
0.000021 -0.387632 0.000000
-0.002729 -0.388402 -0.016667
-0.004323 -0.388777 -0.033333
0.007343 -0.370718 0.033333
0.003189 -0.372765 0.016667
-0.000911 -0.374206 0.000000
-0.003769 -0.374813 -0.016667
-0.005423 -0.375074 -0.033333
0.006276 -0.359074 0.033333
0.001834 -0.360210 0.016667
-0.002462 -0.361072 0.000000
-0.005402 -0.361458 -0.016667
-0.007091 -0.361577 -0.033333
0.004453 -0.348017 0.033333
-0.000283 -0.348098 0.016667
-0.004718 -0.348246 0.000000
-0.007677 -0.348343 -0.016667
-0.009373 -0.348278 -0.033333
0.001569 -0.337669 0.033333
-0.003325 -0.336462 0.016667
-0.007772 -0.335732 0.000000
-0.010658 -0.335454 -0.016667
-0.012289 -0.335162 -0.033333
-0.002728 -0.328059 0.033333
-0.007558 -0.325289 0.016667
-0.011729 -0.323468 0.000000
-0.014365 -0.322771 -0.016667
-0.015867 -0.322177 -0.033333
-0.008995 -0.318651 0.033333
-0.013140 -0.314214 0.016667
-0.016654 -0.311398 0.000000
-0.018849 -0.310204 -0.016667
-0.020024 -0.309256 -0.033333
-0.016607 -0.307438 0.033333
-0.020201 -0.302942 0.016667
-0.022616 -0.299275 0.000000
-0.023959 -0.297611 -0.016667
-0.024735 -0.296332 -0.033333
-0.026680 -0.298112 0.033333
-0.028422 -0.290767 0.016667
-0.029349 -0.286808 0.000000
-0.029624 -0.284957 -0.016667
-0.029656 -0.283083 -0.033333
-0.040698 -0.286597 0.033333
-0.038787 -0.278667 0.016667
-0.036553 -0.273773 0.000000
-0.035362 -0.271738 -0.016667
-0.034467 -0.269686 -0.033333
-0.058213 -0.273864 0.033333
-0.048384 -0.262801 0.016667
-0.043163 -0.261070 0.000000
-0.040243 -0.257013 -0.016667
-0.038774 -0.256653 -0.033333
-0.057326 -0.257759 0.033333
-0.051726 -0.248096 0.016667
-0.046885 -0.245725 0.000000
-0.043919 -0.243131 -0.016667
-0.042129 -0.242056 -0.033333
-0.056439 -0.241655 0.033333
-0.052601 -0.232649 0.016667
-0.048793 -0.230470 0.000000
-0.046174 -0.228555 -0.016667
-0.044625 -0.227401 -0.033333
-0.055551 -0.225550 0.033333
-0.052438 -0.217746 0.016667
-0.049612 -0.215125 0.000000
-0.047480 -0.213681 -0.016667
-0.046140 -0.212633 -0.033333
-0.054664 -0.209445 0.033333
-0.052266 -0.202076 0.016667
-0.049672 -0.199986 0.000000
-0.048104 -0.198514 -0.016667
-0.046982 -0.197855 -0.033333
-0.053658 -0.192420 0.033333
-0.051400 -0.187306 0.016667
-0.049470 -0.184372 0.000000
-0.048216 -0.183688 -0.016667
-0.047361 -0.182574 -0.033333
-0.052714 -0.176336 0.033333
-0.050806 -0.171892 0.016667
-0.048985 -0.169126 0.000000
-0.048092 -0.168467 -0.016667
-0.047319 -0.167503 -0.033333
-0.052002 -0.161132 0.033333
-0.049730 -0.156124 0.016667
-0.048565 -0.154061 0.000000
-0.047617 -0.153032 -0.016667
-0.047133 -0.152483 -0.033333
-0.051115 -0.145027 0.033333
-0.048907 -0.140667 0.016667
-0.047925 -0.138698 0.000000
-0.047079 -0.137731 -0.016667
-0.046695 -0.137246 -0.033333
-0.050228 -0.128922 0.033333
-0.048064 -0.125068 0.016667
-0.047134 -0.123280 0.000000
-0.046487 -0.122421 -0.016667
-0.046076 -0.121915 -0.033333
-0.049341 -0.112818 0.033333
-0.047195 -0.109374 0.016667
-0.046344 -0.107827 0.000000
-0.045763 -0.107050 -0.016667
-0.045404 -0.106578 -0.033333
-0.048454 -0.096713 0.033333
-0.046236 -0.093647 0.016667
-0.045522 -0.092345 0.000000
-0.044984 -0.091622 -0.016667
-0.044661 -0.091246 -0.033333
-0.047566 -0.080609 0.033333
-0.045254 -0.077767 0.016667
-0.044717 -0.076814 0.000000
-0.044161 -0.076240 -0.016667
-0.043876 -0.075828 -0.033333
-0.046679 -0.064504 0.033333
-0.044569 -0.061865 0.016667
-0.043898 -0.061445 0.000000
-0.043297 -0.060672 -0.016667
-0.043097 -0.060588 -0.033333
-0.045792 -0.048399 0.033333
-0.043511 -0.046648 0.016667
-0.043267 -0.045781 0.000000
-0.042369 -0.045394 -0.016667
-0.042292 -0.045108 -0.033333
-0.043590 -0.032404 0.033333
-0.042933 -0.031064 0.016667
-0.042180 -0.030433 0.000000
-0.041623 -0.030010 -0.016667
-0.041284 -0.029676 -0.033333
-0.042868 -0.016166 0.033333
-0.042017 -0.015772 0.016667
-0.041154 -0.014982 0.000000
-0.040686 -0.014583 -0.016667
-0.040392 -0.014313 -0.033333
-0.043130 -0.000086 0.033333
-0.040762 -0.000229 0.016667
-0.040326 0.000552 0.000000
-0.039664 0.000809 -0.016667
-0.039544 0.001129 -0.033333
-0.042243 0.016019 0.033333
-0.040023 0.015498 0.016667
-0.039345 0.016104 0.000000
-0.038786 0.016221 -0.016667
-0.038596 0.016593 -0.033333
-0.041356 0.032123 0.033333
-0.039159 0.031339 0.016667
-0.038418 0.031558 0.000000
-0.037912 0.031764 -0.016667
-0.037651 0.031969 -0.033333
-0.040468 0.048228 0.033333
-0.038258 0.047137 0.016667
-0.037532 0.047095 0.000000
-0.036991 0.047257 -0.016667
-0.036746 0.047427 -0.033333
-0.039581 0.064333 0.033333
-0.037371 0.062905 0.016667
-0.036592 0.062694 0.000000
-0.036072 0.062720 -0.016667
-0.035815 0.062940 -0.033333
-0.038694 0.080437 0.033333
-0.036396 0.078734 0.016667
-0.035633 0.078224 0.000000
-0.035132 0.078262 -0.016667
-0.034841 0.078399 -0.033333
-0.037807 0.096542 0.033333
-0.035374 0.094439 0.016667
-0.034673 0.093875 0.000000
-0.034097 0.093692 -0.016667
-0.033894 0.093967 -0.033333
-0.036919 0.112646 0.033333
-0.034233 0.110290 0.016667
-0.033724 0.109315 0.000000
-0.032999 0.109263 -0.016667
-0.032913 0.109398 -0.033333
-0.036032 0.128751 0.033333
-0.033308 0.125981 0.016667
-0.032604 0.124798 0.000000
-0.031961 0.124776 -0.016667
-0.031808 0.124836 -0.033333
-0.035145 0.144856 0.033333
-0.032312 0.141615 0.016667
-0.031498 0.140247 0.000000
-0.030867 0.140213 -0.016667
-0.030675 0.140306 -0.033333
-0.034258 0.160960 0.033333
-0.031395 0.157115 0.016667
-0.030368 0.155629 0.000000
-0.029740 0.155693 -0.016667
-0.029492 0.155672 -0.033333
-0.033370 0.177065 0.033333
-0.030489 0.172535 0.016667
-0.029171 0.171013 0.000000
-0.028600 0.171098 -0.016667
-0.028215 0.171068 -0.033333
-0.032483 0.193169 0.033333
-0.029615 0.187788 0.016667
-0.027962 0.186456 0.000000
-0.027344 0.186451 -0.016667
-0.026880 0.186479 -0.033333
-0.031596 0.209274 0.033333
-0.028408 0.203138 0.016667
-0.026717 0.201861 0.000000
-0.025899 0.201831 -0.016667
-0.025443 0.201854 -0.033333
-0.030709 0.225379 0.033333
-0.027289 0.218289 0.016667
-0.025135 0.217346 0.000000
-0.024256 0.217173 -0.016667
-0.023819 0.217227 -0.033333
-0.029821 0.241483 0.033333
-0.025482 0.233646 0.016667
-0.023081 0.232827 0.000000
-0.022317 0.232408 -0.016667
-0.021939 0.232704 -0.033333
-0.028934 0.257588 0.033333
-0.022212 0.248202 0.016667
-0.020370 0.248618 0.000000
-0.019976 0.247258 -0.016667
-0.019942 0.248460 -0.033333
-0.017237 0.269976 0.033333
-0.016997 0.264535 0.016667
-0.016914 0.262620 0.000000
-0.017517 0.263321 -0.016667
-0.017889 0.263137 -0.033333
-0.010998 0.283381 0.033333
-0.012181 0.278780 0.016667
-0.013838 0.277667 0.000000
-0.015146 0.278478 -0.016667
-0.015994 0.278613 -0.033333
-0.007326 0.296788 0.033333
-0.009197 0.293617 0.016667
-0.011347 0.292679 0.000000
-0.013284 0.293702 -0.016667
-0.014483 0.294144 -0.033333
-0.005643 0.310988 0.033333
-0.007282 0.308348 0.016667
-0.009846 0.307818 0.000000
-0.012108 0.309074 -0.016667
-0.013445 0.309699 -0.033333
-0.005076 0.325545 0.033333
-0.006779 0.323306 0.016667
-0.009285 0.323102 0.000000
-0.011632 0.324589 -0.016667
-0.013062 0.325331 -0.033333
-0.005888 0.340197 0.033333
-0.007295 0.338447 0.016667
-0.009656 0.338487 0.000000
-0.011921 0.340228 -0.016667
-0.013254 0.341061 -0.033333
-0.007842 0.355207 0.033333
-0.009014 0.353637 0.016667
-0.010978 0.353950 0.000000
-0.012917 0.355991 -0.016667
-0.013992 0.356843 -0.033333
-0.011328 0.370064 0.033333
-0.012065 0.368874 0.016667
-0.013355 0.369426 0.000000
-0.014574 0.371863 -0.016667
-0.015070 0.372673 -0.033333
-0.016583 0.385231 0.033333
-0.017060 0.384108 0.016667
-0.017022 0.384947 0.000000
-0.016762 0.387867 -0.016667
-0.016015 0.388490 -0.033333
0.005162 -0.488080 0.033333
0.006629 -0.499904 0.016667
0.008313 -0.502121 0.000000
0.009185 -0.502884 -0.016667
0.009631 -0.503994 -0.033333
0.012277 -0.474272 0.033333
0.010985 -0.483891 0.016667
0.010363 -0.487134 0.000000
0.010179 -0.487696 -0.016667
0.010114 -0.488893 -0.033333
0.017048 -0.460314 0.033333
0.014643 -0.468519 0.016667
0.012693 -0.471963 0.000000
0.011624 -0.472724 -0.016667
0.011071 -0.473708 -0.033333
0.020438 -0.446413 0.033333
0.017488 -0.453483 0.016667
0.014805 -0.456900 0.000000
0.013116 -0.457817 -0.016667
0.012196 -0.458654 -0.033333
0.022887 -0.432602 0.033333
0.019643 -0.438713 0.016667
0.016522 -0.441992 0.000000
0.014427 -0.443009 -0.016667
0.013247 -0.443748 -0.033333
0.024661 -0.418911 0.033333
0.021215 -0.424182 0.016667
0.017798 -0.427261 0.000000
0.015423 -0.428331 -0.016667
0.014063 -0.429003 -0.033333
0.025917 -0.405367 0.033333
0.022274 -0.409886 0.016667
0.018613 -0.412724 0.000000
0.016030 -0.413809 -0.016667
0.014536 -0.414426 -0.033333
0.026728 -0.392013 0.033333
0.022853 -0.395838 0.016667
0.018953 -0.398401 0.000000
0.016190 -0.399468 -0.016667
0.014590 -0.400033 -0.033333
0.027128 -0.378897 0.033333
0.022949 -0.382065 0.016667
0.018786 -0.384319 0.000000
0.015859 -0.385331 -0.016667
0.014163 -0.385838 -0.033333
0.027092 -0.366096 0.033333
0.022532 -0.368613 0.016667
0.018071 -0.370510 0.000000
0.014981 -0.371425 -0.016667
0.013203 -0.371857 -0.033333
0.026572 -0.353709 0.033333
0.021527 -0.355551 0.016667
0.016737 -0.357014 0.000000
0.013505 -0.357777 -0.016667
0.011654 -0.358103 -0.033333
0.025425 -0.341902 0.033333
0.019829 -0.342970 0.016667
0.014700 -0.343878 0.000000
0.011361 -0.344409 -0.016667
0.009473 -0.344590 -0.033333
0.023458 -0.330917 0.033333
0.017260 -0.331010 0.016667
0.011846 -0.331143 0.000000
0.008491 -0.331347 -0.016667
0.006610 -0.331308 -0.033333
0.020238 -0.321123 0.033333
0.013593 -0.319810 0.016667
0.008040 -0.318854 0.000000
0.004823 -0.318571 -0.016667
0.003061 -0.318252 -0.033333
0.015191 -0.312994 0.033333
0.008398 -0.309561 0.016667
0.003134 -0.306922 0.000000
0.000355 -0.306092 -0.016667
-0.001192 -0.305340 -0.033333
0.007166 -0.306441 0.033333
0.001192 -0.299642 0.016667
-0.002932 -0.295322 0.000000
-0.004970 -0.293762 -0.016667
-0.005968 -0.292491 -0.033333
-0.004219 -0.296197 0.033333
-0.008014 -0.289422 0.016667
-0.010240 -0.283531 0.000000
-0.010886 -0.281411 -0.016667
-0.011178 -0.279588 -0.033333
-0.021267 -0.286761 0.033333
-0.020095 -0.276696 0.016667
-0.018325 -0.271394 0.000000
-0.017104 -0.268717 -0.016667
-0.016293 -0.266371 -0.033333
-0.042109 -0.274751 0.033333
-0.032388 -0.262066 0.016667
-0.025920 -0.258936 0.000000
-0.022585 -0.254394 -0.016667
-0.020769 -0.253802 -0.033333
-0.041221 -0.258647 0.033333
-0.035141 -0.246807 0.016667
-0.029804 -0.244042 0.000000
-0.026450 -0.240759 -0.016667
-0.024477 -0.239453 -0.033333
-0.040334 -0.242542 0.033333
-0.035792 -0.232499 0.016667
-0.031833 -0.228787 0.000000
-0.028838 -0.226524 -0.016667
-0.027018 -0.225053 -0.033333
-0.039447 -0.226437 0.033333
-0.036176 -0.216789 0.016667
-0.032495 -0.213802 0.000000
-0.030150 -0.211816 -0.016667
-0.028692 -0.210615 -0.033333
-0.038560 -0.210333 0.033333
-0.035214 -0.201920 0.016667
-0.032576 -0.198742 0.000000
-0.030813 -0.197079 -0.016667
-0.029594 -0.195912 -0.033333
-0.037672 -0.194228 0.033333
-0.034739 -0.186978 0.016667
-0.032362 -0.183619 0.000000
-0.031020 -0.182257 -0.016667
-0.030022 -0.181057 -0.033333
-0.036785 -0.178123 0.033333
-0.033730 -0.171836 0.016667
-0.032162 -0.168520 0.000000
-0.030801 -0.167277 -0.016667
-0.030193 -0.166133 -0.033333
-0.035898 -0.162019 0.033333
-0.033079 -0.156349 0.016667
-0.031650 -0.153524 0.000000
-0.030537 -0.152043 -0.016667
-0.029952 -0.151275 -0.033333
-0.035011 -0.145914 0.033333
-0.032320 -0.140843 0.016667
-0.031029 -0.138249 0.000000
-0.030104 -0.136940 -0.016667
-0.029547 -0.136134 -0.033333
-0.034123 -0.129810 0.033333
-0.031555 -0.125250 0.016667
-0.030360 -0.122928 0.000000
-0.029526 -0.121718 -0.016667
-0.029016 -0.120996 -0.033333
-0.033236 -0.113705 0.033333
-0.030702 -0.109573 0.016667
-0.029616 -0.107556 0.000000
-0.028855 -0.106434 -0.016667
-0.028384 -0.105815 -0.033333
-0.032349 -0.097600 0.033333
-0.029789 -0.093794 0.016667
-0.028856 -0.092143 0.000000
-0.028096 -0.091132 -0.016667
-0.027686 -0.090568 -0.033333
-0.031462 -0.081496 0.033333
-0.028844 -0.077970 0.016667
-0.028100 -0.076793 0.000000
-0.027240 -0.075693 -0.016667
-0.026974 -0.075419 -0.033333
-0.030575 -0.065391 0.033333
-0.027764 -0.062402 0.016667
-0.027360 -0.061273 0.000000
-0.026357 -0.060391 -0.016667
-0.026192 -0.060141 -0.033333
-0.028498 -0.049103 0.033333
-0.027327 -0.046942 0.016667
-0.026206 -0.045669 0.000000
-0.025675 -0.045241 -0.016667
-0.025221 -0.044710 -0.033333
-0.027588 -0.032968 0.033333
-0.026191 -0.031389 0.016667
-0.025371 -0.030323 0.000000
-0.024741 -0.029870 -0.016667
-0.024379 -0.029504 -0.033333
-0.026586 -0.016477 0.033333
-0.025242 -0.015798 0.016667
-0.024431 -0.014983 0.000000
-0.023833 -0.014531 -0.016667
-0.023487 -0.014236 -0.033333
-0.025881 -0.000709 0.033333
-0.024551 -0.000181 0.016667
-0.023429 0.000388 0.000000
-0.022970 0.000814 -0.016667
-0.022563 0.001044 -0.033333
-0.026138 0.015131 0.033333
-0.023397 0.015357 0.016667
-0.022708 0.015842 0.000000
-0.021961 0.016119 -0.016667
-0.021772 0.016396 -0.033333
-0.025251 0.031236 0.033333
-0.022472 0.030872 0.016667
-0.021922 0.031314 0.000000
-0.021014 0.031450 -0.016667
-0.020946 0.031758 -0.033333
-0.024364 0.047341 0.033333
-0.021799 0.046495 0.016667
-0.020919 0.046788 0.000000
-0.020237 0.046808 -0.016667
-0.019968 0.047144 -0.033333
-0.023477 0.063445 0.033333
-0.020933 0.062311 0.016667
-0.020019 0.062168 0.000000
-0.019365 0.062298 -0.016667
-0.019029 0.062449 -0.033333
-0.022589 0.079550 0.033333
-0.020013 0.078060 0.016667
-0.019080 0.077712 0.000000
-0.018422 0.077679 -0.016667
-0.018104 0.077889 -0.033333
-0.021702 0.095655 0.033333
-0.018959 0.093901 0.016667
-0.018099 0.093158 0.000000
-0.017450 0.093160 -0.016667
-0.017096 0.093257 -0.033333
-0.020815 0.111759 0.033333
-0.017922 0.109600 0.016667
-0.017034 0.108695 0.000000
-0.016404 0.108568 -0.016667
-0.016061 0.108667 -0.033333
-0.019927 0.127864 0.033333
-0.016798 0.125344 0.016667
-0.015940 0.124090 0.000000
-0.015296 0.123979 -0.016667
-0.014970 0.124050 -0.033333
-0.019040 0.143968 0.033333
-0.015740 0.140844 0.016667
-0.014796 0.139474 0.000000
-0.014155 0.139369 -0.016667
-0.013823 0.139357 -0.033333
-0.018153 0.160073 0.033333
-0.014699 0.156290 0.016667
-0.013620 0.154781 0.000000
-0.013001 0.154670 -0.016667
-0.012628 0.154697 -0.033333
-0.017266 0.176178 0.033333
-0.013707 0.171536 0.016667
-0.012481 0.170044 0.000000
-0.011795 0.169990 -0.016667
-0.011396 0.169959 -0.033333
-0.016378 0.192282 0.033333
-0.012727 0.186693 0.016667
-0.011312 0.185306 0.000000
-0.010518 0.185270 -0.016667
-0.010095 0.185240 -0.033333
-0.015491 0.208387 0.033333
-0.011956 0.201861 0.016667
-0.010021 0.200600 0.000000
-0.009149 0.200541 -0.016667
-0.008656 0.200532 -0.033333
-0.014604 0.224491 0.033333
-0.010576 0.217198 0.016667
-0.008590 0.215946 0.000000
-0.007529 0.215814 -0.016667
-0.007030 0.215844 -0.033333
-0.013717 0.240596 0.033333
-0.009248 0.232057 0.016667
-0.006448 0.231539 0.000000
-0.005612 0.230924 -0.016667
-0.005212 0.231278 -0.033333
-0.012829 0.256701 0.033333
-0.005734 0.247285 0.016667
-0.003636 0.247009 0.000000
-0.003322 0.245835 -0.016667
-0.003156 0.247010 -0.033333
0.000679 0.268520 0.033333
0.000390 0.262543 0.016667
-0.000157 0.261235 0.000000
-0.000761 0.261838 -0.016667
-0.001170 0.261665 -0.033333
0.006507 0.280893 0.033333
0.004757 0.277492 0.016667
0.003120 0.276127 0.000000
0.001593 0.277021 -0.016667
0.000652 0.277273 -0.033333
0.009554 0.294962 0.033333
0.008071 0.291905 0.016667
0.005460 0.291224 0.000000
0.003362 0.292369 -0.016667
0.002200 0.292874 -0.033333
0.011324 0.309208 0.033333
0.009494 0.306775 0.016667
0.006859 0.306547 0.000000
0.004512 0.307905 -0.016667
0.003101 0.308565 -0.033333
0.011322 0.323916 0.033333
0.009888 0.322086 0.016667
0.007294 0.322065 0.000000
0.004878 0.323603 -0.016667
0.003466 0.324388 -0.033333
0.010465 0.339349 0.033333
0.009160 0.337592 0.016667
0.006834 0.337757 0.000000
0.004539 0.339466 -0.016667
0.003197 0.340269 -0.033333
0.008434 0.354615 0.033333
0.007460 0.353211 0.016667
0.005477 0.353477 0.000000
0.003491 0.355426 -0.016667
0.002418 0.356236 -0.033333
0.005073 0.370042 0.033333
0.004398 0.368683 0.016667
0.003064 0.369188 0.000000
0.001798 0.371472 -0.016667
0.001299 0.372207 -0.033333
-0.000184 0.385095 0.033333
-0.000675 0.384069 0.016667
-0.000674 0.384854 0.000000
-0.000441 0.387598 -0.016667
0.000323 0.388168 -0.033333
0.021853 -0.487883 0.033333
0.023512 -0.499199 0.016667
0.025340 -0.501314 0.000000
0.026307 -0.501968 -0.016667
0.026810 -0.503041 -0.033333
0.029333 -0.473764 0.033333
0.028078 -0.482982 0.016667
0.027498 -0.486072 0.000000
0.027370 -0.486585 -0.016667
0.027334 -0.487712 -0.033333
0.034339 -0.459433 0.033333
0.031924 -0.467313 0.016667
0.029974 -0.470635 0.000000
0.028920 -0.471369 -0.016667
0.028380 -0.472305 -0.033333
0.037912 -0.445092 0.033333
0.034940 -0.451922 0.016667
0.032237 -0.455268 0.000000
0.030541 -0.456190 -0.016667
0.029620 -0.457006 -0.033333
0.040524 -0.430785 0.033333
0.037258 -0.436747 0.016667
0.034108 -0.440020 0.000000
0.031990 -0.441083 -0.016667
0.030799 -0.441831 -0.033333
0.042466 -0.416540 0.033333
0.038992 -0.421766 0.016667
0.035537 -0.424916 0.000000
0.033130 -0.426080 -0.016667
0.031750 -0.426793 -0.033333
0.043898 -0.402385 0.033333
0.040220 -0.406973 0.016667
0.036509 -0.409974 0.000000
0.033881 -0.411210 -0.016667
0.032361 -0.411905 -0.033333
0.044914 -0.388343 0.033333
0.040979 -0.392379 0.016667
0.037009 -0.395216 0.000000
0.034189 -0.396501 -0.016667
0.032551 -0.397185 -0.033333
0.045540 -0.374453 0.033333
0.041277 -0.378007 0.016667
0.037012 -0.380672 0.000000
0.034002 -0.381983 -0.016667
0.032258 -0.382654 -0.033333
0.045781 -0.360752 0.033333
0.041082 -0.363898 0.016667
0.036472 -0.366379 0.000000
0.033272 -0.367687 -0.016667
0.031425 -0.368335 -0.033333
0.045570 -0.347315 0.033333
0.040342 -0.350112 0.016667
0.035326 -0.352385 0.000000
0.031934 -0.353651 -0.016667
0.029998 -0.354255 -0.033333
0.044825 -0.334232 0.033333
0.038946 -0.336751 0.016667
0.033483 -0.338754 0.000000
0.029928 -0.339918 -0.016667
0.027919 -0.340437 -0.033333
0.043317 -0.321714 0.033333
0.036769 -0.323944 0.016667
0.030830 -0.325565 0.000000
0.027172 -0.326524 -0.016667
0.025146 -0.326906 -0.033333
0.040798 -0.310123 0.033333
0.033566 -0.311932 0.016667
0.027222 -0.312894 0.000000
0.023608 -0.313523 -0.016667
0.021634 -0.313645 -0.033333
0.036702 -0.300246 0.033333
0.029063 -0.300989 0.016667
0.022487 -0.300895 0.000000
0.019165 -0.300868 -0.016667
0.017417 -0.300678 -0.033333
0.030329 -0.293417 0.033333
0.022749 -0.291912 0.016667
0.016438 -0.289437 0.000000
0.013883 -0.288615 -0.016667
0.012510 -0.287869 -0.033333
0.021358 -0.291684 0.033333
0.013693 -0.283974 0.016667
0.008916 -0.278498 0.000000
0.007786 -0.276643 -0.016667
0.007243 -0.275018 -0.033333
0.000149 -0.285562 0.033333
0.000079 -0.276012 0.016667
0.000070 -0.267221 0.000000
0.001218 -0.264541 -0.016667
0.001939 -0.262156 -0.033333
-0.026004 -0.275638 0.033333
-0.016286 -0.260883 0.016667
-0.008561 -0.256440 0.000000
-0.004823 -0.250549 -0.016667
-0.002719 -0.250002 -0.033333
-0.025117 -0.259534 0.033333
-0.018354 -0.246636 0.016667
-0.012814 -0.241229 0.000000
-0.008886 -0.237587 -0.016667
-0.006477 -0.235947 -0.033333
-0.024229 -0.243429 0.033333
-0.020069 -0.230165 0.016667
-0.014513 -0.226560 0.000000
-0.011173 -0.223470 -0.016667
-0.009263 -0.222077 -0.033333
-0.023342 -0.227325 0.033333
-0.018435 -0.215751 0.016667
-0.015101 -0.211646 0.000000
-0.012482 -0.209404 -0.016667
-0.010985 -0.207696 -0.033333
-0.022455 -0.211220 0.033333
-0.018134 -0.201323 0.016667
-0.015133 -0.196997 0.000000
-0.013230 -0.194889 -0.016667
-0.011964 -0.193376 -0.033333
-0.021568 -0.195115 0.033333
-0.017420 -0.186529 0.016667
-0.015100 -0.182303 0.000000
-0.013489 -0.180231 -0.016667
-0.012498 -0.178859 -0.033333
-0.020680 -0.179011 0.033333
-0.017000 -0.171478 0.016667
-0.014851 -0.167470 0.000000
-0.013524 -0.165427 -0.016667
-0.012615 -0.164229 -0.033333
-0.019793 -0.162906 0.033333
-0.016327 -0.156178 0.016667
-0.014527 -0.152437 0.000000
-0.013285 -0.150580 -0.016667
-0.012528 -0.149410 -0.033333
-0.018906 -0.146802 0.033333
-0.015728 -0.140701 0.016667
-0.014050 -0.137357 0.000000
-0.012909 -0.135555 -0.016667
-0.012216 -0.134579 -0.033333
-0.018019 -0.130697 0.033333
-0.014943 -0.125083 0.016667
-0.013494 -0.122150 0.000000
-0.012376 -0.120497 -0.016667
-0.011781 -0.119619 -0.033333
-0.017132 -0.114592 0.033333
-0.014119 -0.109470 0.016667
-0.012827 -0.106830 0.000000
-0.011776 -0.105403 -0.016667
-0.011187 -0.104567 -0.033333
-0.016244 -0.098488 0.033333
-0.013303 -0.093737 0.016667
-0.012080 -0.091559 0.000000
-0.011065 -0.090132 -0.016667
-0.010525 -0.089609 -0.033333
-0.015357 -0.082383 0.033333
-0.012346 -0.077837 0.016667
-0.011315 -0.076346 0.000000
-0.010268 -0.074784 -0.016667
-0.009798 -0.074667 -0.033333
-0.013323 -0.065655 0.033333
-0.011760 -0.062486 0.016667
-0.010300 -0.060588 0.000000
-0.009515 -0.059933 -0.016667
-0.008966 -0.059233 -0.033333
-0.012622 -0.049303 0.033333
-0.010581 -0.046790 0.016667
-0.009451 -0.045273 0.000000
-0.008617 -0.044674 -0.016667
-0.008158 -0.044186 -0.033333
-0.011232 -0.032543 0.033333
-0.009673 -0.031159 0.016667
-0.008439 -0.029965 0.000000
-0.007766 -0.029464 -0.016667
-0.007280 -0.029078 -0.033333
-0.010246 -0.016490 0.033333
-0.008667 -0.015473 0.016667
-0.007515 -0.014710 0.000000
-0.006864 -0.014256 -0.016667
-0.006418 -0.013952 -0.033333
-0.009266 -0.000163 0.033333
-0.007750 0.000024 0.016667
-0.006642 0.000554 0.000000
-0.005952 0.000959 -0.016667
-0.005578 0.001184 -0.033333
-0.009023 0.015582 0.033333
-0.006899 0.015457 0.016667
-0.005724 0.015830 0.000000
-0.005140 0.016180 -0.016667
-0.004673 0.016343 -0.033333
-0.007797 0.030718 0.033333
-0.006169 0.030972 0.016667
-0.004851 0.031115 0.000000
-0.004309 0.031393 -0.016667
-0.003815 0.031562 -0.033333
-0.008259 0.046453 0.033333
-0.005005 0.046273 0.016667
-0.004254 0.046548 0.000000
-0.003315 0.046557 -0.016667
-0.003081 0.046869 -0.033333
-0.007372 0.062558 0.033333
-0.004423 0.061779 0.016667
-0.003336 0.061924 0.000000
-0.002496 0.061825 -0.016667
-0.002177 0.062140 -0.033333
-0.006485 0.078663 0.033333
-0.003525 0.077562 0.016667
-0.002436 0.077196 0.000000
-0.001640 0.077240 -0.016667
-0.001207 0.077332 -0.033333
-0.005597 0.094767 0.033333
-0.002562 0.093282 0.016667
-0.001483 0.092653 0.000000
-0.000645 0.092548 -0.016667
-0.000259 0.092643 -0.033333
-0.004710 0.110872 0.033333
-0.001394 0.109092 0.016667
-0.000435 0.108029 0.000000
0.000393 0.107887 -0.016667
0.000819 0.107929 -0.033333
-0.003823 0.126976 0.033333
-0.000227 0.124633 0.016667
0.000756 0.123452 0.000000
0.001533 0.123188 -0.016667
0.001932 0.123156 -0.033333
-0.002936 0.143081 0.033333
0.001027 0.140184 0.016667
0.001999 0.138656 0.000000
0.002728 0.138413 -0.016667
0.003106 0.138405 -0.033333
-0.002048 0.159186 0.033333
0.002244 0.155373 0.016667
0.003159 0.153817 0.000000
0.003951 0.153627 -0.016667
0.004305 0.153537 -0.033333
-0.001161 0.175290 0.033333
0.003319 0.170474 0.016667
0.004362 0.168943 0.000000
0.005161 0.168732 -0.016667
0.005531 0.168733 -0.033333
-0.000274 0.191395 0.033333
0.004301 0.185454 0.016667
0.005540 0.183982 0.000000
0.006389 0.183910 -0.016667
0.006827 0.183861 -0.033333
0.000613 0.207500 0.033333
0.005170 0.200189 0.016667
0.006713 0.199113 0.000000
0.007757 0.199062 -0.016667
0.008198 0.199039 -0.033333
0.001501 0.223604 0.033333
0.005504 0.215301 0.016667
0.008172 0.214335 0.000000
0.009279 0.214159 -0.016667
0.009759 0.214326 -0.033333
0.002388 0.239709 0.033333
0.007594 0.230819 0.016667
0.010025 0.229594 0.000000
0.011131 0.229292 -0.016667
0.011615 0.229653 -0.033333
0.003275 0.255813 0.033333
0.010434 0.244838 0.016667
0.013059 0.245505 0.000000
0.013407 0.243915 -0.016667
0.013526 0.245416 -0.033333
0.019563 0.266267 0.033333
0.017678 0.261679 0.016667
0.016661 0.259024 0.000000
0.015919 0.260091 -0.016667
0.015430 0.260095 -0.033333
0.024118 0.279499 0.033333
0.022527 0.275003 0.016667
0.019869 0.274151 0.000000
0.018103 0.275331 -0.016667
0.017324 0.275752 -0.033333
0.027368 0.292054 0.033333
0.024901 0.289427 0.016667
0.022061 0.289404 0.000000
0.019904 0.290860 -0.016667
0.018617 0.291477 -0.033333
0.027649 0.306073 0.033333
0.026115 0.304684 0.016667
0.023271 0.304991 0.000000
0.020867 0.306569 -0.016667
0.019535 0.307390 -0.033333
0.027175 0.321929 0.033333
0.025978 0.320440 0.016667
0.023554 0.320887 0.000000
0.021166 0.322540 -0.016667
0.019780 0.323353 -0.033333
0.025877 0.338114 0.033333
0.025171 0.336677 0.016667
0.023008 0.336905 0.000000
0.020756 0.338640 -0.016667
0.019478 0.339460 -0.033333
0.024296 0.354499 0.033333
0.023535 0.352749 0.016667
0.021650 0.352996 0.000000
0.019693 0.354828 -0.016667
0.018666 0.355584 -0.033333
0.021284 0.369862 0.033333
0.020683 0.368598 0.016667
0.019311 0.368931 0.000000
0.018004 0.371064 -0.016667
0.017518 0.371726 -0.033333
0.016164 0.385283 0.033333
0.015676 0.384055 0.016667
0.015571 0.384769 0.000000
0.015758 0.387322 -0.016667
0.016551 0.387820 -0.033333
0.038354 -0.487680 0.033333
0.040181 -0.498478 0.016667
0.042141 -0.500478 0.000000
0.043198 -0.501023 -0.016667
0.043754 -0.502055 -0.033333
0.046058 -0.473242 0.033333
0.044881 -0.482050 0.016667
0.044370 -0.484978 0.000000
0.044311 -0.485440 -0.016667
0.044312 -0.486495 -0.033333
0.051205 -0.458521 0.033333
0.048843 -0.466076 0.016667
0.046947 -0.469268 0.000000
0.045939 -0.469975 -0.016667
0.045428 -0.470862 -0.033333
0.054880 -0.443723 0.033333
0.051968 -0.450318 0.016667
0.049317 -0.453591 0.000000
0.047655 -0.454519 -0.016667
0.046756 -0.455314 -0.033333
0.057587 -0.428897 0.033333
0.054389 -0.434723 0.016667
0.051294 -0.437994 0.000000
0.049208 -0.439104 -0.016667
0.048036 -0.439863 -0.033333
0.059618 -0.414076 0.033333
0.056226 -0.419270 0.016667
0.052832 -0.422501 0.000000
0.050456 -0.423764 -0.016667
0.049094 -0.424523 -0.033333
0.061147 -0.399274 0.033333
0.057557 -0.403953 0.016667
0.053913 -0.407132 0.000000
0.051319 -0.408529 -0.016667
0.049813 -0.409308 -0.033333
0.062250 -0.384511 0.033333
0.058424 -0.388778 0.016667
0.054527 -0.391910 0.000000
0.051737 -0.393428 -0.016667
0.050114 -0.394240 -0.033333
0.062971 -0.369791 0.033333
0.058828 -0.373760 0.016667
0.054644 -0.376863 0.000000
0.051665 -0.378492 -0.016667
0.049931 -0.379343 -0.033333
0.063270 -0.355139 0.033333
0.058748 -0.358925 0.016667
0.054224 -0.362026 0.000000
0.051047 -0.363760 -0.016667
0.049210 -0.364648 -0.033333
0.063105 -0.340560 0.033333
0.058110 -0.344318 0.016667
0.053199 -0.347450 0.000000
0.049827 -0.349273 -0.016667
0.047889 -0.350188 -0.033333
0.062285 -0.326120 0.033333
0.056827 -0.330004 0.016667
0.051484 -0.333200 0.000000
0.047928 -0.335084 -0.016667
0.045919 -0.336003 -0.033333
0.060641 -0.311879 0.033333
0.054714 -0.316107 0.016667
0.048956 -0.319362 0.000000
0.045285 -0.321251 -0.016667
0.043237 -0.322125 -0.033333
0.057643 -0.298123 0.033333
0.051597 -0.302785 0.016667
0.045466 -0.306052 0.000000
0.041808 -0.307823 -0.016667
0.039824 -0.308597 -0.033333
0.052891 -0.285334 0.033333
0.047083 -0.290412 0.016667
0.040846 -0.293368 0.000000
0.037454 -0.294895 -0.016667
0.035658 -0.295383 -0.033333
0.045648 -0.275223 0.033333
0.040888 -0.279230 0.016667
0.034869 -0.281652 0.000000
0.032197 -0.282344 -0.016667
0.030850 -0.282572 -0.033333
0.035615 -0.269324 0.033333
0.032449 -0.271406 0.016667
0.027514 -0.270662 0.000000
0.026150 -0.270397 -0.016667
0.025492 -0.269821 -0.033333
0.021730 -0.278195 0.033333
0.019919 -0.266878 0.016667
0.018075 -0.260770 0.000000
0.019717 -0.258767 -0.016667
0.020098 -0.256909 -0.033333
-0.009899 -0.276526 0.033333
-0.000162 -0.260372 0.016667
0.008519 -0.250947 0.000000
0.013143 -0.245694 -0.016667
0.015583 -0.245180 -0.033333
-0.009012 -0.260421 0.033333
-0.004490 -0.242200 0.016667
0.004531 -0.237671 0.000000
0.009222 -0.232766 -0.016667
0.011597 -0.231851 -0.033333
-0.008125 -0.244316 0.033333
-0.001339 -0.228232 0.016667
0.003316 -0.222784 0.000000
0.006876 -0.219912 -0.016667
0.008847 -0.217764 -0.033333
-0.007238 -0.228212 0.033333
-0.000846 -0.214711 0.016667
0.003005 -0.208780 0.000000
0.005432 -0.205866 -0.016667
0.007116 -0.204120 -0.033333
-0.006350 -0.212107 0.033333
-0.000380 -0.200307 0.016667
0.002675 -0.194627 0.000000
0.004665 -0.191712 -0.016667
0.006001 -0.190086 -0.033333
-0.005463 -0.196002 0.033333
-0.000292 -0.185636 0.016667
0.002501 -0.180157 0.000000
0.004255 -0.177367 -0.016667
0.005400 -0.175892 -0.033333
-0.004576 -0.179898 0.033333
0.000101 -0.170554 0.016667
0.002503 -0.165453 0.000000
0.004154 -0.162877 -0.016667
0.005129 -0.161504 -0.033333
-0.003689 -0.163793 0.033333
0.000481 -0.155322 0.016667
0.002717 -0.150615 0.000000
0.004251 -0.148218 -0.016667
0.005153 -0.147017 -0.033333
-0.002801 -0.147689 0.033333
0.001065 -0.139907 0.016667
0.003066 -0.135626 0.000000
0.004546 -0.133488 -0.016667
0.005364 -0.132373 -0.033333
-0.001914 -0.131584 0.033333
0.001647 -0.124350 0.016667
0.003570 -0.120606 0.000000
0.004960 -0.118592 -0.016667
0.005754 -0.117715 -0.033333
-0.001027 -0.115479 0.033333
0.002565 -0.108550 0.016667
0.004004 -0.105539 0.000000
0.005641 -0.103591 -0.016667
0.006150 -0.103023 -0.033333
-0.000140 -0.099375 0.033333
0.003479 -0.092957 0.016667
0.004577 -0.090082 0.000000
0.006409 -0.088871 -0.016667
0.006675 -0.087950 -0.033333
0.000747 -0.083270 0.033333
0.003947 -0.076967 0.016667
0.005742 -0.075018 0.000000
0.006880 -0.073687 -0.016667
0.007604 -0.073263 -0.033333
0.002188 -0.065183 0.033333
0.004848 -0.061729 0.016667
0.006618 -0.059516 0.000000
0.007722 -0.058873 -0.016667
0.008339 -0.058196 -0.033333
0.003606 -0.047929 0.033333
0.005866 -0.045983 0.016667
0.007619 -0.044396 0.000000
0.008539 -0.043790 -0.016667
0.009180 -0.043341 -0.033333
0.004999 -0.031740 0.033333
0.007023 -0.030296 0.016667
0.008552 -0.029258 0.000000
0.009449 -0.028766 -0.016667
0.009987 -0.028413 -0.033333
0.006336 -0.015469 0.033333
0.008076 -0.014826 0.016667
0.009512 -0.014124 0.000000
0.010327 -0.013739 -0.016667
0.010822 -0.013479 -0.033333
0.007220 0.000306 0.033333
0.009102 0.000602 0.016667
0.010422 0.000980 0.000000
0.011168 0.001288 -0.016667
0.011672 0.001491 -0.033333
0.008370 0.015866 0.033333
0.009923 0.015976 0.016667
0.011292 0.016077 0.000000
0.012004 0.016324 -0.016667
0.012475 0.016498 -0.033333
0.008982 0.031677 0.033333
0.010888 0.031151 0.016667
0.012036 0.031226 0.000000
0.012830 0.031396 -0.016667
0.013274 0.031510 -0.033333
0.009855 0.046641 0.033333
0.011384 0.046533 0.016667
0.012908 0.046382 0.000000
0.013563 0.046481 -0.016667
0.014130 0.046591 -0.033333
0.008733 0.061671 0.033333
0.012452 0.061950 0.016667
0.013458 0.061593 0.000000
0.014515 0.061603 -0.016667
0.014851 0.061711 -0.033333
0.009620 0.077775 0.033333
0.013242 0.077235 0.016667
0.014200 0.076962 0.000000
0.015435 0.076705 -0.016667
0.015680 0.076905 -0.033333
0.010507 0.093880 0.033333
0.014001 0.092829 0.016667
0.015185 0.092255 0.000000
0.016287 0.091930 -0.016667
0.016741 0.092028 -0.033333
0.011394 0.109985 0.033333
0.014974 0.108646 0.016667
0.016295 0.107533 0.000000
0.017359 0.107184 -0.016667
0.017781 0.107100 -0.033333
0.012282 0.126089 0.033333
0.016634 0.124481 0.016667
0.017423 0.122688 0.000000
0.018599 0.122336 -0.016667
0.018921 0.122227 -0.033333
0.013169 0.142194 0.033333
0.018233 0.139461 0.016667
0.018839 0.137909 0.000000
0.019895 0.137384 -0.016667
0.020094 0.137247 -0.033333
0.014056 0.158299 0.033333
0.019433 0.154502 0.016667
0.020158 0.152802 0.000000
0.021158 0.152314 -0.016667
0.021300 0.152348 -0.033333
0.014944 0.174403 0.033333
0.020715 0.169378 0.016667
0.021312 0.167551 0.000000
0.022390 0.167339 -0.016667
0.022511 0.167303 -0.033333
0.015831 0.190508 0.033333
0.021842 0.183962 0.016667
0.022481 0.182437 0.000000
0.023574 0.182249 -0.016667
0.023754 0.182399 -0.033333
0.016718 0.206612 0.033333
0.022703 0.198483 0.016667
0.023628 0.197305 0.000000
0.024776 0.197299 -0.016667
0.025137 0.197457 -0.033333
0.017605 0.222717 0.033333
0.023086 0.212366 0.016667
0.024917 0.212378 0.000000
0.026260 0.212368 -0.016667
0.026617 0.212553 -0.033333
0.018493 0.238821 0.033333
0.022501 0.227553 0.016667
0.026866 0.227657 0.000000
0.028074 0.227073 -0.016667
0.028254 0.228090 -0.033333
0.019380 0.254926 0.033333
0.027067 0.244430 0.016667
0.029980 0.241941 0.000000
0.029996 0.242116 -0.016667
0.030353 0.243691 -0.033333
0.041794 0.264714 0.033333
0.035672 0.256909 0.016667
0.033104 0.256262 0.000000
0.032345 0.258161 -0.016667
0.032198 0.258344 -0.033333
0.043956 0.272784 0.033333
0.039639 0.270824 0.016667
0.036175 0.271589 0.000000
0.034688 0.273546 -0.016667
0.033597 0.274146 -0.033333
0.043687 0.286069 0.033333
0.041496 0.285902 0.016667
0.038339 0.287281 0.000000
0.036124 0.289165 -0.016667
0.034995 0.290146 -0.033333
0.043648 0.302310 0.033333
0.041930 0.301882 0.016667
0.039309 0.303295 0.000000
0.037010 0.305218 -0.016667
0.035718 0.306144 -0.033333
0.041791 0.318988 0.033333
0.041554 0.318702 0.016667
0.039416 0.319587 0.000000
0.037161 0.321430 -0.016667
0.035949 0.322368 -0.033333
0.040375 0.336984 0.033333
0.040487 0.335552 0.016667
0.038835 0.336086 0.000000
0.036719 0.337804 -0.016667
0.035573 0.338618 -0.033333
0.039169 0.354222 0.033333
0.039138 0.352463 0.016667
0.037547 0.352425 0.000000
0.035682 0.354235 -0.016667
0.034738 0.354947 -0.033333
0.037381 0.370714 0.033333
0.036817 0.368556 0.016667
0.035328 0.368697 0.000000
0.034026 0.370639 -0.016667
0.033630 0.371232 -0.033333
0.032933 0.385243 0.033333
0.032056 0.384105 0.016667
0.031745 0.384681 0.000000
0.031842 0.387044 -0.016667
0.032628 0.387465 -0.033333
0.054662 -0.487476 0.033333
0.056631 -0.497755 0.016667
0.058716 -0.499634 0.000000
0.059860 -0.500075 -0.016667
0.060468 -0.501063 -0.033333
0.062451 -0.472723 0.033333
0.061391 -0.481119 0.016667
0.060979 -0.483882 0.000000
0.061006 -0.484291 -0.016667
0.061052 -0.485276 -0.033333
0.067641 -0.457612 0.033333
0.065402 -0.464846 0.016667
0.063614 -0.467907 0.000000
0.062683 -0.468584 -0.016667
0.062218 -0.469423 -0.033333
0.071351 -0.442356 0.033333
0.068575 -0.448726 0.016667
0.066043 -0.451926 0.000000
0.064462 -0.452856 -0.016667
0.063608 -0.453631 -0.033333
0.074081 -0.427020 0.033333
0.071043 -0.432716 0.016667
0.068083 -0.435984 0.000000
0.066083 -0.437140 -0.016667
0.064959 -0.437910 -0.033333
0.076139 -0.411629 0.033333
0.072923 -0.416800 0.016667
0.069682 -0.420108 0.000000
0.067403 -0.421468 -0.016667
0.066092 -0.422271 -0.033333
0.077676 -0.396201 0.033333
0.074296 -0.400967 0.016667
0.070829 -0.404316 0.000000
0.068339 -0.405869 -0.016667
0.066892 -0.406731 -0.033333
0.078785 -0.380735 0.033333
0.075196 -0.385222 0.016667
0.071504 -0.388632 0.000000
0.068836 -0.390375 -0.016667
0.067275 -0.391312 -0.033333
0.079454 -0.365239 0.033333
0.075629 -0.369571 0.016667
0.071685 -0.373080 0.000000
0.068841 -0.375018 -0.016667
0.067180 -0.376042 -0.033333
0.079677 -0.349694 0.033333
0.075545 -0.354033 0.016667
0.071323 -0.357698 0.000000
0.068308 -0.359837 -0.016667
0.066547 -0.360958 -0.033333
0.079289 -0.334117 0.033333
0.074888 -0.338634 0.016667
0.070357 -0.342527 0.000000
0.067167 -0.344880 -0.016667
0.065326 -0.346098 -0.033333
0.078186 -0.318508 0.033333
0.073507 -0.323430 0.016667
0.068686 -0.327636 0.000000
0.065363 -0.330202 -0.016667
0.063451 -0.331510 -0.033333
0.075912 -0.302997 0.033333
0.071258 -0.308498 0.016667
0.066198 -0.313102 0.000000
0.062801 -0.315872 -0.016667
0.060887 -0.317247 -0.033333
0.072252 -0.287775 0.033333
0.067797 -0.293998 0.016667
0.062722 -0.299053 0.000000
0.059432 -0.301964 -0.016667
0.057583 -0.303349 -0.033333
0.066302 -0.273540 0.033333
0.062822 -0.280124 0.016667
0.058093 -0.285646 0.000000
0.055170 -0.288533 -0.016667
0.053578 -0.289887 -0.033333
0.057936 -0.260696 0.033333
0.055651 -0.267541 0.016667
0.052141 -0.272947 0.000000
0.050062 -0.275756 -0.016667
0.048904 -0.276745 -0.033333
0.044098 -0.253284 0.033333
0.046357 -0.256143 0.016667
0.044691 -0.261418 0.000000
0.044219 -0.263402 -0.016667
0.043854 -0.264160 -0.033333
0.026670 -0.254233 0.033333
0.033776 -0.251976 0.016667
0.035922 -0.250055 0.000000
0.038282 -0.252706 -0.016667
0.038324 -0.250684 -0.033333
0.006205 -0.277413 0.033333
0.014123 -0.249815 0.016667
0.026731 -0.243991 0.000000
0.031378 -0.238984 -0.016667
0.034083 -0.239833 -0.033333
0.007093 -0.261308 0.033333
0.015139 -0.240874 0.016667
0.023721 -0.230924 0.000000
0.027506 -0.227327 -0.016667
0.030247 -0.226333 -0.033333
0.007980 -0.245204 0.033333
0.016780 -0.228360 0.016667
0.022300 -0.218350 0.000000
0.025252 -0.214258 -0.016667
0.027467 -0.213214 -0.033333
0.008867 -0.229099 0.033333
0.017044 -0.213715 0.016667
0.021399 -0.204724 0.000000
0.023865 -0.201075 -0.016667
0.025536 -0.199636 -0.033333
0.009754 -0.212994 0.033333
0.016877 -0.198863 0.016667
0.020579 -0.190641 0.000000
0.022989 -0.187407 -0.016667
0.024295 -0.185981 -0.033333
0.010641 -0.196890 0.033333
0.016945 -0.183578 0.016667
0.020155 -0.176300 0.000000
0.022451 -0.173461 -0.016667
0.023558 -0.172097 -0.033333
0.011529 -0.180785 0.033333
0.017123 -0.168325 0.016667
0.020029 -0.161808 0.000000
0.022201 -0.159293 -0.016667
0.023197 -0.158065 -0.033333
0.012416 -0.164681 0.033333
0.017535 -0.152959 0.016667
0.020125 -0.147186 0.000000
0.022205 -0.144994 -0.016667
0.023098 -0.143861 -0.033333
0.013303 -0.148576 0.033333
0.017965 -0.137573 0.016667
0.020418 -0.132511 0.000000
0.022373 -0.130534 -0.016667
0.023237 -0.129576 -0.033333
0.014190 -0.132471 0.033333
0.018535 -0.122090 0.016667
0.020756 -0.117689 0.000000
0.022763 -0.116046 -0.016667
0.023496 -0.115127 -0.033333
0.015078 -0.116367 0.033333
0.018608 -0.105906 0.016667
0.021630 -0.103288 0.000000
0.022978 -0.101038 -0.016667
0.024149 -0.101009 -0.033333
0.015375 -0.096319 0.033333
0.019552 -0.091026 0.016667
0.022171 -0.087778 0.000000
0.023683 -0.086864 -0.016667
0.024621 -0.086017 -0.033333
0.017020 -0.077961 0.033333
0.020432 -0.075296 0.016667
0.022982 -0.072901 0.000000
0.024408 -0.072074 -0.016667
0.025251 -0.071503 -0.033333
0.018147 -0.061853 0.033333
0.021581 -0.059531 0.016667
0.023904 -0.058008 0.000000
0.025177 -0.057312 -0.016667
0.025992 -0.056890 -0.033333
0.020151 -0.045814 0.033333
0.022726 -0.044218 0.016667
0.024863 -0.043034 0.000000
0.026040 -0.042587 -0.016667
0.026738 -0.042208 -0.033333
0.021728 -0.029864 0.033333
0.023966 -0.028964 0.016667
0.025835 -0.028153 0.000000
0.026901 -0.027798 -0.016667
0.027531 -0.027542 -0.033333
0.023070 -0.014286 0.033333
0.025125 -0.013743 0.016667
0.026781 -0.013279 0.000000
0.027751 -0.013019 -0.016667
0.028330 -0.012820 -0.033333
0.024348 0.001264 0.033333
0.026119 0.001423 0.016667
0.027683 0.001602 0.000000
0.028577 0.001777 -0.016667
0.029104 0.001934 -0.033333
0.025239 0.016843 0.033333
0.027081 0.016530 0.016667
0.028493 0.016507 0.000000
0.029359 0.016610 -0.016667
0.029877 0.016709 -0.033333
0.026194 0.032174 0.033333
0.027828 0.031786 0.016667
0.029282 0.031419 0.000000
0.030089 0.031463 -0.016667
0.030642 0.031555 -0.033333
0.026830 0.048172 0.033333
0.028515 0.046918 0.016667
0.029923 0.046388 0.000000
0.030863 0.046395 -0.016667
0.031362 0.046400 -0.033333
0.026474 0.063743 0.033333
0.029061 0.062078 0.016667
0.030676 0.061467 0.000000
0.031538 0.061349 -0.016667
0.032207 0.061309 -0.033333
0.027760 0.078043 0.033333
0.029550 0.077593 0.016667
0.031382 0.076621 0.000000
0.032349 0.076297 -0.016667
0.033052 0.076311 -0.033333
0.026612 0.092993 0.033333
0.030564 0.093371 0.016667
0.032030 0.091749 0.000000
0.033425 0.091331 -0.016667
0.033859 0.091278 -0.033333
0.027499 0.109097 0.033333
0.031839 0.108990 0.016667
0.032902 0.106895 0.000000
0.034613 0.106381 -0.016667
0.034868 0.106191 -0.033333
0.028386 0.125202 0.033333
0.032939 0.124841 0.016667
0.034362 0.121965 0.000000
0.035996 0.121344 -0.016667
0.035906 0.121045 -0.033333
0.029274 0.141307 0.033333
0.036523 0.140471 0.016667
0.035799 0.136383 0.000000
0.037517 0.136204 -0.016667
0.036999 0.136008 -0.033333
0.030161 0.157411 0.033333
0.037937 0.154028 0.016667
0.037048 0.151055 0.000000
0.038940 0.150928 -0.016667
0.038126 0.150888 -0.033333
0.031048 0.173516 0.033333
0.038949 0.167640 0.016667
0.038366 0.165728 0.000000
0.040059 0.165521 -0.016667
0.039343 0.165955 -0.033333
0.031935 0.189620 0.033333
0.040069 0.181632 0.016667
0.039327 0.180221 0.000000
0.041168 0.180478 -0.016667
0.040552 0.180771 -0.033333
0.032823 0.205725 0.033333
0.040417 0.196072 0.016667
0.040404 0.195028 0.000000
0.042311 0.195292 -0.016667
0.041793 0.195845 -0.033333
0.033710 0.221830 0.033333
0.041500 0.210659 0.016667
0.041749 0.209818 0.000000
0.043479 0.210127 -0.016667
0.043368 0.211084 -0.033333
0.034597 0.237934 0.033333
0.040940 0.222976 0.016667
0.043870 0.224604 0.000000
0.044901 0.225261 -0.016667
0.045163 0.226201 -0.033333
0.035484 0.254039 0.033333
0.041997 0.233292 0.016667
0.046844 0.240719 0.000000
0.046980 0.239582 -0.016667
0.046696 0.242206 -0.033333
0.050279 0.239413 0.033333
0.052198 0.249450 0.016667
0.048800 0.253639 0.000000
0.049480 0.256295 -0.016667
0.048113 0.256705 -0.033333
0.058114 0.258212 0.033333
0.055350 0.264953 0.016667
0.052442 0.269265 0.000000
0.050822 0.271637 -0.016667
0.050016 0.272823 -0.033333
0.057932 0.279755 0.033333
0.056766 0.281918 0.016667
0.054159 0.285232 0.000000
0.052195 0.287688 -0.016667
0.051117 0.288798 -0.033333
0.057937 0.297916 0.033333
0.057179 0.299402 0.016667
0.054928 0.301713 0.000000
0.052835 0.303935 -0.016667
0.051813 0.305060 -0.033333
0.056008 0.316649 0.033333
0.056264 0.316866 0.016667
0.054909 0.318515 0.000000
0.052947 0.320400 -0.016667
0.051875 0.321428 -0.033333
0.053363 0.335246 0.033333
0.055324 0.334776 0.016667
0.054331 0.335220 0.000000
0.052406 0.337011 -0.016667
0.051561 0.337898 -0.033333
0.053081 0.354724 0.033333
0.054273 0.351872 0.016667
0.053228 0.351974 0.000000
0.051390 0.353660 -0.016667
0.050738 0.354300 -0.033333
0.053591 0.370911 0.033333
0.052639 0.368689 0.016667
0.051160 0.368281 0.000000
0.049954 0.370283 -0.016667
0.049522 0.370730 -0.033333
0.050062 0.386023 0.033333
0.048660 0.384248 0.016667
0.047769 0.384531 0.000000
0.047764 0.386762 -0.016667
0.048658 0.387114 -0.033333
0.070781 -0.487275 0.033333
0.072870 -0.497049 0.016667
0.075074 -0.498804 0.000000
0.076304 -0.499152 -0.016667
0.076962 -0.500093 -0.033333
0.078516 -0.472220 0.033333
0.077617 -0.480215 0.016667
0.077339 -0.482819 0.000000
0.077466 -0.483174 -0.016667
0.077566 -0.484094 -0.033333
0.083672 -0.456734 0.033333
0.081614 -0.463661 0.016667
0.079987 -0.466595 0.000000
0.079165 -0.467239 -0.016667
0.078763 -0.468032 -0.033333
0.087348 -0.441050 0.033333
0.084781 -0.447203 0.016667
0.082434 -0.450329 0.000000
0.080974 -0.451258 -0.016667
0.080190 -0.452012 -0.033333
0.090054 -0.425231 0.033333
0.087243 -0.430806 0.016667
0.084492 -0.434066 0.000000
0.082630 -0.435259 -0.016667
0.081582 -0.436037 -0.033333
0.092072 -0.409315 0.033333
0.089120 -0.414456 0.016667
0.086115 -0.417831 0.000000
0.083987 -0.419275 -0.016667
0.082762 -0.420118 -0.033333
0.093574 -0.393310 0.033333
0.090482 -0.398147 0.016667
0.087282 -0.401645 0.000000
0.084967 -0.403334 -0.016667
0.083613 -0.404270 -0.033333
0.094594 -0.377223 0.033333
0.091365 -0.381880 0.016667
0.087982 -0.385530 0.000000
0.085508 -0.387469 -0.016667
0.084056 -0.388518 -0.033333
0.095168 -0.361042 0.033333
0.091753 -0.365661 0.016667
0.088180 -0.369514 0.000000
0.085566 -0.371714 -0.016667
0.084025 -0.372893 -0.033333
0.095174 -0.344775 0.033333
0.091613 -0.349505 0.016667
0.087840 -0.353628 0.000000
0.085085 -0.356110 -0.016667
0.083471 -0.357434 -0.033333
0.094569 -0.328426 0.033333
0.090837 -0.333438 0.016667
0.086881 -0.337924 0.000000
0.084016 -0.340707 -0.016667
0.082333 -0.342185 -0.033333
0.093012 -0.312061 0.033333
0.089316 -0.317519 0.016667
0.085231 -0.322457 0.000000
0.082278 -0.325567 -0.016667
0.080572 -0.327202 -0.033333
0.090404 -0.295809 0.033333
0.086816 -0.301842 0.016667
0.082740 -0.307331 0.000000
0.079826 -0.310761 -0.016667
0.078128 -0.312543 -0.033333
0.086107 -0.279981 0.033333
0.083127 -0.286585 0.016667
0.079313 -0.292660 0.000000
0.076562 -0.296375 -0.016667
0.075008 -0.298279 -0.033333
0.080150 -0.264990 0.033333
0.077875 -0.272112 0.016667
0.074742 -0.278635 0.000000
0.072517 -0.282511 -0.016667
0.071185 -0.284442 -0.033333
0.071513 -0.251892 0.033333
0.070938 -0.258851 0.016667
0.069074 -0.265478 0.000000
0.067663 -0.269220 -0.016667
0.066831 -0.271127 -0.033333
0.060717 -0.241766 0.033333
0.062867 -0.247715 0.016667
0.062354 -0.253256 0.000000
0.062452 -0.256843 -0.016667
0.061824 -0.257922 -0.033333
0.046303 -0.237520 0.033333
0.055384 -0.236815 0.016667
0.055741 -0.243193 0.000000
0.056290 -0.244108 -0.016667
0.057074 -0.245937 -0.033333
0.026273 -0.242414 0.033333
0.037694 -0.236973 0.016667
0.045335 -0.232854 0.000000
0.050839 -0.233485 -0.016667
0.052253 -0.232683 -0.033333
0.026508 -0.232218 0.033333
0.037531 -0.221910 0.016667
0.043031 -0.222370 0.000000
0.046834 -0.220364 -0.016667
0.048868 -0.220892 -0.033333
0.027494 -0.219094 0.033333
0.035928 -0.209540 0.016667
0.041524 -0.209542 0.000000
0.044337 -0.208067 -0.016667
0.046281 -0.207787 -0.033333
0.027977 -0.205671 0.033333
0.035396 -0.197358 0.016667
0.039974 -0.196601 0.000000
0.042775 -0.195149 -0.016667
0.044369 -0.194627 -0.033333
0.028554 -0.191853 0.033333
0.034902 -0.184703 0.016667
0.039023 -0.183288 0.000000
0.041634 -0.181938 -0.016667
0.043084 -0.181249 -0.033333
0.029162 -0.177618 0.033333
0.034814 -0.171538 0.016667
0.038478 -0.169685 0.000000
0.040947 -0.168423 -0.016667
0.042244 -0.167728 -0.033333
0.029827 -0.163120 0.033333
0.034911 -0.157879 0.016667
0.038251 -0.155873 0.000000
0.040580 -0.154704 -0.016667
0.041767 -0.154031 -0.033333
0.030538 -0.148370 0.033333
0.035156 -0.143899 0.016667
0.038280 -0.141908 0.000000
0.040457 -0.140805 -0.016667
0.041581 -0.140214 -0.033333
0.031176 -0.133469 0.033333
0.035506 -0.129654 0.016667
0.038428 -0.127779 0.000000
0.040567 -0.126814 -0.016667
0.041591 -0.126241 -0.033333
0.031761 -0.118219 0.033333
0.035659 -0.115130 0.016667
0.038839 -0.113672 0.000000
0.040752 -0.112606 -0.016667
0.041847 -0.112263 -0.033333
0.031012 -0.102603 0.033333
0.036093 -0.100940 0.016667
0.039269 -0.099144 0.000000
0.041176 -0.098540 -0.016667
0.042183 -0.098016 -0.033333
0.031854 -0.088317 0.033333
0.036726 -0.086000 0.016667
0.039970 -0.084877 0.000000
0.041643 -0.084145 -0.016667
0.042727 -0.083914 -0.033333
0.034050 -0.073148 0.033333
0.037680 -0.071439 0.016667
0.040727 -0.070269 0.000000
0.042318 -0.069931 -0.016667
0.043298 -0.069537 -0.033333
0.035753 -0.057887 0.033333
0.038911 -0.056754 0.016667
0.041595 -0.055799 0.000000
0.043083 -0.055510 -0.016667
0.043942 -0.055263 -0.033333
0.037438 -0.042814 0.033333
0.040218 -0.041950 0.016667
0.042532 -0.041320 0.000000
0.043880 -0.041082 -0.016667
0.044659 -0.040906 -0.033333
0.039063 -0.027763 0.033333
0.041427 -0.027213 0.016667
0.043488 -0.026787 0.000000
0.044696 -0.026642 -0.016667
0.045390 -0.026491 -0.033333
0.040464 -0.012667 0.033333
0.042545 -0.012442 0.016667
0.044396 -0.012246 0.000000
0.045499 -0.012152 -0.016667
0.046121 -0.012046 -0.033333
0.041563 0.002443 0.033333
0.043548 0.002343 0.016667
0.045235 0.002337 0.000000
0.046259 0.002374 -0.016667
0.046847 0.002446 -0.033333
0.042529 0.017549 0.033333
0.044367 0.017232 0.016667
0.046007 0.016961 0.000000
0.046974 0.016936 -0.016667
0.047546 0.017001 -0.033333
0.043222 0.032999 0.033333
0.045061 0.032136 0.016667
0.046677 0.031652 0.000000
0.047659 0.031568 -0.016667
0.048223 0.031580 -0.033333
0.043428 0.048457 0.033333
0.045629 0.047222 0.016667
0.047307 0.046414 0.000000
0.048284 0.046236 -0.016667
0.048939 0.046236 -0.033333
0.043935 0.064023 0.033333
0.045967 0.062513 0.016667
0.047873 0.061236 0.000000
0.048975 0.060960 -0.016667
0.049640 0.060944 -0.033333
0.044179 0.081050 0.033333
0.046352 0.077812 0.016667
0.048467 0.076139 0.000000
0.049737 0.075759 -0.016667
0.050424 0.075657 -0.033333
0.042852 0.098454 0.033333
0.046678 0.093373 0.016667
0.049313 0.091065 0.000000
0.050583 0.090604 -0.016667
0.051389 0.090351 -0.033333
0.044517 0.116457 0.033333
0.047502 0.109416 0.016667
0.050583 0.105956 0.000000
0.051644 0.105212 -0.016667
0.052486 0.105287 -0.033333
0.045340 0.133671 0.033333
0.049573 0.125110 0.016667
0.052252 0.119801 0.000000
0.052969 0.120445 -0.016667
0.053697 0.119621 -0.033333
0.055481 0.149245 0.033333
0.054064 0.136366 0.016667
0.054468 0.134945 0.000000
0.054305 0.134634 -0.016667
0.054964 0.134661 -0.033333
0.055769 0.155877 0.033333
0.054792 0.150311 0.016667
0.056021 0.148494 0.000000
0.055724 0.149624 -0.016667
0.056055 0.149139 -0.033333
0.055760 0.164162 0.033333
0.056168 0.163097 0.016667
0.056764 0.163235 0.000000
0.057014 0.163802 -0.016667
0.057059 0.164344 -0.033333
0.054935 0.172679 0.033333
0.057017 0.176662 0.016667
0.057523 0.177819 0.000000
0.058019 0.178452 -0.016667
0.058146 0.179281 -0.033333
0.050942 0.188253 0.033333
0.056751 0.190613 0.016667
0.058446 0.192566 0.000000
0.058934 0.193312 -0.016667
0.059398 0.194233 -0.033333
0.052328 0.202227 0.033333
0.057749 0.204696 0.016667
0.059583 0.207389 0.000000
0.060281 0.208255 -0.016667
0.060502 0.209318 -0.033333
0.054445 0.211951 0.033333
0.061190 0.218865 0.016667
0.060663 0.222365 0.000000
0.062068 0.222954 -0.016667
0.061704 0.224941 -0.033333
0.056195 0.218835 0.033333
0.062054 0.233513 0.016667
0.063175 0.236378 0.000000
0.063759 0.238713 -0.016667
0.063275 0.240056 -0.033333
0.066627 0.238331 0.033333
0.067337 0.245360 0.016667
0.066342 0.252487 0.000000
0.065138 0.253911 -0.016667
0.065096 0.255948 -0.033333
0.067131 0.258632 0.033333
0.069958 0.263064 0.016667
0.068368 0.267351 0.000000
0.066852 0.270468 -0.016667
0.066284 0.271357 -0.033333
0.071418 0.280741 0.033333
0.071428 0.280831 0.016667
0.069710 0.283910 0.000000
0.068017 0.286501 -0.016667
0.067144 0.287710 -0.033333
0.073145 0.296811 0.033333
0.071809 0.298539 0.016667
0.070064 0.300779 0.000000
0.068643 0.302920 -0.016667
0.067571 0.304146 -0.033333
0.068202 0.314523 0.033333
0.070934 0.316273 0.016667
0.070217 0.317718 0.000000
0.068390 0.319559 -0.016667
0.067823 0.320701 -0.033333
0.066497 0.334942 0.033333
0.069779 0.333660 0.016667
0.069604 0.334708 0.000000
0.067956 0.336339 -0.016667
0.067357 0.337231 -0.033333
0.065484 0.353356 0.033333
0.069397 0.351531 0.016667
0.068555 0.351356 0.000000
0.067038 0.353141 -0.016667
0.066556 0.353819 -0.033333
0.069112 0.372717 0.033333
0.068201 0.367845 0.016667
0.067108 0.368111 0.000000
0.065424 0.369821 -0.016667
0.065605 0.370337 -0.033333
0.068992 0.386199 0.033333
0.065334 0.383944 0.016667
0.063546 0.384262 0.000000
0.063710 0.386595 -0.016667
0.064446 0.386697 -0.033333
0.086713 -0.487078 0.033333
0.088910 -0.496374 0.016667
0.091231 -0.498015 0.000000
0.092544 -0.498279 -0.016667
0.093252 -0.499177 -0.033333
0.094282 -0.471743 0.033333
0.093579 -0.479366 0.016667
0.093466 -0.481816 0.000000
0.093711 -0.482126 -0.016667
0.093873 -0.482983 -0.033333
0.099328 -0.455921 0.033333
0.097508 -0.462560 0.016667
0.096092 -0.465371 0.000000
0.095406 -0.465986 -0.016667
0.095084 -0.466735 -0.033333
0.102926 -0.439846 0.033333
0.100620 -0.445801 0.016667
0.098516 -0.448853 0.000000
0.097216 -0.449778 -0.016667
0.096523 -0.450512 -0.033333
0.105555 -0.423600 0.033333
0.103039 -0.429060 0.016667
0.100560 -0.432304 0.000000
0.098875 -0.433527 -0.016667
0.097931 -0.434310 -0.033333
0.107513 -0.407222 0.033333
0.104872 -0.412329 0.016667
0.102169 -0.415751 0.000000
0.100244 -0.417265 -0.016667
0.099132 -0.418140 -0.033333
0.108915 -0.390728 0.033333
0.106191 -0.395607 0.016667
0.103330 -0.399218 0.000000
0.101237 -0.401021 -0.016667
0.100013 -0.402017 -0.033333
0.109848 -0.374122 0.033333
0.107016 -0.378896 0.016667
0.104020 -0.382728 0.000000
0.101804 -0.384828 -0.016667
0.100492 -0.385967 -0.033333
0.110247 -0.357408 0.033333
0.107342 -0.362207 0.016667
0.104220 -0.366309 0.000000
0.101892 -0.368722 -0.016667
0.100515 -0.370023 -0.033333
0.110113 -0.340603 0.033333
0.107107 -0.345560 0.016667
0.103871 -0.350001 0.000000
0.101461 -0.352747 -0.016667
0.100026 -0.354227 -0.033333
0.109214 -0.323743 0.033333
0.106238 -0.329000 0.016667
0.102931 -0.333852 0.000000
0.100448 -0.336956 -0.016667
0.098985 -0.338630 -0.033333
0.107506 -0.306932 0.033333
0.104585 -0.312592 0.016667
0.101286 -0.317938 0.000000
0.098814 -0.321416 -0.016667
0.097337 -0.323288 -0.033333
0.104578 -0.290321 0.033333
0.102011 -0.296468 0.016667
0.098880 -0.302354 0.000000
0.096473 -0.306205 -0.016667
0.095070 -0.308273 -0.033333
0.100428 -0.274211 0.033333
0.098303 -0.280828 0.016667
0.095551 -0.287243 0.000000
0.093435 -0.291418 -0.016667
0.092143 -0.293645 -0.033333
0.094553 -0.258971 0.033333
0.093352 -0.265955 0.016667
0.091346 -0.272784 0.000000
0.089623 -0.277135 -0.016667
0.088646 -0.279495 -0.033333
0.087174 -0.245101 0.033333
0.087193 -0.252316 0.016667
0.086167 -0.259155 0.000000
0.085268 -0.263483 -0.016667
0.084534 -0.265769 -0.033333
0.077539 -0.233188 0.033333
0.080374 -0.239826 0.016667
0.080568 -0.246405 0.000000
0.080216 -0.250337 -0.016667
0.080195 -0.252684 -0.033333
0.065977 -0.224499 0.033333
0.072660 -0.228329 0.016667
0.073976 -0.234160 0.000000
0.075115 -0.238191 -0.016667
0.075617 -0.239749 -0.033333
0.050648 -0.222243 0.033333
0.058618 -0.221597 0.016667
0.065718 -0.224729 0.000000
0.069806 -0.226089 -0.016667
0.071400 -0.227320 -0.033333
0.049284 -0.211866 0.033333
0.057492 -0.211582 0.016667
0.062979 -0.212662 0.000000
0.066341 -0.214167 -0.016667
0.067957 -0.214671 -0.033333
0.048775 -0.201107 0.033333
0.056502 -0.199755 0.016667
0.060822 -0.200934 0.000000
0.063886 -0.201494 -0.016667
0.065436 -0.202208 -0.033333
0.048778 -0.188897 0.033333
0.055321 -0.187694 0.016667
0.059393 -0.188260 0.000000
0.062063 -0.188978 -0.016667
0.063589 -0.189230 -0.033333
0.048817 -0.176362 0.033333
0.054529 -0.175187 0.016667
0.058290 -0.175560 0.000000
0.060824 -0.176041 -0.016667
0.062256 -0.176231 -0.033333
0.049040 -0.163406 0.033333
0.054049 -0.162372 0.016667
0.057652 -0.162576 0.000000
0.059991 -0.162947 -0.016667
0.061359 -0.163029 -0.033333
0.049360 -0.150125 0.033333
0.053859 -0.149302 0.016667
0.057308 -0.149401 0.000000
0.059503 -0.149653 -0.016667
0.060802 -0.149710 -0.033333
0.049695 -0.136591 0.033333
0.053878 -0.135977 0.016667
0.057188 -0.136033 0.000000
0.059286 -0.136228 -0.016667
0.060512 -0.136244 -0.033333
0.050037 -0.122781 0.033333
0.053917 -0.122459 0.016667
0.057291 -0.122567 0.000000
0.059245 -0.122636 -0.016667
0.060462 -0.122700 -0.033333
0.049836 -0.108891 0.033333
0.054184 -0.108981 0.016667
0.057473 -0.108862 0.000000
0.059409 -0.109018 -0.016667
0.060575 -0.108997 -0.033333
0.050241 -0.095769 0.033333
0.054425 -0.095194 0.016667
0.057849 -0.095179 0.000000
0.059709 -0.095233 -0.016667
0.060854 -0.095252 -0.033333
0.051245 -0.081976 0.033333
0.055106 -0.081544 0.016667
0.058369 -0.081275 0.000000
0.060188 -0.081442 -0.016667
0.061231 -0.081375 -0.033333
0.052634 -0.068108 0.033333
0.056148 -0.067597 0.016667
0.059058 -0.067427 0.000000
0.060764 -0.067483 -0.016667
0.061744 -0.067504 -0.033333
0.054229 -0.054031 0.033333
0.057209 -0.053629 0.016667
0.059886 -0.053434 0.000000
0.061432 -0.053532 -0.016667
0.062328 -0.053499 -0.033333
0.055758 -0.039822 0.033333
0.058384 -0.039558 0.016667
0.060745 -0.039405 0.000000
0.062160 -0.039483 -0.016667
0.062955 -0.039474 -0.033333
0.057170 -0.025479 0.033333
0.059503 -0.025354 0.016667
0.061609 -0.025319 0.000000
0.062894 -0.025382 -0.016667
0.063612 -0.025377 -0.033333
0.058376 -0.011036 0.033333
0.060511 -0.011092 0.016667
0.062432 -0.011152 0.000000
0.063608 -0.011228 -0.016667
0.064269 -0.011220 -0.033333
0.059380 0.003501 0.033333
0.061369 0.003283 0.016667
0.063182 0.003075 0.000000
0.064287 0.002985 -0.016667
0.064904 0.003001 -0.033333
0.060101 0.018232 0.033333
0.062071 0.017725 0.016667
0.063840 0.017379 0.000000
0.064919 0.017269 -0.016667
0.065521 0.017270 -0.033333
0.060494 0.033053 0.033333
0.062606 0.032319 0.016667
0.064419 0.031762 0.000000
0.065500 0.031602 -0.016667
0.066131 0.031617 -0.033333
0.060712 0.048109 0.033333
0.062922 0.047053 0.016667
0.064920 0.046222 0.000000
0.066079 0.046006 -0.016667
0.066727 0.046016 -0.033333
0.060471 0.063708 0.033333
0.063130 0.061913 0.016667
0.065401 0.060754 0.000000
0.066666 0.060473 -0.016667
0.067384 0.060461 -0.033333
0.059659 0.079751 0.033333
0.063269 0.077001 0.016667
0.065958 0.075319 0.000000
0.067331 0.074975 -0.016667
0.068138 0.074963 -0.033333
0.058716 0.096403 0.033333
0.063378 0.092195 0.016667
0.066793 0.089841 0.000000
0.068185 0.089465 -0.016667
0.069010 0.089553 -0.033333
0.058051 0.114474 0.033333
0.064061 0.106929 0.016667
0.068213 0.104220 0.000000
0.069247 0.104071 -0.016667
0.070074 0.104026 -0.033333
0.063400 0.130380 0.033333
0.066789 0.120620 0.016667
0.070564 0.118963 0.000000
0.070363 0.118043 -0.016667
0.071418 0.119085 -0.033333
0.080660 0.122902 0.033333
0.073713 0.136617 0.016667
0.072454 0.131068 0.000000
0.071882 0.133863 -0.016667
0.072575 0.132617 -0.033333
0.080582 0.139031 0.033333
0.074831 0.147053 0.016667
0.074324 0.146450 0.000000
0.073076 0.147533 -0.016667
0.073745 0.147971 -0.033333
0.080505 0.155160 0.033333
0.074142 0.159138 0.016667
0.075403 0.160767 0.000000
0.074001 0.162278 -0.016667
0.074863 0.162604 -0.033333
0.080427 0.171288 0.033333
0.073588 0.172362 0.016667
0.075925 0.175678 0.000000
0.074868 0.176651 -0.016667
0.075811 0.177838 -0.033333
0.068556 0.184611 0.033333
0.073941 0.187733 0.016667
0.075942 0.189894 0.000000
0.076133 0.191916 -0.016667
0.076475 0.192536 -0.033333
0.071248 0.201671 0.033333
0.074882 0.202057 0.016667
0.076868 0.204957 0.000000
0.077266 0.206813 -0.016667
0.077510 0.207823 -0.033333
0.080195 0.219675 0.033333
0.077217 0.215467 0.016667
0.078648 0.220425 0.000000
0.078424 0.221696 -0.016667
0.078818 0.223440 -0.033333
0.080117 0.235804 0.033333
0.080124 0.229354 0.016667
0.080221 0.235937 0.000000
0.080090 0.237015 -0.016667
0.079989 0.239048 -0.033333
0.080040 0.251933 0.033333
0.084079 0.246865 0.016667
0.081751 0.250797 0.000000
0.081981 0.253135 -0.016667
0.080888 0.254640 -0.033333
0.079962 0.268061 0.033333
0.085032 0.264091 0.016667
0.083794 0.267232 0.000000
0.083086 0.269117 -0.016667
0.082060 0.270752 -0.033333
0.087340 0.283189 0.033333
0.086323 0.281905 0.016667
0.084948 0.283445 0.000000
0.083763 0.285854 -0.016667
0.083017 0.286773 -0.033333
0.088137 0.299708 0.033333
0.086348 0.299002 0.016667
0.085411 0.300380 0.000000
0.084121 0.302325 -0.016667
0.083374 0.303417 -0.033333
0.079730 0.316448 0.033333
0.086660 0.316091 0.016667
0.084646 0.317275 0.000000
0.084447 0.319080 -0.016667
0.082987 0.320022 -0.033333
0.079652 0.332577 0.033333
0.085421 0.333584 0.016667
0.084064 0.333993 0.000000
0.084030 0.336038 -0.016667
0.082481 0.336581 -0.033333
0.079575 0.348706 0.033333
0.084883 0.350194 0.016667
0.083353 0.351114 0.000000
0.083058 0.352687 -0.016667
0.081762 0.353404 -0.033333
0.079497 0.364835 0.033333
0.085397 0.367494 0.016667
0.081514 0.367388 0.000000
0.081866 0.369809 -0.016667
0.080644 0.369756 -0.033333
0.087967 0.383218 0.033333
0.080975 0.383404 0.016667
0.079357 0.384405 0.000000
0.079468 0.386183 -0.016667
0.080202 0.386551 -0.033333
0.102475 -0.486884 0.033333
0.104772 -0.495760 0.016667
0.107204 -0.497278 0.000000
0.108606 -0.497494 -0.016667
0.109362 -0.498332 -0.033333
0.109777 -0.471315 0.033333
0.109306 -0.478599 0.016667
0.109391 -0.480906 0.000000
0.109764 -0.481178 -0.016667
0.109997 -0.481978 -0.033333
0.114662 -0.455198 0.033333
0.113121 -0.461582 0.016667
0.111959 -0.464275 0.000000
0.111436 -0.464862 -0.016667
0.111209 -0.465573 -0.033333
0.118134 -0.438791 0.033333
0.116143 -0.444569 0.016667
0.114332 -0.447546 0.000000
0.113221 -0.448462 -0.016667
0.112639 -0.449178 -0.033333
0.120675 -0.422188 0.033333
0.118487 -0.427540 0.016667
0.116329 -0.430758 0.000000
0.114861 -0.432000 -0.016667
0.114040 -0.432786 -0.033333
0.122527 -0.405433 0.033333
0.120255 -0.410496 0.016667
0.117904 -0.413942 0.000000
0.116216 -0.415505 -0.016667
0.115242 -0.416405 -0.033333
0.123849 -0.388547 0.033333
0.121507 -0.393438 0.016667
0.119033 -0.397123 0.000000
0.117208 -0.399009 -0.016667
0.116132 -0.400050 -0.033333
0.124643 -0.371541 0.033333
0.122270 -0.376376 0.016667
0.119707 -0.380327 0.000000
0.117781 -0.382543 -0.016667
0.116640 -0.383750 -0.033333
0.124949 -0.354439 0.033333
0.122523 -0.359327 0.016667
0.119890 -0.363589 0.000000
0.117899 -0.366148 -0.016667
0.116706 -0.367539 -0.033333
0.124629 -0.337263 0.033333
0.122230 -0.342327 0.016667
0.119557 -0.346951 0.000000
0.117510 -0.349871 -0.016667
0.116291 -0.351462 -0.033333
0.123669 -0.320101 0.033333
0.121299 -0.325426 0.016667
0.118632 -0.330471 0.000000
0.116586 -0.333769 -0.016667
0.115348 -0.335572 -0.033333
0.121811 -0.303039 0.033333
0.119647 -0.308720 0.016667
0.117081 -0.314229 0.000000
0.115061 -0.317911 -0.016667
0.113856 -0.319934 -0.033333
0.119038 -0.286293 0.033333
0.117135 -0.292339 0.016667
0.114790 -0.298326 0.000000
0.112927 -0.302384 -0.016667
0.111777 -0.304611 -0.033333
0.115052 -0.270050 0.033333
0.113691 -0.276468 0.016667
0.111773 -0.282901 0.000000
0.110120 -0.287265 -0.016667
0.109145 -0.289689 -0.033333
0.109923 -0.254651 0.033333
0.109239 -0.261347 0.016667
0.107931 -0.268084 0.000000
0.106736 -0.272664 -0.016667
0.105944 -0.275201 -0.033333
0.103399 -0.240307 0.033333
0.103931 -0.247134 0.016667
0.103507 -0.253990 0.000000
0.102720 -0.258599 -0.016667
0.102353 -0.261265 -0.033333
0.095628 -0.227556 0.033333
0.097765 -0.233984 0.016667
0.098290 -0.240586 0.000000
0.098426 -0.245284 -0.016667
0.098397 -0.247697 -0.033333
0.086837 -0.216675 0.033333
0.090964 -0.221971 0.016667
0.092956 -0.228262 0.000000
0.093804 -0.232341 -0.016667
0.094381 -0.234731 -0.033333
0.075554 -0.208687 0.033333
0.081689 -0.212571 0.016667
0.086331 -0.216763 0.000000
0.089223 -0.220208 -0.016667
0.090621 -0.222018 -0.033333
0.073026 -0.199286 0.033333
0.079036 -0.201588 0.016667
0.083404 -0.205427 0.000000
0.085998 -0.207897 -0.016667
0.087507 -0.209458 -0.033333
0.071488 -0.188525 0.033333
0.077043 -0.190476 0.016667
0.081136 -0.193368 0.000000
0.083598 -0.195672 -0.016667
0.085060 -0.196806 -0.033333
0.070602 -0.177411 0.033333
0.075682 -0.178769 0.016667
0.079460 -0.181348 0.000000
0.081819 -0.183104 -0.016667
0.083221 -0.184198 -0.033333
0.070146 -0.165580 0.033333
0.074676 -0.166827 0.016667
0.078312 -0.168888 0.000000
0.080511 -0.170539 -0.016667
0.081872 -0.171367 -0.033333
0.069911 -0.153435 0.033333
0.074061 -0.154548 0.016667
0.077513 -0.156326 0.000000
0.079625 -0.157745 -0.016667
0.080914 -0.158490 -0.033333
0.069840 -0.140985 0.033333
0.073706 -0.142036 0.016667
0.077030 -0.143572 0.000000
0.079050 -0.144845 -0.016667
0.080282 -0.145474 -0.033333
0.069881 -0.128312 0.033333
0.073526 -0.129340 0.016667
0.076795 -0.130702 0.000000
0.078724 -0.131797 -0.016667
0.079915 -0.132373 -0.033333
0.069850 -0.115542 0.033333
0.073567 -0.116560 0.016667
0.076715 -0.117652 0.000000
0.078615 -0.118676 -0.016667
0.079756 -0.119147 -0.033333
0.070158 -0.102984 0.033333
0.073660 -0.103549 0.016667
0.076818 -0.104567 0.000000
0.078674 -0.105421 -0.016667
0.079774 -0.105843 -0.033333
0.070574 -0.089955 0.033333
0.073987 -0.090604 0.016667
0.077062 -0.091337 0.000000
0.078894 -0.092093 -0.016667
0.079944 -0.092449 -0.033333
0.071313 -0.077094 0.033333
0.074585 -0.077454 0.016667
0.077504 -0.078059 0.000000
0.079246 -0.078658 -0.016667
0.080253 -0.078976 -0.033333
0.072444 -0.063960 0.033333
0.075396 -0.064221 0.016667
0.078100 -0.064641 0.000000
0.079726 -0.065169 -0.016667
0.080654 -0.065403 -0.033333
0.073663 -0.050627 0.033333
0.076341 -0.050811 0.016667
0.078780 -0.051164 0.000000
0.080292 -0.051567 -0.016667
0.081139 -0.051779 -0.033333
0.074896 -0.037094 0.033333
0.077290 -0.037276 0.016667
0.079523 -0.037571 0.000000
0.080899 -0.037908 -0.016667
0.081673 -0.038058 -0.033333
0.076027 -0.023413 0.033333
0.078220 -0.023624 0.016667
0.080253 -0.023889 0.000000
0.081523 -0.024159 -0.016667
0.082227 -0.024276 -0.033333
0.077011 -0.009581 0.033333
0.079049 -0.009832 0.016667
0.080944 -0.010120 0.000000
0.082128 -0.010338 -0.016667
0.082780 -0.010414 -0.033333
0.077769 0.004408 0.033333
0.079745 0.004051 0.016667
0.081566 0.003742 0.000000
0.082697 0.003563 -0.016667
0.083319 0.003515 -0.033333
0.078274 0.018498 0.033333
0.080282 0.018062 0.016667
0.082105 0.017687 0.000000
0.083222 0.017530 -0.016667
0.083838 0.017524 -0.033333
0.078524 0.032742 0.033333
0.080632 0.032164 0.016667
0.082561 0.031710 0.000000
0.083716 0.031575 -0.016667
0.084341 0.031596 -0.033333
0.078400 0.047149 0.033333
0.080829 0.046353 0.016667
0.082962 0.045801 0.000000
0.084192 0.045683 -0.016667
0.084863 0.045738 -0.033333
0.077943 0.061582 0.033333
0.080889 0.060607 0.016667
0.083364 0.059942 0.000000
0.084704 0.059844 -0.016667
0.085427 0.059950 -0.033333
0.077099 0.075995 0.033333
0.080942 0.074816 0.016667
0.083897 0.074086 0.000000
0.085320 0.074046 -0.016667
0.086080 0.074235 -0.033333
0.076430 0.089830 0.033333
0.081314 0.088688 0.016667
0.084708 0.088234 0.000000
0.086113 0.088299 -0.016667
0.086878 0.088552 -0.033333
0.076386 0.101282 0.033333
0.082409 0.102160 0.016667
0.086021 0.102481 0.000000
0.087183 0.102403 -0.016667
0.087837 0.103115 -0.033333
0.078844 0.108932 0.033333
0.085163 0.115541 0.016667
0.088001 0.116370 0.000000
0.088640 0.116856 -0.016667
0.088743 0.117509 -0.033333
0.096788 0.122980 0.033333
0.091262 0.127292 0.016667
0.090149 0.130693 0.000000
0.090005 0.131339 -0.016667
0.089832 0.131896 -0.033333
0.096711 0.139109 0.033333
0.094204 0.143649 0.016667
0.091884 0.144195 0.000000
0.091003 0.146186 -0.016667
0.091036 0.146435 -0.033333
0.096634 0.155238 0.033333
0.093339 0.158690 0.016667
0.092719 0.158905 0.000000
0.091852 0.160573 -0.016667
0.091926 0.161524 -0.033333
0.096556 0.171365 0.033333
0.092174 0.173347 0.016667
0.092860 0.173294 0.000000
0.092689 0.175800 -0.016667
0.092611 0.176114 -0.033333
0.087556 0.187766 0.033333
0.090907 0.187004 0.016667
0.093328 0.188717 0.000000
0.093264 0.190493 -0.016667
0.093531 0.191464 -0.033333
0.088148 0.202519 0.033333
0.092146 0.201746 0.016667
0.094088 0.203691 0.000000
0.094151 0.205787 -0.016667
0.094425 0.206614 -0.033333
0.096324 0.219753 0.033333
0.094957 0.215951 0.016667
0.095225 0.219684 0.000000
0.095314 0.220599 -0.016667
0.095374 0.222561 -0.033333
0.096246 0.235881 0.033333
0.096998 0.232375 0.016667
0.096777 0.234699 0.000000
0.096557 0.236646 -0.016667
0.096380 0.237881 -0.033333
0.096169 0.252010 0.033333
0.098374 0.248269 0.016667
0.098357 0.250903 0.000000
0.097707 0.252482 -0.016667
0.097417 0.253847 -0.033333
0.096091 0.268139 0.033333
0.100362 0.265084 0.016667
0.099341 0.267289 0.000000
0.098807 0.268578 -0.016667
0.098205 0.270199 -0.033333
0.102809 0.283803 0.033333
0.101273 0.282515 0.016667
0.100346 0.283512 0.000000
0.099425 0.285406 -0.016667
0.098748 0.286271 -0.033333
0.102276 0.300717 0.033333
0.101869 0.299383 0.016667
0.100468 0.300298 0.000000
0.099729 0.302017 -0.016667
0.098979 0.302892 -0.033333
0.095859 0.316526 0.033333
0.100942 0.316658 0.016667
0.100370 0.316917 0.000000
0.099509 0.318925 -0.016667
0.098917 0.319448 -0.033333
0.095781 0.332654 0.033333
0.100206 0.333208 0.016667
0.099659 0.333974 0.000000
0.099101 0.335546 -0.016667
0.098406 0.336360 -0.033333
0.095704 0.348783 0.033333
0.099849 0.349947 0.016667
0.098878 0.350703 0.000000
0.098284 0.352467 -0.016667
0.097619 0.353004 -0.033333
0.095626 0.364912 0.033333
0.099636 0.366693 0.016667
0.097612 0.367541 0.000000
0.096890 0.369225 -0.016667
0.096776 0.369714 -0.033333
0.101185 0.382604 0.033333
0.096635 0.383604 0.016667
0.094698 0.384147 0.000000
0.095253 0.385951 -0.016667
0.095894 0.386355 -0.033333
0.118085 -0.486711 0.033333
0.120476 -0.495222 0.016667
0.123029 -0.496624 0.000000
0.124516 -0.496812 -0.016667
0.125320 -0.497590 -0.033333
0.125043 -0.470947 0.033333
0.124835 -0.477939 0.016667
0.125141 -0.480117 0.000000
0.125656 -0.480361 -0.016667
0.125971 -0.481111 -0.033333
0.129719 -0.454591 0.033333
0.128500 -0.460755 0.016667
0.127628 -0.463344 0.000000
0.127288 -0.463903 -0.016667
0.127168 -0.464583 -0.033333
0.133054 -0.437923 0.033333
0.131406 -0.443544 0.016667
0.129921 -0.446450 0.000000
0.129030 -0.447355 -0.016667
0.128572 -0.448053 -0.033333
0.135472 -0.421041 0.033333
0.133656 -0.426294 0.016667
0.131856 -0.429479 0.000000
0.130631 -0.430728 -0.016667
0.129950 -0.431513 -0.033333
0.137240 -0.404001 0.033333
0.135343 -0.409010 0.016667
0.133376 -0.412461 0.000000
0.131958 -0.414054 -0.016667
0.131137 -0.414967 -0.033333
0.138445 -0.386824 0.033333
0.136527 -0.391703 0.016667
0.134470 -0.395425 0.000000
0.132934 -0.397362 -0.016667
0.132028 -0.398434 -0.033333
0.139168 -0.369540 0.033333
0.137226 -0.374385 0.016667
0.135116 -0.378400 0.000000
0.133514 -0.380689 -0.016667
0.132553 -0.381940 -0.033333
0.139350 -0.352167 0.033333
0.137436 -0.357086 0.016667
0.135304 -0.361428 0.000000
0.133656 -0.364075 -0.016667
0.132667 -0.365523 -0.033333
0.139004 -0.334776 0.033333
0.137113 -0.339846 0.016667
0.134988 -0.344553 0.000000
0.133335 -0.347572 -0.016667
0.132329 -0.349229 -0.033333
0.137981 -0.317426 0.033333
0.136212 -0.322737 0.016667
0.134149 -0.327844 0.000000
0.132507 -0.331237 -0.016667
0.131515 -0.333115 -0.033333
0.136265 -0.300275 0.033333
0.134647 -0.305854 0.016667
0.132712 -0.311378 0.000000
0.131158 -0.315148 -0.016667
0.130192 -0.317242 -0.033333
0.133670 -0.283455 0.033333
0.132369 -0.289333 0.016667
0.130680 -0.295266 0.000000
0.129241 -0.299378 -0.016667
0.128369 -0.301688 -0.033333
0.130213 -0.267206 0.033333
0.129301 -0.273328 0.016667
0.127971 -0.279608 0.000000
0.126795 -0.284026 -0.016667
0.126034 -0.286509 -0.033333
0.125756 -0.251685 0.033333
0.125481 -0.258001 0.016667
0.124699 -0.264539 0.000000
0.123790 -0.269147 -0.016667
0.123270 -0.271798 -0.033333
0.120402 -0.237180 0.033333
0.120915 -0.243491 0.016667
0.120777 -0.250101 0.000000
0.120394 -0.254867 -0.016667
0.120104 -0.257530 -0.033333
0.114226 -0.223797 0.033333
0.115767 -0.229927 0.016667
0.116537 -0.236461 0.000000
0.116615 -0.241095 -0.016667
0.116711 -0.243813 -0.033333
0.107388 -0.211789 0.033333
0.110174 -0.217333 0.016667
0.111857 -0.223390 0.000000
0.112748 -0.228022 -0.016667
0.113260 -0.230508 -0.033333
0.099749 -0.201597 0.033333
0.103681 -0.206140 0.016667
0.107003 -0.211552 0.000000
0.108927 -0.215371 -0.016667
0.109953 -0.217590 -0.033333
0.096498 -0.191118 0.033333
0.100652 -0.195142 0.016667
0.104013 -0.199528 0.000000
0.106024 -0.202984 -0.016667
0.107178 -0.204949 -0.033333
0.094401 -0.180541 0.033333
0.098459 -0.183736 0.016667
0.101745 -0.187674 0.000000
0.103743 -0.190608 -0.016667
0.104951 -0.192354 -0.033333
0.093019 -0.169382 0.033333
0.096840 -0.172197 0.016667
0.100054 -0.175549 0.000000
0.102008 -0.178276 -0.016667
0.103197 -0.179750 -0.033333
0.092103 -0.158020 0.033333
0.095701 -0.160422 0.016667
0.098797 -0.163437 0.000000
0.100716 -0.165798 -0.016667
0.101869 -0.167158 -0.033333
0.091535 -0.146333 0.033333
0.094913 -0.148502 0.016667
0.097930 -0.151130 0.000000
0.099777 -0.153291 -0.016667
0.100897 -0.154465 -0.033333
0.091199 -0.134463 0.033333
0.094409 -0.136404 0.016667
0.097342 -0.138744 0.000000
0.099136 -0.140657 -0.016667
0.100214 -0.141729 -0.033333
0.091012 -0.122447 0.033333
0.094148 -0.124183 0.016667
0.096978 -0.126216 0.000000
0.098734 -0.127957 -0.016667
0.099773 -0.128895 -0.033333
0.091083 -0.110381 0.033333
0.094023 -0.111787 0.016667
0.096814 -0.113631 0.000000
0.098527 -0.115145 -0.016667
0.099529 -0.115991 -0.033333
0.091192 -0.097998 0.033333
0.094097 -0.099388 0.016667
0.096809 -0.100916 0.000000
0.098485 -0.102258 -0.016667
0.099459 -0.103005 -0.033333
0.091546 -0.085789 0.033333
0.094346 -0.086813 0.016667
0.096964 -0.088134 0.000000
0.098593 -0.089286 -0.016667
0.099530 -0.089924 -0.033333
0.092168 -0.073276 0.033333
0.094789 -0.074167 0.016667
0.097280 -0.075243 0.000000
0.098839 -0.076225 -0.016667
0.099721 -0.076768 -0.033333
0.092949 -0.060646 0.033333
0.095411 -0.061362 0.016667
0.097727 -0.062261 0.000000
0.099190 -0.063068 -0.016667
0.100017 -0.063526 -0.033333
0.093853 -0.047835 0.033333
0.096112 -0.048426 0.016667
0.098262 -0.049156 0.000000
0.099621 -0.049831 -0.016667
0.100383 -0.050192 -0.033333
0.094763 -0.034855 0.033333
0.096855 -0.035350 0.016667
0.098833 -0.035953 0.000000
0.100096 -0.036491 -0.016667
0.100796 -0.036783 -0.033333
0.095616 -0.021701 0.033333
0.097560 -0.022132 0.016667
0.099408 -0.022640 0.000000
0.100583 -0.023068 -0.016667
0.101230 -0.023279 -0.033333
0.096334 -0.008401 0.033333
0.098193 -0.008802 0.016667
0.099947 -0.009226 0.000000
0.101058 -0.009551 -0.016667
0.101665 -0.009699 -0.033333
0.096883 0.005014 0.033333
0.098714 0.004652 0.016667
0.100427 0.004281 0.000000
0.101504 0.004045 -0.016667
0.102088 0.003969 -0.033333
0.097225 0.018547 0.033333
0.099094 0.018187 0.016667
0.100838 0.017873 0.000000
0.101917 0.017726 -0.016667
0.102495 0.017712 -0.033333
0.097317 0.032142 0.033333
0.099342 0.031798 0.016667
0.101187 0.031538 0.000000
0.102300 0.031479 -0.016667
0.102897 0.031536 -0.033333
0.097201 0.045715 0.033333
0.099466 0.045438 0.016667
0.101501 0.045262 0.000000
0.102685 0.045300 -0.016667
0.103309 0.045439 -0.033333
0.096900 0.059196 0.033333
0.099562 0.059042 0.016667
0.101848 0.059017 0.000000
0.103112 0.059186 -0.016667
0.103768 0.059421 -0.033333
0.096700 0.072222 0.033333
0.099776 0.072515 0.016667
0.102333 0.072812 0.000000
0.103642 0.073131 -0.016667
0.104315 0.073481 -0.033333
0.097087 0.084509 0.033333
0.100490 0.085849 0.016667
0.103061 0.086635 0.000000
0.104365 0.087096 -0.016667
0.104983 0.087684 -0.033333
0.099422 0.096395 0.033333
0.101755 0.099042 0.016667
0.104225 0.100379 0.000000
0.105371 0.101256 -0.016667
0.105726 0.101913 -0.033333
0.102061 0.110455 0.033333
0.104630 0.111754 0.016667
0.105970 0.114453 0.000000
0.106499 0.115427 -0.016667
0.106692 0.116349 -0.033333
0.112917 0.123057 0.033333
0.108845 0.127249 0.016667
0.108043 0.128123 0.000000
0.107649 0.130131 -0.016667
0.107628 0.130725 -0.033333
0.112840 0.139186 0.033333
0.110399 0.141632 0.016667
0.109458 0.143154 0.000000
0.108698 0.144559 -0.016667
0.108401 0.145535 -0.033333
0.112762 0.155315 0.033333
0.110961 0.157436 0.016667
0.109949 0.157795 0.000000
0.109395 0.159584 -0.016667
0.109159 0.160264 -0.033333
0.112685 0.171443 0.033333
0.109735 0.172791 0.016667
0.110151 0.172697 0.000000
0.109839 0.174664 -0.016667
0.109849 0.175220 -0.033333
0.105782 0.187516 0.033333
0.108699 0.187430 0.016667
0.110270 0.187940 0.000000
0.110405 0.189716 -0.016667
0.110444 0.190524 -0.033333
0.106063 0.203182 0.033333
0.109271 0.201848 0.016667
0.110935 0.203414 0.000000
0.111030 0.204975 -0.016667
0.111171 0.205908 -0.033333
0.112452 0.219830 0.033333
0.111308 0.216813 0.016667
0.111927 0.219228 0.000000
0.111886 0.220206 -0.016667
0.111961 0.221756 -0.033333
0.112375 0.235959 0.033333
0.113042 0.232686 0.016667
0.113071 0.234886 0.000000
0.112854 0.236158 -0.016667
0.112746 0.237350 -0.033333
0.112297 0.252088 0.033333
0.114128 0.249112 0.016667
0.114162 0.250818 0.000000
0.113775 0.252276 -0.016667
0.113511 0.253334 -0.033333
0.112220 0.268216 0.033333
0.115457 0.265278 0.016667
0.115073 0.267502 0.000000
0.114541 0.268334 -0.016667
0.114123 0.269794 -0.033333
0.117514 0.283923 0.033333
0.116716 0.282746 0.016667
0.115665 0.283582 0.000000
0.115033 0.285213 -0.016667
0.114518 0.285950 -0.033333
0.117341 0.300676 0.033333
0.116780 0.299794 0.016667
0.115937 0.300301 0.000000
0.115136 0.301849 -0.016667
0.114661 0.302593 -0.033333
0.111987 0.316603 0.033333
0.116162 0.316926 0.016667
0.115616 0.316895 0.000000
0.114973 0.318750 -0.016667
0.114460 0.319179 -0.033333
0.111910 0.332732 0.033333
0.115270 0.333445 0.016667
0.115120 0.333850 0.000000
0.114425 0.335430 -0.016667
0.114022 0.336041 -0.033333
0.111832 0.348861 0.033333
0.114954 0.350018 0.016667
0.114338 0.350689 0.000000
0.113600 0.352215 -0.016667
0.113305 0.352829 -0.033333
0.111755 0.364990 0.033333
0.114479 0.366918 0.016667
0.112930 0.367379 0.000000
0.112468 0.369112 -0.016667
0.112342 0.369449 -0.033333
0.114934 0.382813 0.033333
0.111595 0.383467 0.016667
0.110445 0.384174 0.000000
0.110788 0.385723 -0.016667
0.111647 0.386184 -0.033333
0.133573 -0.486564 0.033333
0.136058 -0.494770 0.016667
0.138728 -0.496080 0.000000
0.140307 -0.496251 -0.016667
0.141158 -0.496982 -0.033333
0.140120 -0.470651 0.033333
0.140206 -0.477404 0.016667
0.140758 -0.479475 0.000000
0.141421 -0.479699 -0.016667
0.141826 -0.480410 -0.033333
0.144571 -0.454121 0.033333
0.143697 -0.460104 0.016667
0.143140 -0.462604 0.000000
0.143003 -0.463141 -0.016667
0.142998 -0.463795 -0.033333
0.147741 -0.437265 0.033333
0.146469 -0.442756 0.016667
0.145341 -0.445598 0.000000
0.144687 -0.446488 -0.016667
0.144365 -0.447171 -0.033333
0.150053 -0.420194 0.033333
0.148615 -0.425355 0.016667
0.147194 -0.428501 0.000000
0.146236 -0.429749 -0.016667
0.145707 -0.430528 -0.033333
0.151709 -0.402958 0.033333
0.150219 -0.407912 0.016667
0.148658 -0.411348 0.000000
0.147524 -0.412952 -0.016667
0.146869 -0.413870 -0.033333
0.152846 -0.385598 0.033333
0.151336 -0.390439 0.016667
0.149708 -0.394166 0.000000
0.148483 -0.396129 -0.016667
0.147754 -0.397214 -0.033333
0.153475 -0.368130 0.033333
0.151990 -0.372960 0.016667
0.150342 -0.376992 0.000000
0.149066 -0.379314 -0.016667
0.148299 -0.380587 -0.033333
0.153638 -0.350610 0.033333
0.152177 -0.355503 0.016667
0.150535 -0.359865 0.000000
0.149249 -0.362554 -0.016667
0.148462 -0.364029 -0.033333
0.153264 -0.333085 0.033333
0.151883 -0.338126 0.016667
0.150284 -0.342843 0.000000
0.149001 -0.345898 -0.016667
0.148219 -0.347586 -0.033333
0.152356 -0.315669 0.033333
0.151065 -0.320897 0.016667
0.149544 -0.325985 0.000000
0.148312 -0.329411 -0.016667
0.147543 -0.331314 -0.033333
0.150803 -0.298470 0.033333
0.149696 -0.303928 0.016667
0.148317 -0.309388 0.000000
0.147152 -0.313160 -0.016667
0.146434 -0.315281 -0.033333
0.148612 -0.281669 0.033333
0.147723 -0.287332 0.016667
0.146552 -0.293133 0.000000
0.145535 -0.297235 -0.016667
0.144879 -0.299552 -0.033333
0.145683 -0.265409 0.033333
0.145151 -0.271256 0.016667
0.144293 -0.277344 0.000000
0.143442 -0.281703 -0.016667
0.142919 -0.284203 -0.033333
0.142076 -0.249894 0.033333
0.141965 -0.255818 0.016667
0.141507 -0.262085 0.000000
0.140954 -0.266663 -0.016667
0.140571 -0.269277 -0.033333
0.137806 -0.235228 0.033333
0.138266 -0.241145 0.016667
0.138346 -0.247487 0.000000
0.138083 -0.252126 -0.016667
0.137932 -0.254842 -0.033333
0.133007 -0.221567 0.033333
0.134126 -0.227287 0.016667
0.134780 -0.233492 0.000000
0.135002 -0.238198 -0.016667
0.135098 -0.240871 -0.033333
0.127913 -0.208936 0.033333
0.129728 -0.214314 0.016667
0.131135 -0.220315 0.000000
0.131808 -0.224755 -0.016667
0.132198 -0.227372 -0.033333
0.122583 -0.197421 0.033333
0.125199 -0.202296 0.016667
0.127405 -0.207641 0.000000
0.128710 -0.211869 -0.016667
0.129458 -0.214310 -0.033333
0.119464 -0.186441 0.033333
0.122262 -0.190633 0.016667
0.124707 -0.195543 0.000000
0.126191 -0.199285 -0.016667
0.127058 -0.201459 -0.033333
0.117225 -0.175296 0.033333
0.120074 -0.179101 0.016667
0.122601 -0.183408 0.000000
0.124153 -0.186852 -0.016667
0.125064 -0.188849 -0.033333
0.115645 -0.164189 0.033333
0.118453 -0.167505 0.016667
0.120968 -0.171407 0.000000
0.122536 -0.174476 -0.016667
0.123469 -0.176295 -0.033333
0.114534 -0.152870 0.033333
0.117250 -0.155851 0.016667
0.119739 -0.159312 0.000000
0.121286 -0.162144 -0.016667
0.122211 -0.163769 -0.033333
0.113766 -0.141456 0.033333
0.116383 -0.144097 0.016667
0.118818 -0.147222 0.000000
0.120349 -0.149759 -0.016667
0.121252 -0.151252 -0.033333
0.113258 -0.129899 0.033333
0.115788 -0.132260 0.016667
0.118163 -0.135037 0.000000
0.119664 -0.137355 -0.016667
0.120546 -0.138685 -0.033333
0.112993 -0.118237 0.033333
0.115393 -0.120305 0.016667
0.117724 -0.122812 0.000000
0.119193 -0.124870 -0.016667
0.120048 -0.126081 -0.033333
0.112830 -0.106383 0.033333
0.115203 -0.108309 0.016667
0.117462 -0.110479 0.000000
0.118899 -0.112332 -0.016667
0.119733 -0.113411 -0.033333
0.112895 -0.094600 0.033333
0.115164 -0.096154 0.016667
0.117356 -0.098088 0.000000
0.118762 -0.099719 -0.016667
0.119565 -0.100663 -0.033333
0.113118 -0.082517 0.033333
0.115285 -0.083947 0.016667
0.117399 -0.085603 0.000000
0.118759 -0.087019 -0.016667
0.119531 -0.087854 -0.033333
0.113486 -0.070421 0.033333
0.115568 -0.071606 0.016667
0.117577 -0.073025 0.000000
0.118875 -0.074242 -0.016667
0.119611 -0.074950 -0.033333
0.114025 -0.058146 0.033333
0.115971 -0.059149 0.016667
0.117864 -0.060341 0.000000
0.119091 -0.061371 -0.016667
0.119777 -0.061965 -0.033333
0.114631 -0.045716 0.033333
0.116458 -0.046557 0.016667
0.118224 -0.047551 0.000000
0.119373 -0.048402 -0.016667
0.120013 -0.048892 -0.033333
0.115259 -0.033130 0.033333
0.116968 -0.033828 0.016667
0.118625 -0.034648 0.000000
0.119699 -0.035341 -0.016667
0.120291 -0.035724 -0.033333
0.115842 -0.020403 0.033333
0.117466 -0.020981 0.016667
0.119028 -0.021639 0.000000
0.120039 -0.022179 -0.016667
0.120591 -0.022469 -0.033333
0.116341 -0.007549 0.033333
0.117907 -0.008009 0.016667
0.119409 -0.008528 0.000000
0.120373 -0.008928 -0.016667
0.120895 -0.009119 -0.033333
0.116711 0.005414 0.033333
0.118266 0.005053 0.016667
0.119747 0.004678 0.000000
0.120687 0.004417 -0.016667
0.121192 0.004314 -0.033333
0.116928 0.018441 0.033333
0.118531 0.018200 0.016667
0.120035 0.017966 0.000000
0.120977 0.017842 -0.016667
0.121478 0.017838 -0.033333
0.117010 0.031491 0.033333
0.118702 0.031393 0.016667
0.120281 0.031326 0.000000
0.121250 0.031349 -0.016667
0.121759 0.031446 -0.033333
0.116978 0.044517 0.033333
0.118827 0.044604 0.016667
0.120516 0.044744 0.000000
0.121528 0.044933 -0.016667
0.122054 0.045142 -0.033333
0.116978 0.057392 0.033333
0.118978 0.057804 0.016667
0.120794 0.058221 0.000000
0.121847 0.058592 -0.016667
0.122389 0.058932 -0.033333
0.117217 0.070183 0.033333
0.119322 0.070983 0.016667
0.121183 0.071749 0.000000
0.122267 0.072330 -0.016667
0.122794 0.072836 -0.033333
0.118121 0.082976 0.033333
0.119949 0.084198 0.016667
0.121834 0.085333 0.000000
0.122836 0.086200 -0.016667
0.123283 0.086847 -0.033333
0.119238 0.096457 0.033333
0.121411 0.097417 0.016667
0.122784 0.099107 0.000000
0.123564 0.100184 -0.016667
0.123930 0.101023 -0.033333
0.121955 0.108599 0.033333
0.123208 0.111527 0.016667
0.124175 0.113044 0.000000
0.124480 0.114358 -0.016667
0.124589 0.115443 -0.033333
0.129046 0.123135 0.033333
0.126016 0.125600 0.016667
0.125569 0.127412 0.000000
0.125442 0.128965 -0.016667
0.125249 0.129813 -0.033333
0.128969 0.139264 0.033333
0.127508 0.141335 0.016667
0.126597 0.142050 0.000000
0.126142 0.143743 -0.016667
0.125921 0.144596 -0.033333
0.128891 0.155393 0.033333
0.127455 0.156646 0.016667
0.127098 0.157220 0.000000
0.126629 0.158678 -0.016667
0.126436 0.159542 -0.033333
0.128814 0.171520 0.033333
0.126894 0.172481 0.016667
0.127089 0.172146 0.000000
0.127005 0.174058 -0.016667
0.126866 0.174463 -0.033333
0.123526 0.187810 0.033333
0.125970 0.187211 0.016667
0.127197 0.187744 0.000000
0.127292 0.189121 -0.016667
0.127364 0.189943 -0.033333
0.123616 0.203242 0.033333
0.126276 0.202317 0.016667
0.127623 0.203127 0.000000
0.127768 0.204608 -0.016667
0.127859 0.205375 -0.033333
0.128581 0.219908 0.033333
0.127745 0.217011 0.016667
0.128322 0.219243 0.000000
0.128417 0.219902 -0.016667
0.128402 0.221326 -0.033333
0.128504 0.236036 0.033333
0.129067 0.233243 0.016667
0.129224 0.234808 0.000000
0.129075 0.236016 -0.016667
0.129021 0.236991 -0.033333
0.128426 0.252165 0.033333
0.129819 0.249315 0.016667
0.130025 0.251006 0.000000
0.129755 0.252109 -0.016667
0.129555 0.253083 -0.033333
0.128349 0.268294 0.033333
0.131003 0.265719 0.016667
0.130657 0.267473 0.000000
0.130302 0.268310 -0.016667
0.129993 0.269536 -0.033333
0.132462 0.284043 0.033333
0.131811 0.282936 0.016667
0.131178 0.283722 0.000000
0.130600 0.285100 -0.016667
0.130243 0.285782 -0.033333
0.132384 0.300683 0.033333
0.131990 0.300005 0.016667
0.131240 0.300363 0.000000
0.130652 0.301765 -0.016667
0.130258 0.302434 -0.033333
0.128116 0.316681 0.033333
0.131320 0.317097 0.016667
0.131000 0.316963 0.000000
0.130380 0.318656 -0.016667
0.130030 0.319023 -0.033333
0.128039 0.332809 0.033333
0.130592 0.333625 0.016667
0.130444 0.333884 0.000000
0.129859 0.335329 -0.016667
0.129544 0.335900 -0.033333
0.127961 0.348938 0.033333
0.130118 0.350242 0.016667
0.129683 0.350696 0.000000
0.129050 0.352134 -0.016667
0.128834 0.352662 -0.033333
0.127884 0.365067 0.033333
0.129430 0.367063 0.016667
0.128328 0.367364 0.000000
0.127942 0.369023 -0.016667
0.127976 0.369296 -0.033333
0.129013 0.382793 0.033333
0.126683 0.383582 0.016667
0.126012 0.384150 0.000000
0.126455 0.385632 -0.016667
0.127260 0.386063 -0.033333
0.148957 -0.486451 0.033333
0.151549 -0.494415 0.016667
0.154339 -0.495660 0.000000
0.156009 -0.495828 -0.016667
0.156913 -0.496523 -0.033333
0.155067 -0.470438 0.033333
0.155465 -0.477007 0.016667
0.156275 -0.478999 0.000000
0.157098 -0.479212 -0.016667
0.157596 -0.479897 -0.033333
0.159269 -0.453801 0.033333
0.158764 -0.459645 0.016667
0.158544 -0.462076 0.000000
0.158621 -0.462596 -0.016667
0.158738 -0.463231 -0.033333
0.162285 -0.436839 0.033333
0.161395 -0.442224 0.016667
0.160638 -0.445011 0.000000
0.160238 -0.445887 -0.016667
0.160060 -0.446556 -0.033333
0.164473 -0.419661 0.033333
0.163434 -0.424746 0.016667
0.162411 -0.427851 0.000000
0.161728 -0.429088 -0.016667
0.161359 -0.429860 -0.033333
0.166051 -0.402329 0.033333
0.164957 -0.407220 0.016667
0.163809 -0.410627 0.000000
0.162975 -0.412228 -0.016667
0.162492 -0.413143 -0.033333
0.167101 -0.384870 0.033333
0.166017 -0.389668 0.016667
0.164825 -0.393373 0.000000
0.163913 -0.395335 -0.016667
0.163369 -0.396422 -0.033333
0.167701 -0.367327 0.033333
0.166639 -0.372109 0.016667
0.165446 -0.376123 0.000000
0.164508 -0.378449 -0.016667
0.163935 -0.379725 -0.033333
0.167838 -0.349733 0.033333
0.166836 -0.354584 0.016667
0.165676 -0.358923 0.000000
0.164736 -0.361610 -0.016667
0.164158 -0.363090 -0.033333
0.167542 -0.332173 0.033333
0.166603 -0.337142 0.016667
0.165497 -0.341823 0.000000
0.164588 -0.344875 -0.016667
0.164017 -0.346564 -0.033333
0.166761 -0.314730 0.033333
0.165933 -0.319873 0.016667
0.164915 -0.324899 0.000000
0.164048 -0.328301 -0.016667
0.163506 -0.330204 -0.033333
0.165513 -0.297550 0.033333
0.164805 -0.302864 0.016667
0.163907 -0.308224 0.000000
0.163126 -0.311966 -0.016667
0.162620 -0.314072 -0.033333
0.163732 -0.280766 0.033333
0.163223 -0.286251 0.016667
0.162497 -0.291908 0.000000
0.161812 -0.295939 -0.016667
0.161379 -0.298241 -0.033333
0.161459 -0.264546 0.033333
0.161167 -0.270137 0.016667
0.160666 -0.276022 0.000000
0.160149 -0.280313 -0.016667
0.159793 -0.282768 -0.033333
0.158665 -0.249016 0.033333
0.158694 -0.254655 0.016667
0.158492 -0.260689 0.000000
0.158144 -0.265132 -0.016667
0.157919 -0.267720 -0.033333
0.155457 -0.234293 0.033333
0.155828 -0.239869 0.016667
0.155969 -0.245914 0.000000
0.155893 -0.250482 -0.016667
0.155806 -0.253126 -0.033333
0.151909 -0.220429 0.033333
0.152696 -0.225850 0.016667
0.153265 -0.231831 0.000000
0.153447 -0.236337 -0.016667
0.153541 -0.239003 -0.033333
0.148192 -0.207437 0.033333
0.149420 -0.212586 0.016667
0.150411 -0.218282 0.000000
0.150948 -0.222749 -0.016667
0.151248 -0.225354 -0.033333
0.144545 -0.195313 0.033333
0.146179 -0.200059 0.016667
0.147662 -0.205470 0.000000
0.148537 -0.209617 -0.016667
0.149024 -0.212070 -0.033333
0.141865 -0.183653 0.033333
0.143726 -0.188038 0.016667
0.145417 -0.192928 0.000000
0.146451 -0.196840 -0.016667
0.147053 -0.199178 -0.033333
0.139859 -0.172315 0.033333
0.141794 -0.176219 0.016667
0.143582 -0.180737 0.000000
0.144705 -0.184316 -0.016667
0.145364 -0.186439 -0.033333
0.138339 -0.160956 0.033333
0.140289 -0.164516 0.016667
0.142121 -0.168604 0.000000
0.143278 -0.171923 -0.016667
0.143953 -0.173890 -0.033333
0.137200 -0.149657 0.033333
0.139126 -0.152854 0.016667
0.140957 -0.156584 0.000000
0.142128 -0.159599 -0.016667
0.142812 -0.161407 -0.033333
0.136359 -0.138292 0.033333
0.138246 -0.141182 0.016667
0.140059 -0.144545 0.000000
0.141222 -0.147318 -0.016667
0.141899 -0.148960 -0.033333
0.135763 -0.126874 0.033333
0.137586 -0.129465 0.016667
0.139373 -0.132515 0.000000
0.140524 -0.135017 -0.016667
0.141189 -0.136522 -0.033333
0.135329 -0.115353 0.033333
0.137129 -0.117711 0.016667
0.138870 -0.120422 0.000000
0.140002 -0.122700 -0.016667
0.140655 -0.124054 -0.033333
0.135106 -0.103827 0.033333
0.136823 -0.105846 0.016667
0.138522 -0.108297 0.000000
0.139635 -0.110329 -0.016667
0.140267 -0.111543 -0.033333
0.135001 -0.092069 0.033333
0.136666 -0.093946 0.016667
0.138317 -0.096091 0.000000
0.139398 -0.097896 -0.016667
0.140013 -0.098982 -0.033333
0.135039 -0.080345 0.033333
0.136651 -0.081924 0.016667
0.138235 -0.083809 0.000000
0.139281 -0.085399 -0.016667
0.139871 -0.086341 -0.033333
0.135233 -0.068421 0.033333
0.136753 -0.069811 0.016667
0.138266 -0.071440 0.000000
0.139267 -0.072813 -0.016667
0.139826 -0.073633 -0.033333
0.135513 -0.056395 0.033333
0.136961 -0.057581 0.016667
0.138389 -0.058971 0.000000
0.139334 -0.060142 -0.016667
0.139862 -0.060833 -0.033333
0.135871 -0.044231 0.033333
0.137232 -0.045228 0.016667
0.138576 -0.046397 0.000000
0.139466 -0.047376 -0.016667
0.139956 -0.047946 -0.033333
0.136249 -0.031932 0.033333
0.137536 -0.032759 0.016667
0.138800 -0.033717 0.000000
0.139635 -0.034511 -0.016667
0.140092 -0.034966 -0.033333
0.136611 -0.019507 0.033333
0.137836 -0.020166 0.016667
0.139035 -0.020931 0.000000
0.139823 -0.021551 -0.016667
0.140250 -0.021889 -0.033333
0.136918 -0.006972 0.033333
0.138104 -0.007477 0.016667
0.139259 -0.008044 0.000000
0.140012 -0.008492 -0.016667
0.140415 -0.008723 -0.033333
0.137147 0.005646 0.033333
0.138323 0.005311 0.016667
0.139457 0.004934 0.000000
0.140188 0.004655 -0.016667
0.140577 0.004540 -0.033333
0.137292 0.018323 0.033333
0.138480 0.018165 0.016667
0.139623 0.017995 0.000000
0.140350 0.017893 -0.016667
0.140731 0.017892 -0.033333
0.137353 0.031032 0.033333
0.138591 0.031077 0.016667
0.139763 0.031132 0.000000
0.140500 0.031214 -0.016667
0.140883 0.031338 -0.033333
0.137390 0.043731 0.033333
0.138680 0.044029 0.016667
0.139900 0.044344 0.000000
0.140654 0.044623 -0.016667
0.141043 0.044882 -0.033333
0.137467 0.056469 0.033333
0.138812 0.057025 0.016667
0.140068 0.057629 0.000000
0.140841 0.058127 -0.016667
0.141228 0.058534 -0.033333
0.137702 0.069212 0.033333
0.139048 0.070105 0.016667
0.140338 0.071012 0.000000
0.141091 0.071748 -0.016667
0.141459 0.072312 -0.033333
0.138088 0.082199 0.033333
0.139592 0.083264 0.016667
0.140751 0.084555 0.000000
0.141438 0.085510 -0.016667
0.141773 0.086236 -0.033333
0.139240 0.094759 0.033333
0.140341 0.096878 0.016667
0.141412 0.098298 0.000000
0.141920 0.099444 -0.016667
0.142126 0.100392 -0.033333
0.141258 0.108789 0.033333
0.141822 0.110459 0.016667
0.142212 0.112414 0.000000
0.142494 0.113675 -0.016667
0.142554 0.114687 -0.033333
0.145175 0.123212 0.033333
0.143247 0.125621 0.016667
0.143156 0.126667 0.000000
0.143034 0.128310 -0.016667
0.142985 0.129187 -0.033333
0.145098 0.139341 0.033333
0.144109 0.140628 0.016667
0.143733 0.141677 0.000000
0.143503 0.143081 -0.016667
0.143329 0.143990 -0.033333
0.145020 0.155470 0.033333
0.144219 0.156537 0.016667
0.143959 0.156718 0.000000
0.143781 0.158205 -0.016667
0.143635 0.158976 -0.033333
0.144943 0.171598 0.033333
0.143534 0.172114 0.016667
0.143988 0.171941 0.000000
0.143919 0.173579 -0.016667
0.143910 0.174030 -0.033333
0.141096 0.187864 0.033333
0.142976 0.187306 0.016667
0.143949 0.187513 0.000000
0.144118 0.188826 -0.016667
0.144155 0.189545 -0.033333
0.141117 0.203378 0.033333
0.143108 0.202344 0.016667
0.144201 0.203127 0.000000
0.144391 0.204361 -0.016667
0.144471 0.205070 -0.033333
0.144710 0.219985 0.033333
0.144104 0.217451 0.016667
0.144706 0.219157 0.000000
0.144785 0.219803 -0.016667
0.144848 0.221070 -0.033333
0.144633 0.236114 0.033333
0.145061 0.233443 0.016667
0.145285 0.234939 0.000000
0.145271 0.235919 -0.016667
0.145205 0.236818 -0.033333
0.144555 0.252243 0.033333
0.145653 0.249725 0.016667
0.145857 0.251033 0.000000
0.145691 0.252098 -0.016667
0.145580 0.252948 -0.033333
0.144478 0.268372 0.033333
0.146461 0.265933 0.016667
0.146296 0.267610 0.000000
0.146055 0.268286 -0.016667
0.145820 0.269428 -0.033333
0.147504 0.284070 0.033333
0.147122 0.283189 0.016667
0.146602 0.283789 0.000000
0.146211 0.285088 -0.016667
0.145939 0.285705 -0.033333
0.147427 0.300821 0.033333
0.147137 0.300123 0.016667
0.146624 0.300479 0.000000
0.146145 0.301732 -0.016667
0.145859 0.302353 -0.033333
0.144245 0.316758 0.033333
0.146628 0.317255 0.016667
0.146301 0.317027 0.000000
0.145856 0.318621 -0.016667
0.145554 0.318951 -0.033333
0.144168 0.332887 0.033333
0.145896 0.333773 0.016667
0.145796 0.333955 0.000000
0.145295 0.335285 -0.016667
0.145062 0.335816 -0.033333
0.144090 0.349016 0.033333
0.145402 0.350376 0.016667
0.144999 0.350729 0.000000
0.144513 0.352095 -0.016667
0.144365 0.352572 -0.033333
0.144013 0.365145 0.033333
0.144466 0.367216 0.016667
0.143704 0.367365 0.000000
0.143468 0.368995 -0.016667
0.143539 0.369193 -0.033333
0.143352 0.382837 0.033333
0.141886 0.383600 0.016667
0.141605 0.384150 0.000000
0.142080 0.385583 -0.016667
0.142891 0.385980 -0.033333
0.164277 -0.486371 0.033333
0.166989 -0.494168 0.016667
0.169896 -0.495374 0.000000
0.171662 -0.495555 -0.016667
0.172619 -0.496225 -0.033333
0.169931 -0.470314 0.033333
0.170656 -0.476758 0.016667
0.171739 -0.478700 0.000000
0.172723 -0.478912 -0.016667
0.173319 -0.479583 -0.033333
0.173891 -0.453643 0.033333
0.173760 -0.459389 0.016667
0.173885 -0.461771 0.000000
0.174185 -0.462282 -0.016667
0.174428 -0.462907 -0.033333
0.176742 -0.436651 0.033333
0.176247 -0.441961 0.016667
0.175873 -0.444702 0.000000
0.175732 -0.445564 -0.016667
0.175702 -0.446225 -0.033333
0.178828 -0.419459 0.033333
0.178182 -0.424476 0.016667
0.177559 -0.427538 0.000000
0.177162 -0.428761 -0.016667
0.176956 -0.429523 -0.033333
0.180315 -0.402112 0.033333
0.179629 -0.406949 0.016667
0.178900 -0.410313 0.000000
0.178366 -0.411896 -0.016667
0.178059 -0.412801 -0.033333
0.181320 -0.384655 0.033333
0.180641 -0.389394 0.016667
0.179881 -0.393056 0.000000
0.179288 -0.394999 -0.016667
0.178929 -0.396074 -0.033333
0.181880 -0.367109 0.033333
0.181248 -0.371838 0.016667
0.180507 -0.375805 0.000000
0.179899 -0.378104 -0.016667
0.179521 -0.379369 -0.033333
0.182052 -0.349533 0.033333
0.181473 -0.354313 0.016667
0.180776 -0.358598 0.000000
0.180186 -0.361258 -0.016667
0.179809 -0.362721 -0.033333
0.181831 -0.331983 0.033333
0.181332 -0.336883 0.016667
0.180701 -0.341496 0.000000
0.180143 -0.344506 -0.016667
0.179784 -0.346178 -0.033333
0.181262 -0.314574 0.033333
0.180836 -0.319615 0.016667
0.180282 -0.324558 0.000000
0.179779 -0.327916 -0.016667
0.179445 -0.329792 -0.033333
0.180313 -0.297421 0.033333
0.179997 -0.302624 0.016667
0.179542 -0.307877 0.000000
0.179099 -0.311549 -0.016667
0.178806 -0.313628 -0.033333
0.179033 -0.280677 0.033333
0.178821 -0.286006 0.016667
0.178482 -0.291528 0.000000
0.178129 -0.295492 -0.016667
0.177878 -0.297748 -0.033333
0.177387 -0.264482 0.033333
0.177334 -0.269901 0.016667
0.177142 -0.275625 0.000000
0.176881 -0.279805 -0.016667
0.176701 -0.282218 -0.033333
0.175449 -0.248956 0.033333
0.175550 -0.254382 0.016667
0.175536 -0.260212 0.000000
0.175410 -0.264571 -0.016667
0.175295 -0.267094 -0.033333
0.173216 -0.234192 0.033333
0.173541 -0.239548 0.016667
0.173734 -0.245405 0.000000
0.173740 -0.249813 -0.016667
0.173725 -0.252406 -0.033333
0.170810 -0.220202 0.033333
0.171339 -0.225409 0.016667
0.171763 -0.231140 0.000000
0.171958 -0.235582 -0.016667
0.172043 -0.238190 -0.033333
0.168311 -0.207006 0.033333
0.169079 -0.211963 0.016667
0.169759 -0.217545 0.000000
0.170124 -0.221837 -0.016667
0.170319 -0.224389 -0.033333
0.165869 -0.194483 0.033333
0.166870 -0.199165 0.016667
0.167785 -0.204389 0.000000
0.168339 -0.208554 -0.016667
0.168654 -0.211044 -0.033333
0.163898 -0.182548 0.033333
0.165010 -0.186838 0.016667
0.166070 -0.191773 0.000000
0.166740 -0.195659 -0.016667
0.167115 -0.197968 -0.033333
0.162276 -0.170841 0.033333
0.163469 -0.174830 0.016667
0.164613 -0.179360 0.000000
0.165338 -0.183011 -0.016667
0.165753 -0.185215 -0.033333
0.160979 -0.159387 0.033333
0.162196 -0.163010 0.016667
0.163375 -0.167196 0.000000
0.164139 -0.170566 -0.016667
0.164578 -0.172594 -0.033333
0.159936 -0.147971 0.033333
0.161159 -0.151284 0.016667
0.162353 -0.155108 0.000000
0.163130 -0.158236 -0.016667
0.163575 -0.160116 -0.033333
0.159109 -0.136602 0.033333
0.160313 -0.139608 0.016667
0.161507 -0.143107 0.000000
0.162290 -0.145964 -0.016667
0.162736 -0.147696 -0.033333
0.158449 -0.125206 0.033333
0.159644 -0.127938 0.016667
0.160821 -0.131102 0.000000
0.161600 -0.133726 -0.016667
0.162043 -0.135303 -0.033333
0.157966 -0.113795 0.033333
0.159114 -0.116223 0.016667
0.160274 -0.119103 0.000000
0.161046 -0.121471 -0.016667
0.161479 -0.122907 -0.033333
0.157589 -0.102248 0.033333
0.158720 -0.104489 0.016667
0.159853 -0.107050 0.000000
0.160607 -0.109191 -0.016667
0.161034 -0.110486 -0.033333
0.157354 -0.090731 0.033333
0.158447 -0.092655 0.016667
0.159541 -0.094951 0.000000
0.160279 -0.096863 -0.016667
0.160691 -0.098011 -0.033333
0.157242 -0.079015 0.033333
0.158279 -0.080760 0.016667
0.159335 -0.082781 0.000000
0.160046 -0.084465 -0.016667
0.160441 -0.085486 -0.033333
0.157217 -0.067259 0.033333
0.158216 -0.068764 0.016667
0.159219 -0.070526 0.000000
0.159896 -0.071998 -0.016667
0.160273 -0.072877 -0.033333
0.157297 -0.055364 0.033333
0.158232 -0.056663 0.016667
0.159179 -0.058180 0.000000
0.159820 -0.059441 -0.016667
0.160170 -0.060193 -0.033333
0.157428 -0.043352 0.033333
0.158309 -0.044455 0.016667
0.159196 -0.045734 0.000000
0.159795 -0.046794 -0.016667
0.160122 -0.047418 -0.033333
0.157593 -0.031222 0.033333
0.158419 -0.032130 0.016667
0.159249 -0.033186 0.000000
0.159809 -0.034051 -0.016667
0.160110 -0.034549 -0.033333
0.157760 -0.018981 0.033333
0.158539 -0.019705 0.016667
0.159320 -0.020536 0.000000
0.159843 -0.021210 -0.016667
0.160121 -0.021587 -0.033333
0.157907 -0.006643 0.033333
0.158650 -0.007174 0.016667
0.159390 -0.007789 0.000000
0.159883 -0.008275 -0.016667
0.160142 -0.008528 -0.033333
0.158016 0.005777 0.033333
0.158734 0.005436 0.016667
0.159448 0.005050 0.000000
0.159919 0.004755 -0.016667
0.160163 0.004625 -0.033333
0.158076 0.018257 0.033333
0.158787 0.018127 0.016667
0.159487 0.017974 0.000000
0.159944 0.017875 -0.016667
0.160179 0.017874 -0.033333
0.158100 0.030777 0.033333
0.158809 0.030878 0.016667
0.159509 0.030982 0.000000
0.159960 0.031087 -0.016667
0.160189 0.031221 -0.033333
0.158091 0.043349 0.033333
0.158816 0.043697 0.016667
0.159522 0.044072 0.000000
0.159974 0.044395 -0.016667
0.160198 0.044674 -0.033333
0.158087 0.055950 0.033333
0.158829 0.056596 0.016667
0.159548 0.057264 0.000000
0.159994 0.057813 -0.016667
0.160215 0.058247 -0.033333
0.158134 0.068683 0.033333
0.158905 0.069589 0.016667
0.159607 0.070589 0.000000
0.160043 0.071367 -0.016667
0.160253 0.071953 -0.033333
0.158402 0.081338 0.033333
0.159048 0.082852 0.016667
0.159744 0.084094 0.000000
0.160140 0.085078 -0.016667
0.160311 0.085860 -0.033333
0.158799 0.094875 0.033333
0.159448 0.096201 0.016667
0.159965 0.097881 0.000000
0.160285 0.099046 -0.016667
0.160415 0.099922 -0.033333
0.159678 0.108220 0.033333
0.159956 0.110513 0.016667
0.160298 0.111977 0.000000
0.160472 0.113242 -0.016667
0.160526 0.114314 -0.033333
0.161304 0.123290 0.033333
0.160552 0.125137 0.016667
0.160595 0.126431 0.000000
0.160672 0.127928 -0.016667
0.160629 0.128746 -0.033333
0.161226 0.139419 0.033333
0.160814 0.140657 0.016667
0.160813 0.141348 0.000000
0.160773 0.142748 -0.016667
0.160732 0.143647 -0.033333
0.161149 0.155547 0.033333
0.160690 0.156189 0.016667
0.160826 0.156570 0.000000
0.160812 0.157900 -0.016667
0.160788 0.158645 -0.033333
0.161071 0.171675 0.033333
0.160257 0.172128 0.016667
0.160678 0.171761 0.000000
0.160831 0.173349 -0.016667
0.160814 0.173784 -0.033333
0.158469 0.187828 0.033333
0.159742 0.187227 0.016667
0.160621 0.187473 0.000000
0.160820 0.188662 -0.016667
0.160911 0.189330 -0.033333
0.158462 0.203598 0.033333
0.159809 0.202549 0.016667
0.160723 0.203109 0.000000
0.160925 0.204263 -0.016667
0.161034 0.204933 -0.033333
0.160839 0.220063 0.033333
0.160433 0.217624 0.016667
0.160962 0.219244 0.000000
0.161162 0.219772 -0.016667
0.161174 0.220949 -0.033333
0.160761 0.236191 0.033333
0.161065 0.233819 0.016667
0.161350 0.234987 0.000000
0.161383 0.235930 -0.016667
0.161393 0.236764 -0.033333
0.160684 0.252320 0.033333
0.161459 0.249946 0.016667
0.161676 0.251182 0.000000
0.161632 0.252112 -0.016667
0.161552 0.252913 -0.033333
0.160606 0.268449 0.033333
0.162038 0.266269 0.016667
0.161928 0.267664 0.000000
0.161788 0.268342 -0.016667
0.161664 0.269397 -0.033333
0.162648 0.284314 0.033333
0.162421 0.283281 0.016667
0.162070 0.283947 0.000000
0.161825 0.285088 -0.016667
0.161629 0.285697 -0.033333
0.162556 0.300743 0.033333
0.162391 0.300317 0.016667
0.161979 0.300526 0.000000
0.161670 0.301760 -0.016667
0.161457 0.302326 -0.033333
0.160374 0.316836 0.033333
0.161906 0.317307 0.016667
0.161661 0.317129 0.000000
0.161308 0.318606 -0.016667
0.161109 0.318926 -0.033333
0.160296 0.332964 0.033333
0.161291 0.333856 0.016667
0.161110 0.333995 0.000000
0.160764 0.335284 -0.016667
0.160570 0.335770 -0.033333
0.160219 0.349093 0.033333
0.160699 0.350460 0.016667
0.160336 0.350777 0.000000
0.159986 0.352071 -0.016667
0.159888 0.352529 -0.033333
0.160141 0.365222 0.033333
0.159595 0.367273 0.016667
0.159089 0.367368 0.000000
0.158991 0.368981 -0.016667
0.159114 0.369134 -0.033333
0.157871 0.382856 0.033333
0.157163 0.383642 0.016667
0.157206 0.384148 0.000000
0.157723 0.385556 -0.016667
0.158497 0.385927 -0.033333
0.179562 -0.486331 0.033333
0.182412 -0.494033 0.016667
0.185438 -0.495229 0.000000
0.187301 -0.495434 -0.016667
0.188315 -0.496094 -0.033333
0.184777 -0.470286 0.033333
0.185831 -0.476662 0.016667
0.187188 -0.478584 0.000000
0.188338 -0.478805 -0.016667
0.189032 -0.479475 -0.033333
0.188490 -0.453647 0.033333
0.188739 -0.459340 0.016667
0.189216 -0.461695 0.000000
0.189739 -0.462204 -0.016667
0.190109 -0.462827 -0.033333
0.191196 -0.436710 0.033333
0.191090 -0.441969 0.016667
0.191097 -0.444675 0.000000
0.191218 -0.445527 -0.016667
0.191337 -0.446180 -0.033333
0.193175 -0.419580 0.033333
0.192925 -0.424550 0.016667
0.192703 -0.427569 0.000000
0.192589 -0.428771 -0.016667
0.192548 -0.429522 -0.033333
0.194597 -0.402316 0.033333
0.194306 -0.407093 0.016667
0.193989 -0.410405 0.000000
0.193756 -0.411959 -0.016667
0.193623 -0.412848 -0.033333
0.195547 -0.384936 0.033333
0.195277 -0.389616 0.016667
0.194947 -0.393216 0.000000
0.194666 -0.395118 -0.016667
0.194492 -0.396174 -0.033333
0.196101 -0.367479 0.033333
0.195880 -0.372135 0.016667
0.195579 -0.376030 0.000000
0.195300 -0.378283 -0.016667
0.195114 -0.379520 -0.033333
0.196295 -0.349976 0.033333
0.196143 -0.354687 0.016667
0.195903 -0.358890 0.000000
0.195649 -0.361490 -0.016667
0.195473 -0.362923 -0.033333
0.196194 -0.332506 0.033333
0.196107 -0.337317 0.016667
0.195933 -0.341842 0.000000
0.195723 -0.344791 -0.016667
0.195567 -0.346424 -0.033333
0.195812 -0.315152 0.033333
0.195797 -0.320113 0.016667
0.195697 -0.324958 0.000000
0.195536 -0.328239 -0.016667
0.195409 -0.330076 -0.033333
0.195218 -0.298052 0.033333
0.195253 -0.303154 0.016667
0.195219 -0.308305 0.000000
0.195114 -0.311907 -0.016667
0.195016 -0.313935 -0.033333
0.194398 -0.281341 0.033333
0.194501 -0.286578 0.016667
0.194534 -0.291987 0.000000
0.194478 -0.295858 -0.016667
0.194418 -0.298069 -0.033333
0.193430 -0.265163 0.033333
0.193569 -0.270468 0.016667
0.193666 -0.276072 0.000000
0.193669 -0.280179 -0.016667
0.193634 -0.282534 -0.033333
0.192274 -0.249644 0.033333
0.192496 -0.254959 0.016667
0.192654 -0.260672 0.000000
0.192703 -0.264915 -0.016667
0.192714 -0.267386 -0.033333
0.191026 -0.234835 0.033333
0.191281 -0.240080 0.016667
0.191521 -0.245787 0.000000
0.191635 -0.250133 -0.016667
0.191670 -0.252671 -0.033333
0.189652 -0.220804 0.033333
0.190008 -0.225881 0.016667
0.190314 -0.231527 0.000000
0.190481 -0.235831 -0.016667
0.190564 -0.238374 -0.033333
0.188261 -0.207452 0.033333
0.188666 -0.212345 0.016667
0.189060 -0.217757 0.000000
0.189299 -0.222014 -0.016667
0.189418 -0.224548 -0.033333
0.186883 -0.194808 0.033333
0.187359 -0.199377 0.016667
0.187828 -0.204588 0.000000
0.188126 -0.208648 -0.016667
0.188280 -0.211059 -0.033333
0.185624 -0.182596 0.033333
0.186156 -0.186908 0.016667
0.186676 -0.191751 0.000000
0.187010 -0.195630 -0.016667
0.187195 -0.197975 -0.033333
0.184515 -0.170803 0.033333
0.185059 -0.174755 0.016667
0.185611 -0.179298 0.000000
0.185981 -0.182923 -0.016667
0.186180 -0.185092 -0.033333
0.183517 -0.159158 0.033333
0.184085 -0.162817 0.016667
0.184660 -0.167007 0.000000
0.185042 -0.170400 -0.016667
0.185250 -0.172451 -0.033333
0.182642 -0.147677 0.033333
0.183213 -0.151024 0.016667
0.183800 -0.154889 0.000000
0.184196 -0.158021 -0.016667
0.184412 -0.159917 -0.033333
0.181874 -0.136233 0.033333
0.182453 -0.139293 0.016667
0.183042 -0.142829 0.000000
0.183443 -0.145727 -0.016667
0.183661 -0.147476 -0.033333
0.181220 -0.124813 0.033333
0.181783 -0.127586 0.016667
0.182374 -0.130822 0.000000
0.182778 -0.133467 -0.016667
0.182997 -0.135074 -0.033333
0.180647 -0.113341 0.033333
0.181215 -0.115881 0.016667
0.181798 -0.118800 0.000000
0.182198 -0.121219 -0.016667
0.182416 -0.122681 -0.033333
0.180189 -0.101878 0.033333
0.180735 -0.104117 0.016667
0.181304 -0.106766 0.000000
0.181701 -0.108948 -0.016667
0.181913 -0.110267 -0.033333
0.179817 -0.090263 0.033333
0.180340 -0.092319 0.016667
0.180895 -0.094679 0.000000
0.181279 -0.096633 -0.016667
0.181486 -0.097819 -0.033333
0.179527 -0.078644 0.033333
0.180035 -0.080432 0.016667
0.180561 -0.082529 0.000000
0.180931 -0.084267 -0.016667
0.181130 -0.085309 -0.033333
0.179339 -0.066877 0.033333
0.179804 -0.068464 0.016667
0.180300 -0.070304 0.000000
0.180650 -0.071823 -0.016667
0.180835 -0.072737 -0.033333
0.179209 -0.055025 0.033333
0.179644 -0.056399 0.016667
0.180102 -0.057989 0.000000
0.180425 -0.059302 -0.016667
0.180597 -0.060081 -0.033333
0.179146 -0.043060 0.033333
0.179536 -0.044229 0.016667
0.179953 -0.045582 0.000000
0.180249 -0.046689 -0.016667
0.180402 -0.047341 -0.033333
0.179117 -0.030984 0.033333
0.179466 -0.031958 0.016667
0.179841 -0.033075 0.000000
0.180106 -0.033984 -0.016667
0.180243 -0.034509 -0.033333
0.179112 -0.018806 0.033333
0.179418 -0.019581 0.016667
0.179750 -0.020471 0.000000
0.179987 -0.021183 -0.016667
0.180104 -0.021581 -0.033333
0.179110 -0.006534 0.033333
0.179376 -0.007115 0.016667
0.179669 -0.007770 0.000000
0.179877 -0.008287 -0.016667
0.179978 -0.008560 -0.033333
0.179100 0.005814 0.033333
0.179330 0.005443 0.016667
0.179586 0.005021 0.000000
0.179769 0.004703 -0.016667
0.179855 0.004560 -0.033333
0.179071 0.018226 0.033333
0.179268 0.018072 0.016667
0.179493 0.017901 0.000000
0.179654 0.017786 -0.016667
0.179726 0.017775 -0.033333
0.179014 0.030696 0.033333
0.179185 0.030778 0.016667
0.179384 0.030865 0.000000
0.179526 0.030964 -0.016667
0.179587 0.031093 -0.033333
0.178930 0.043202 0.033333
0.179075 0.043552 0.016667
0.179255 0.043925 0.000000
0.179383 0.044244 -0.016667
0.179435 0.044520 -0.033333
0.178813 0.055781 0.033333
0.178938 0.056415 0.016667
0.179103 0.057092 0.000000
0.179223 0.057641 -0.016667
0.179268 0.058070 -0.033333
0.178657 0.068405 0.033333
0.178771 0.069433 0.016667
0.178931 0.070402 0.000000
0.179046 0.071176 -0.016667
0.179089 0.071780 -0.033333
0.178463 0.081486 0.033333
0.178577 0.082567 0.016667
0.178736 0.083915 0.000000
0.178856 0.084913 -0.016667
0.178898 0.085638 -0.033333
0.178235 0.094365 0.033333
0.178328 0.096282 0.016667
0.178524 0.097700 0.000000
0.178656 0.098840 -0.016667
0.178696 0.099781 -0.033333
0.177924 0.108573 0.033333
0.178066 0.110144 0.016667
0.178295 0.111874 0.000000
0.178448 0.113119 -0.016667
0.178494 0.114074 -0.033333
0.177433 0.123367 0.033333
0.177772 0.125275 0.016667
0.178076 0.126294 0.000000
0.178238 0.127764 -0.016667
0.178285 0.128634 -0.033333
0.177355 0.139496 0.033333
0.177501 0.140407 0.016667
0.177853 0.141319 0.000000
0.178026 0.142630 -0.016667
0.178084 0.143476 -0.033333
0.177278 0.155625 0.033333
0.177208 0.156230 0.016667
0.177641 0.156499 0.000000
0.177803 0.157782 -0.016667
0.177902 0.158570 -0.033333
0.177200 0.171753 0.033333
0.176758 0.171959 0.016667
0.177424 0.171751 0.000000
0.177594 0.173303 -0.016667
0.177750 0.173661 -0.033333
0.175851 0.188104 0.033333
0.176409 0.187274 0.016667
0.177208 0.187504 0.000000
0.177487 0.188602 -0.016667
0.177599 0.189313 -0.033333
0.175718 0.203420 0.033333
0.176367 0.202713 0.016667
0.177165 0.203165 0.000000
0.177426 0.204290 -0.016667
0.177535 0.204889 -0.033333
0.176968 0.220140 0.033333
0.176637 0.217936 0.016667
0.177292 0.219332 0.000000
0.177402 0.219795 -0.016667
0.177559 0.220984 -0.033333
0.176890 0.236269 0.033333
0.177028 0.234069 0.016667
0.177402 0.235099 0.000000
0.177480 0.236018 -0.016667
0.177550 0.236759 -0.033333
0.176813 0.252398 0.033333
0.177329 0.250313 0.016667
0.177480 0.251238 0.000000
0.177566 0.252213 -0.016667
0.177519 0.252935 -0.033333
0.176735 0.268527 0.033333
0.177679 0.266438 0.016667
0.177521 0.267821 0.000000
0.177583 0.268391 -0.016667
0.177452 0.269440 -0.033333
0.177825 0.284142 0.033333
0.177814 0.283561 0.016667
0.177550 0.283991 0.000000
0.177441 0.285161 -0.016667
0.177342 0.285720 -0.033333
0.177657 0.301027 0.033333
0.177700 0.300292 0.016667
0.177369 0.300665 0.000000
0.177199 0.301767 -0.016667
0.177073 0.302357 -0.033333
0.176503 0.316913 0.033333
0.177290 0.317364 0.016667
0.176965 0.317155 0.000000
0.176833 0.318642 -0.016667
0.176627 0.318915 -0.033333
0.176425 0.333042 0.033333
0.176688 0.333843 0.016667
0.176451 0.334068 0.000000
0.176240 0.335263 -0.016667
0.176086 0.335777 -0.033333
0.176348 0.349171 0.033333
0.176033 0.350465 0.016667
0.175675 0.350792 0.000000
0.175468 0.352070 -0.016667
0.175422 0.352502 -0.033333
0.176270 0.365299 0.033333
0.174758 0.367290 0.016667
0.174491 0.367390 0.000000
0.174525 0.368958 -0.016667
0.174683 0.369111 -0.033333
0.172497 0.382879 0.033333
0.172493 0.383645 0.016667
0.172816 0.384132 0.000000
0.173366 0.385545 -0.016667
0.174111 0.385885 -0.033333
0.194856 -0.486330 0.033333
0.197858 -0.494011 0.016667
0.201002 -0.495223 0.000000
0.202964 -0.495465 -0.016667
0.204038 -0.496129 -0.033333
0.199652 -0.470350 0.033333
0.201034 -0.476717 0.016667
0.202668 -0.478649 0.000000
0.203980 -0.478888 -0.016667
0.204773 -0.479570 -0.033333
0.203141 -0.453815 0.033333
0.203762 -0.459495 0.016667
0.204581 -0.461845 0.000000
0.205327 -0.462360 -0.016667
0.205822 -0.462987 -0.033333
0.205705 -0.437005 0.033333
0.205983 -0.442243 0.016667
0.206367 -0.444927 0.000000
0.206744 -0.445768 -0.016667
0.207009 -0.446419 -0.033333
0.207598 -0.420028 0.033333
0.207732 -0.424958 0.016667
0.207900 -0.427935 0.000000
0.208064 -0.429112 -0.016667
0.208184 -0.429851 -0.033333
0.208953 -0.402921 0.033333
0.209052 -0.407648 0.016667
0.209141 -0.410898 0.000000
0.209200 -0.412409 -0.016667
0.209239 -0.413278 -0.033333
0.209867 -0.385713 0.033333
0.209994 -0.390321 0.016667
0.210080 -0.393840 0.000000
0.210107 -0.395687 -0.016667
0.210111 -0.396710 -0.033333
0.210402 -0.368413 0.033333
0.210592 -0.372992 0.016667
0.210728 -0.376791 0.000000
0.210767 -0.378971 -0.016667
0.210769 -0.380169 -0.033333
0.210635 -0.351067 0.033333
0.210900 -0.355684 0.016667
0.211105 -0.359780 0.000000
0.211184 -0.362299 -0.016667
0.211202 -0.363683 -0.033333
0.210619 -0.333716 0.033333
0.210957 -0.338446 0.016667
0.211244 -0.342856 0.000000
0.211374 -0.345711 -0.016667
0.211418 -0.347291 -0.033333
0.210445 -0.316465 0.033333
0.210833 -0.321335 0.016667
0.211182 -0.326072 0.000000
0.211364 -0.329263 -0.016667
0.211438 -0.331038 -0.033333
0.210145 -0.299424 0.033333
0.210564 -0.304465 0.016667
0.210964 -0.309510 0.000000
0.211189 -0.313011 -0.016667
0.211290 -0.314984 -0.033333
0.209817 -0.282747 0.033333
0.210223 -0.287919 0.016667
0.210634 -0.293245 0.000000
0.210887 -0.297037 -0.016667
0.211005 -0.299182 -0.033333
0.209442 -0.266581 0.033333
0.209834 -0.271856 0.016667
0.210232 -0.277384 0.000000
0.210490 -0.281396 -0.016667
0.210621 -0.283700 -0.033333
0.209117 -0.251038 0.033333
0.209427 -0.256326 0.016667
0.209791 -0.261979 0.000000
0.210036 -0.266171 -0.016667
0.210151 -0.268584 -0.033333
0.208749 -0.236239 0.033333
0.209034 -0.241459 0.016667
0.209319 -0.247139 0.000000
0.209532 -0.251386 -0.016667
0.209647 -0.253867 -0.033333
0.208442 -0.222139 0.033333
0.208601 -0.227243 0.016667
0.208839 -0.232805 0.000000
0.209011 -0.237084 -0.016667
0.209082 -0.239599 -0.033333
0.208081 -0.208829 0.033333
0.208201 -0.213654 0.016667
0.208335 -0.219094 0.000000
0.208451 -0.223250 -0.016667
0.208506 -0.225695 -0.033333
0.207710 -0.196062 0.033333
0.207732 -0.200692 0.016667
0.207802 -0.205796 0.000000
0.207868 -0.209825 -0.016667
0.207889 -0.212241 -0.033333
0.207217 -0.183888 0.033333
0.207182 -0.188131 0.016667
0.207203 -0.192983 0.000000
0.207246 -0.196783 -0.016667
0.207244 -0.199035 -0.033333
0.206606 -0.171945 0.033333
0.206566 -0.175915 0.016667
0.206566 -0.180399 0.000000
0.206585 -0.183987 -0.016667
0.206580 -0.186148 -0.033333
0.205948 -0.160270 0.033333
0.205893 -0.163904 0.016667
0.205891 -0.168073 0.000000
0.205914 -0.171405 -0.016667
0.205904 -0.173406 -0.033333
0.205257 -0.148669 0.033333
0.205217 -0.152013 0.016667
0.205217 -0.155847 0.000000
0.205240 -0.158953 -0.016667
0.205231 -0.160819 -0.033333
0.204578 -0.137148 0.033333
0.204539 -0.140200 0.016667
0.204550 -0.143727 0.000000
0.204580 -0.146581 -0.016667
0.204575 -0.148306 -0.033333
0.203913 -0.125621 0.033333
0.203895 -0.128414 0.016667
0.203911 -0.131627 0.000000
0.203945 -0.134257 -0.016667
0.203944 -0.135838 -0.033333
0.203304 -0.114100 0.033333
0.203283 -0.116612 0.016667
0.203306 -0.119546 0.000000
0.203346 -0.121937 -0.016667
0.203348 -0.123381 -0.033333
0.202734 -0.102485 0.033333
0.202721 -0.104793 0.016667
0.202747 -0.107432 0.000000
0.202788 -0.109603 -0.016667
0.202793 -0.110911 -0.033333
0.202227 -0.090871 0.033333
0.202216 -0.092904 0.016667
0.202236 -0.095281 0.000000
0.202277 -0.097232 -0.016667
0.202283 -0.098401 -0.033333
0.201795 -0.079113 0.033333
0.201765 -0.080955 0.016667
0.201780 -0.083070 0.000000
0.201815 -0.084803 -0.016667
0.201818 -0.085845 -0.033333
0.201414 -0.067307 0.033333
0.201378 -0.068922 0.016667
0.201376 -0.070784 0.000000
0.201401 -0.072310 -0.016667
0.201401 -0.073217 -0.033333
0.201108 -0.055381 0.033333
0.201043 -0.056793 0.016667
0.201022 -0.058417 0.000000
0.201034 -0.059736 -0.016667
0.201024 -0.060518 -0.033333
0.200851 -0.043354 0.033333
0.200760 -0.044571 0.016667
0.200711 -0.045956 0.000000
0.200705 -0.047078 -0.016667
0.200686 -0.047732 -0.033333
0.200643 -0.031222 0.033333
0.200517 -0.032242 0.016667
0.200436 -0.033402 0.000000
0.200409 -0.034328 -0.016667
0.200377 -0.034857 -0.033333
0.200470 -0.018988 0.033333
0.200304 -0.019820 0.016667
0.200187 -0.020750 0.000000
0.200135 -0.021483 -0.016667
0.200090 -0.021890 -0.033333
0.200325 -0.006664 0.033333
0.200114 -0.007298 0.016667
0.199954 -0.008005 0.000000
0.199876 -0.008545 -0.016667
0.199816 -0.008827 -0.033333
0.200197 0.005739 0.033333
0.199933 0.005303 0.016667
0.199729 0.004834 0.000000
0.199621 0.004488 -0.016667
0.199545 0.004332 -0.033333
0.200071 0.018206 0.033333
0.199754 0.017988 0.016667
0.199500 0.017758 0.000000
0.199361 0.017614 -0.016667
0.199269 0.017589 -0.033333
0.199934 0.030719 0.033333
0.199557 0.030737 0.016667
0.199254 0.030773 0.000000
0.199086 0.030836 -0.016667
0.198977 0.030947 -0.033333
0.199759 0.043291 0.033333
0.199326 0.043564 0.016667
0.198977 0.043875 0.000000
0.198782 0.044159 -0.016667
0.198660 0.044416 -0.033333
0.199512 0.055912 0.033333
0.199030 0.056475 0.016667
0.198644 0.057086 0.000000
0.198435 0.057599 -0.016667
0.198308 0.058010 -0.033333
0.199157 0.068670 0.033333
0.198613 0.069491 0.016667
0.198233 0.070437 0.000000
0.198032 0.071182 -0.016667
0.197906 0.071739 -0.033333
0.198503 0.081352 0.033333
0.198061 0.082791 0.016667
0.197706 0.083975 0.000000
0.197550 0.084922 -0.016667
0.197462 0.085677 -0.033333
0.197605 0.094934 0.033333
0.197219 0.096165 0.016667
0.197054 0.097797 0.000000
0.197001 0.098929 -0.016667
0.196961 0.099764 -0.033333
0.196148 0.108345 0.033333
0.196124 0.110485 0.016667
0.196284 0.111930 0.000000
0.196402 0.113156 -0.016667
0.196438 0.114186 -0.033333
0.193562 0.123445 0.033333
0.195018 0.125121 0.016667
0.195531 0.126418 0.000000
0.195792 0.127863 -0.016667
0.195924 0.128654 -0.033333
0.193484 0.139574 0.033333
0.194200 0.140584 0.016667
0.194897 0.141367 0.000000
0.195260 0.142703 -0.016667
0.195420 0.143580 -0.033333
0.193407 0.155702 0.033333
0.193757 0.156059 0.016667
0.194430 0.156634 0.000000
0.194784 0.157858 -0.016667
0.194994 0.158628 -0.033333
0.193329 0.171830 0.033333
0.193250 0.171906 0.016667
0.194150 0.171950 0.000000
0.194328 0.173263 -0.016667
0.194679 0.173866 -0.033333
0.193252 0.187960 0.033333
0.192691 0.187317 0.016667
0.194002 0.187580 0.000000
0.193912 0.188727 -0.016667
0.194467 0.189354 -0.033333
0.193174 0.204089 0.033333
0.192515 0.202785 0.016667
0.193853 0.203349 0.000000
0.193651 0.204306 -0.016667
0.194251 0.205066 -0.033333
0.193097 0.220218 0.033333
0.192801 0.218319 0.016667
0.193606 0.219292 0.000000
0.193609 0.220055 -0.016667
0.193950 0.220937 -0.033333
0.193019 0.236346 0.033333
0.193040 0.234430 0.016667
0.193417 0.235181 0.000000
0.193593 0.236135 -0.016667
0.193683 0.236864 -0.033333
0.192942 0.252475 0.033333
0.193164 0.250537 0.016667
0.193327 0.251374 0.000000
0.193475 0.252319 -0.016667
0.193511 0.253017 -0.033333
0.192864 0.268604 0.033333
0.193372 0.266885 0.016667
0.193101 0.267759 0.000000
0.193427 0.268606 -0.016667
0.193210 0.269420 -0.033333
0.192787 0.284733 0.033333
0.193578 0.283530 0.016667
0.192797 0.284174 0.000000
0.193313 0.285177 -0.016667
0.192841 0.285823 -0.033333
0.192709 0.300862 0.033333
0.193313 0.300428 0.016667
0.192558 0.300660 0.000000
0.192959 0.301858 -0.016667
0.192503 0.302371 -0.033333
0.192632 0.316991 0.033333
0.192715 0.317184 0.016667
0.192282 0.317307 0.000000
0.192397 0.318583 -0.016667
0.192131 0.319015 -0.033333
0.192554 0.333119 0.033333
0.192066 0.333767 0.016667
0.191819 0.334078 0.000000
0.191716 0.335279 -0.016667
0.191627 0.335785 -0.033333
0.192477 0.349248 0.033333
0.191366 0.350419 0.016667
0.191025 0.350812 0.000000
0.190964 0.352060 -0.016667
0.190957 0.352506 -0.033333
0.192399 0.365377 0.033333
0.189936 0.367229 0.016667
0.189901 0.367400 0.000000
0.190063 0.368937 -0.016667
0.190262 0.369108 -0.033333
0.187166 0.382887 0.033333
0.187833 0.383662 0.016667
0.188430 0.384124 0.000000
0.189019 0.385534 -0.016667
0.189725 0.385857 -0.033333
0.210194 -0.486370 0.033333
0.213362 -0.494096 0.016667
0.216627 -0.495353 0.000000
0.218688 -0.495638 -0.016667
0.219823 -0.496321 -0.033333
0.214616 -0.470509 0.033333
0.216317 -0.476917 0.016667
0.218216 -0.478887 0.000000
0.219689 -0.479153 -0.016667
0.220577 -0.479858 -0.033333
0.217901 -0.454137 0.033333
0.218880 -0.459846 0.016667
0.220032 -0.462209 0.000000
0.220991 -0.462736 -0.016667
0.221607 -0.463377 -0.033333
0.220347 -0.437531 0.033333
0.220992 -0.442772 0.016667
0.221735 -0.445441 0.000000
0.222358 -0.446275 -0.016667
0.222764 -0.446927 -0.033333
0.222160 -0.420779 0.033333
0.222664 -0.425686 0.016667
0.223210 -0.428620 0.000000
0.223640 -0.429766 -0.016667
0.223912 -0.430493 -0.033333
0.223464 -0.403920 0.033333
0.223941 -0.408592 0.016667
0.224416 -0.411770 0.000000
0.224755 -0.413228 -0.016667
0.224957 -0.414069 -0.033333
0.224339 -0.386959 0.033333
0.224854 -0.391492 0.016667
0.225346 -0.394911 0.000000
0.225666 -0.396680 -0.016667
0.225842 -0.397664 -0.033333
0.224860 -0.369912 0.033333
0.225457 -0.374389 0.016667
0.226012 -0.378063 0.000000
0.226359 -0.380148 -0.016667
0.226541 -0.381291 -0.033333
0.225103 -0.352784 0.033333
0.225790 -0.357298 0.016667
0.226443 -0.361253 0.000000
0.226844 -0.363657 -0.016667
0.227050 -0.364976 -0.033333
0.225164 -0.335632 0.033333
0.225936 -0.340248 0.016667
0.226680 -0.344514 0.000000
0.227145 -0.347247 -0.016667
0.227386 -0.348751 -0.033333
0.225128 -0.318513 0.033333
0.225950 -0.323303 0.016667
0.226775 -0.327899 0.000000
0.227302 -0.330959 -0.016667
0.227576 -0.332658 -0.033333
0.225116 -0.301568 0.033333
0.225942 -0.306536 0.016667
0.226793 -0.311470 0.000000
0.227357 -0.314857 -0.016667
0.227660 -0.316744 -0.033333
0.225171 -0.284921 0.033333
0.225948 -0.290084 0.016667
0.226788 -0.295320 0.000000
0.227365 -0.298997 -0.016667
0.227674 -0.301073 -0.033333
0.225421 -0.268751 0.033333
0.226074 -0.274029 0.016667
0.226822 -0.279527 0.000000
0.227362 -0.283465 -0.016667
0.227655 -0.285688 -0.033333
0.225795 -0.253208 0.033333
0.226316 -0.258557 0.016667
0.226913 -0.264199 0.000000
0.227380 -0.268300 -0.016667
0.227639 -0.270660 -0.033333
0.226411 -0.238360 0.033333
0.226670 -0.243672 0.016667
0.227097 -0.249362 0.000000
0.227439 -0.253589 -0.016667
0.227609 -0.256017 -0.033333
0.227067 -0.224353 0.033333
0.227168 -0.229491 0.016667
0.227313 -0.235136 0.000000
0.227504 -0.239324 -0.016667
0.227612 -0.241756 -0.033333
0.227850 -0.211002 0.033333
0.227620 -0.216002 0.016667
0.227561 -0.221375 0.000000
0.227576 -0.225510 -0.016667
0.227551 -0.227948 -0.033333
0.228516 -0.198492 0.033333
0.228071 -0.203035 0.016667
0.227722 -0.208208 0.000000
0.227565 -0.212132 -0.016667
0.227451 -0.214412 -0.033333
0.228748 -0.186285 0.033333
0.228158 -0.190591 0.016667
0.227676 -0.195327 0.000000
0.227407 -0.199045 -0.016667
0.227234 -0.201259 -0.033333
0.228638 -0.174454 0.033333
0.227966 -0.178343 0.016667
0.227420 -0.182772 0.000000
0.227114 -0.186223 -0.016667
0.226898 -0.188268 -0.033333
0.228269 -0.162680 0.033333
0.227596 -0.166268 0.016667
0.227024 -0.170325 0.000000
0.226690 -0.173561 -0.016667
0.226466 -0.175479 -0.033333
0.227749 -0.151027 0.033333
0.227080 -0.154288 0.016667
0.226514 -0.158032 0.000000
0.226179 -0.161007 -0.016667
0.225952 -0.162785 -0.033333
0.227124 -0.139362 0.033333
0.226491 -0.142351 0.016667
0.225934 -0.145770 0.000000
0.225606 -0.148529 -0.016667
0.225383 -0.150163 -0.033333
0.226462 -0.127710 0.033333
0.225849 -0.130421 0.016667
0.225315 -0.133552 0.000000
0.224997 -0.136072 -0.016667
0.224782 -0.137577 -0.033333
0.225774 -0.115997 0.033333
0.225198 -0.118481 0.016667
0.224681 -0.121318 0.000000
0.224374 -0.123624 -0.016667
0.224169 -0.124994 -0.033333
0.225107 -0.104271 0.033333
0.224550 -0.106491 0.016667
0.224051 -0.109066 0.000000
0.223755 -0.111153 -0.016667
0.223559 -0.112393 -0.033333
0.224469 -0.092425 0.033333
0.223925 -0.094457 0.016667
0.223441 -0.096767 0.000000
0.223154 -0.098644 -0.016667
0.222964 -0.099759 -0.033333
0.223864 -0.080549 0.033333
0.223337 -0.082346 0.016667
0.222860 -0.084409 0.000000
0.222578 -0.086083 -0.016667
0.222395 -0.087070 -0.033333
0.223323 -0.068547 0.033333
0.222788 -0.070155 0.016667
0.222314 -0.071982 0.000000
0.222035 -0.073454 -0.016667
0.221853 -0.074321 -0.033333
0.222822 -0.056463 0.033333
0.222286 -0.057876 0.016667
0.221807 -0.059471 0.000000
0.221523 -0.060752 -0.016667
0.221342 -0.061496 -0.033333
0.222382 -0.044270 0.033333
0.221827 -0.045497 0.016667
0.221336 -0.046874 0.000000
0.221045 -0.047964 -0.016667
0.220860 -0.048590 -0.033333
0.221990 -0.031971 0.033333
0.221410 -0.033023 0.016667
0.220898 -0.034182 0.000000
0.220595 -0.035089 -0.016667
0.220405 -0.035598 -0.033333
0.221649 -0.019570 0.033333
0.221032 -0.020443 0.016667
0.220490 -0.021395 0.000000
0.220169 -0.022121 -0.016667
0.219969 -0.022514 -0.033333
0.221354 -0.007071 0.033333
0.220687 -0.007772 0.016667
0.220105 -0.008513 0.000000
0.219758 -0.009059 -0.016667
0.219547 -0.009337 -0.033333
0.221102 0.005512 0.033333
0.220372 0.004994 0.016667
0.219733 0.004461 0.000000
0.219357 0.004095 -0.016667
0.219129 0.003936 -0.033333
0.220884 0.018160 0.033333
0.220071 0.017833 0.016667
0.219367 0.017527 0.000000
0.218952 0.017344 -0.016667
0.218705 0.017305 -0.033333
0.220678 0.030855 0.033333
0.219770 0.030746 0.016667
0.218986 0.030675 0.000000
0.218529 0.030687 -0.016667
0.218261 0.030775 -0.033333
0.220435 0.043565 0.033333
0.219430 0.043711 0.016667
0.218566 0.043914 0.000000
0.218069 0.044128 -0.016667
0.217782 0.044350 -0.033333
0.220079 0.056319 0.033333
0.218992 0.056745 0.016667
0.218072 0.057241 0.000000
0.217543 0.057675 -0.016667
0.217248 0.058044 -0.033333
0.219483 0.069124 0.033333
0.218396 0.069875 0.016667
0.217437 0.070681 0.000000
0.216922 0.071350 -0.016667
0.216646 0.071873 -0.033333
0.218686 0.082212 0.033333
0.217440 0.083085 0.016667
0.216621 0.084292 0.000000
0.216185 0.085185 -0.016667
0.215941 0.085847 -0.033333
0.217056 0.094872 0.033333
0.216196 0.096792 0.016667
0.215537 0.098110 0.000000
0.215300 0.099185 -0.016667
0.215183 0.100069 -0.033333
0.214436 0.108997 0.033333
0.214240 0.110451 0.016667
0.214297 0.112301 0.000000
0.214316 0.113489 -0.016667
0.214357 0.114417 -0.033333
0.209690 0.123522 0.033333
0.212293 0.125548 0.016667
0.212956 0.126647 0.000000
0.213371 0.128163 -0.016667
0.213514 0.128988 -0.033333
0.209613 0.139651 0.033333
0.210969 0.140550 0.016667
0.211945 0.141684 0.000000
0.212483 0.142989 -0.016667
0.212773 0.143845 -0.033333
0.209535 0.155780 0.033333
0.210320 0.156274 0.016667
0.211245 0.156840 0.000000
0.211770 0.158117 -0.016667
0.212089 0.158921 -0.033333
0.209458 0.171908 0.033333
0.209929 0.171732 0.016667
0.210736 0.172290 0.000000
0.211188 0.173401 -0.016667
0.211519 0.174189 -0.033333
0.209380 0.188038 0.033333
0.209536 0.187397 0.016667
0.210346 0.187783 0.000000
0.210706 0.188895 -0.016667
0.211025 0.189621 -0.033333
0.209303 0.204166 0.033333
0.209287 0.202895 0.016667
0.210009 0.203492 0.000000
0.210319 0.204510 -0.016667
0.210587 0.205244 -0.033333
0.209225 0.220295 0.033333
0.209148 0.218729 0.016667
0.209726 0.219271 0.000000
0.209980 0.220331 -0.016667
0.210210 0.221030 -0.033333
0.209148 0.236424 0.033333
0.209058 0.234588 0.016667
0.209458 0.235306 0.000000
0.209685 0.236299 -0.016667
0.209855 0.237005 -0.033333
0.209070 0.252553 0.033333
0.208992 0.250822 0.016667
0.209161 0.251434 0.000000
0.209433 0.252466 -0.016667
0.209479 0.253159 -0.033333
0.208993 0.268682 0.033333
0.208925 0.267126 0.016667
0.208880 0.267766 0.000000
0.209134 0.268806 -0.016667
0.209122 0.269452 -0.033333
0.208915 0.284810 0.033333
0.208741 0.283696 0.016667
0.208586 0.284207 0.000000
0.208788 0.285273 -0.016667
0.208729 0.285928 -0.033333
0.208838 0.300939 0.033333
0.208478 0.300328 0.016667
0.208208 0.300764 0.000000
0.208381 0.301884 -0.016667
0.208273 0.302474 -0.033333
0.208760 0.317068 0.033333
0.207996 0.316988 0.016667
0.207769 0.317402 0.000000
0.207862 0.318554 -0.016667
0.207755 0.319136 -0.033333
0.208683 0.333197 0.033333
0.207450 0.333642 0.016667
0.207188 0.334093 0.000000
0.207228 0.335294 -0.016667
0.207160 0.335823 -0.033333
0.208605 0.349326 0.033333
0.206658 0.350291 0.016667
0.206391 0.350807 0.000000
0.206465 0.352064 -0.016667
0.206508 0.352529 -0.033333
0.208528 0.365454 0.033333
0.205098 0.367153 0.016667
0.205319 0.367425 0.000000
0.205607 0.368907 -0.016667
0.205853 0.369136 -0.033333
0.201812 0.382901 0.033333
0.203163 0.383635 0.016667
0.204045 0.384097 0.000000
0.204675 0.385538 -0.016667
0.205351 0.385836 -0.033333
0.225618 -0.486449 0.033333
0.228960 -0.494283 0.016667
0.232346 -0.495605 0.000000
0.234508 -0.495940 -0.016667
0.235707 -0.496655 -0.033333
0.229721 -0.470751 0.033333
0.231722 -0.477251 0.016667
0.233877 -0.479283 0.000000
0.235502 -0.479582 -0.016667
0.236483 -0.480320 -0.033333
0.232835 -0.454605 0.033333
0.234151 -0.460376 0.016667
0.235613 -0.462770 0.000000
0.236775 -0.463315 -0.016667
0.237504 -0.463974 -0.033333
0.235185 -0.438267 0.033333
0.236174 -0.443533 0.016667
0.237255 -0.446197 0.000000
0.238108 -0.447024 -0.016667
0.238645 -0.447679 -0.033333
0.236941 -0.421819 0.033333
0.237794 -0.426710 0.016667
0.238690 -0.429598 0.000000
0.239367 -0.430709 -0.016667
0.239783 -0.431421 -0.033333
0.238203 -0.405283 0.033333
0.239035 -0.409901 0.016667
0.239877 -0.412993 0.000000
0.240478 -0.414385 -0.016667
0.240831 -0.415193 -0.033333
0.239046 -0.388663 0.033333
0.239937 -0.393101 0.016667
0.240809 -0.396395 0.000000
0.241403 -0.398068 -0.016667
0.241740 -0.398999 -0.033333
0.239544 -0.371946 0.033333
0.240534 -0.376302 0.016667
0.241499 -0.379817 0.000000
0.242136 -0.381776 -0.016667
0.242487 -0.382850 -0.033333
0.239777 -0.355141 0.033333
0.240896 -0.359506 0.016667
0.241980 -0.363276 0.000000
0.242689 -0.365532 -0.016667
0.243075 -0.366764 -0.033333
0.239859 -0.338249 0.033333
0.241083 -0.342730 0.016667
0.242300 -0.346797 0.000000
0.243096 -0.349362 -0.016667
0.243525 -0.350768 -0.033333
0.239914 -0.321350 0.033333
0.241216 -0.326007 0.016667
0.242529 -0.330415 0.000000
0.243399 -0.333306 -0.016667
0.243875 -0.334893 -0.033333
0.240075 -0.304518 0.033333
0.241371 -0.309421 0.016667
0.242738 -0.314193 0.000000
0.243663 -0.317409 -0.016667
0.244168 -0.319188 -0.033333
0.240487 -0.287944 0.033333
0.241701 -0.293068 0.016667
0.243018 -0.298203 0.000000
0.243940 -0.301738 -0.016667
0.244456 -0.303696 -0.033333
0.241193 -0.271763 0.033333
0.242226 -0.277115 0.016667
0.243425 -0.282548 0.000000
0.244297 -0.286347 -0.016667
0.244774 -0.288486 -0.033333
0.242352 -0.256191 0.033333
0.243086 -0.261628 0.016667
0.244026 -0.267308 0.000000
0.244752 -0.271335 -0.016667
0.245155 -0.273582 -0.033333
0.243769 -0.241390 0.033333
0.244210 -0.246853 0.016667
0.244791 -0.252599 0.000000
0.245321 -0.256707 -0.016667
0.245617 -0.259061 -0.033333
0.245625 -0.227358 0.033333
0.245516 -0.232730 0.016667
0.245747 -0.238394 0.000000
0.245987 -0.242558 -0.016667
0.246077 -0.244928 -0.033333
0.247508 -0.214361 0.033333
0.247054 -0.219321 0.016667
0.246709 -0.224856 0.000000
0.246635 -0.228845 -0.016667
0.246581 -0.231108 -0.033333
0.249492 -0.201989 0.033333
0.248413 -0.206747 0.016667
0.247633 -0.211712 0.000000
0.247205 -0.215499 -0.016667
0.246936 -0.217720 -0.033333
0.250385 -0.190229 0.033333
0.249086 -0.194326 0.016667
0.248060 -0.198995 0.000000
0.247495 -0.202469 -0.016667
0.247114 -0.204483 -0.033333
0.250645 -0.178391 0.033333
0.249287 -0.182169 0.016667
0.248166 -0.186349 0.000000
0.247508 -0.189607 -0.016667
0.247093 -0.191488 -0.033333
0.250493 -0.166673 0.033333
0.249122 -0.170033 0.016667
0.247990 -0.173891 0.000000
0.247313 -0.176847 -0.016667
0.246869 -0.178593 -0.033333
0.250055 -0.154856 0.033333
0.248744 -0.157931 0.016667
0.247615 -0.161420 0.000000
0.246938 -0.164182 -0.016667
0.246493 -0.165771 -0.033333
0.249454 -0.143042 0.033333
0.248191 -0.145817 0.016667
0.247098 -0.149015 0.000000
0.246430 -0.151528 -0.016667
0.245997 -0.153001 -0.033333
0.248734 -0.131148 0.033333
0.247546 -0.133685 0.016667
0.246481 -0.136583 0.000000
0.245834 -0.138898 -0.016667
0.245413 -0.140236 -0.033333
0.247970 -0.119219 0.033333
0.246830 -0.121511 0.016667
0.245805 -0.124147 0.000000
0.245179 -0.126248 -0.016667
0.244776 -0.127469 -0.033333
0.247178 -0.107191 0.033333
0.246089 -0.109291 0.016667
0.245099 -0.111668 0.000000
0.244493 -0.113572 -0.016667
0.244106 -0.114676 -0.033333
0.246391 -0.095128 0.033333
0.245345 -0.097002 0.016667
0.244384 -0.099142 0.000000
0.243798 -0.100854 -0.016667
0.243427 -0.101841 -0.033333
0.245635 -0.082942 0.033333
0.244611 -0.084645 0.016667
0.243679 -0.086557 0.000000
0.243110 -0.088079 -0.016667
0.242750 -0.088957 -0.033333
0.244902 -0.070695 0.033333
0.243906 -0.072208 0.016667
0.242993 -0.073900 0.000000
0.242436 -0.075242 -0.016667
0.242088 -0.076007 -0.033333
0.244224 -0.058334 0.033333
0.243233 -0.059678 0.016667
0.242333 -0.061166 0.000000
0.241785 -0.062330 -0.016667
0.241444 -0.062989 -0.033333
0.243587 -0.045875 0.033333
0.242599 -0.047057 0.016667
0.241703 -0.048344 0.000000
0.241159 -0.049340 -0.016667
0.240823 -0.049892 -0.033333
0.243007 -0.033306 0.033333
0.242005 -0.034332 0.016667
0.241103 -0.035432 0.000000
0.240558 -0.036263 -0.016667
0.240222 -0.036711 -0.033333
0.242481 -0.020626 0.033333
0.241453 -0.021509 0.016667
0.240534 -0.022425 0.000000
0.239979 -0.023096 -0.016667
0.239641 -0.023442 -0.033333
0.242017 -0.007839 0.033333
0.240946 -0.008577 0.016667
0.239991 -0.009322 0.000000
0.239418 -0.009837 -0.016667
0.239072 -0.010081 -0.033333
0.241620 0.005050 0.033333
0.240478 0.004447 0.016667
0.239471 0.003877 0.000000
0.238868 0.003516 -0.016667
0.238508 0.003372 -0.033333
0.241291 0.018025 0.033333
0.240051 0.017567 0.016667
0.238961 0.017167 0.000000
0.238318 0.016961 -0.016667
0.237938 0.016920 -0.033333
0.241023 0.031054 0.033333
0.239644 0.030753 0.016667
0.238448 0.030547 0.000000
0.237751 0.030499 -0.016667
0.237347 0.030564 -0.033333
0.240780 0.044096 0.033333
0.239223 0.043998 0.016667
0.237897 0.044004 0.000000
0.237143 0.044131 -0.016667
0.236714 0.044310 -0.033333
0.240441 0.057059 0.033333
0.238716 0.057257 0.016667
0.237257 0.057548 0.000000
0.236460 0.057857 -0.016667
0.236014 0.058161 -0.033333
0.239817 0.069939 0.033333
0.237966 0.070544 0.016667
0.236470 0.071170 0.000000
0.235651 0.071680 -0.016667
0.235218 0.072138 -0.033333
0.238434 0.082846 0.033333
0.236909 0.083902 0.016667
0.235401 0.084872 0.000000
0.234671 0.085645 -0.016667
0.234331 0.086242 -0.033333
0.236769 0.096520 0.033333
0.234998 0.097217 0.016667
0.234023 0.098775 0.000000
0.233532 0.099756 -0.016667
0.233282 0.100488 -0.033333
0.233458 0.108940 0.033333
0.232660 0.111425 0.016667
0.232236 0.112845 0.000000
0.232226 0.114029 -0.016667
0.232212 0.115012 -0.033333
0.225819 0.123600 0.033333
0.229559 0.125613 0.016667
0.230460 0.127315 0.000000
0.230874 0.128720 -0.016667
0.231156 0.129484 -0.033333
0.225742 0.139729 0.033333
0.227670 0.141148 0.016667
0.229035 0.142082 0.000000
0.229759 0.143555 -0.016667
0.230090 0.144362 -0.033333
0.225664 0.155857 0.033333
0.227142 0.156387 0.016667
0.228042 0.157335 0.000000
0.228821 0.158548 -0.016667
0.229211 0.159422 -0.033333
0.225587 0.171985 0.033333
0.226608 0.171965 0.016667
0.227422 0.172602 0.000000
0.228056 0.173818 -0.016667
0.228426 0.174614 -0.033333
0.225509 0.188115 0.033333
0.226253 0.187402 0.016667
0.226866 0.188079 0.000000
0.227426 0.189206 -0.016667
0.227733 0.190017 -0.033333
0.225432 0.204244 0.033333
0.225873 0.203071 0.016667
0.226367 0.203630 0.000000
0.226850 0.204806 -0.016667
0.227126 0.205565 -0.033333
0.225354 0.220373 0.033333
0.225458 0.218710 0.016667
0.225922 0.219438 0.000000
0.226326 0.220557 -0.016667
0.226555 0.221302 -0.033333
0.225277 0.236501 0.033333
0.225105 0.234777 0.016667
0.225473 0.235347 0.000000
0.225843 0.236514 -0.016667
0.226018 0.237231 -0.033333
0.225199 0.252630 0.033333
0.224800 0.250837 0.016667
0.225054 0.251530 0.000000
0.225372 0.252636 -0.016667
0.225505 0.253337 -0.033333
0.225122 0.268759 0.033333
0.224453 0.267262 0.016667
0.224655 0.267795 0.000000
0.224910 0.268946 -0.016667
0.224997 0.269627 -0.033333
0.225044 0.284888 0.033333
0.224181 0.283690 0.016667
0.224221 0.284264 0.000000
0.224447 0.285395 -0.016667
0.224483 0.286047 -0.033333
0.224967 0.301017 0.033333
0.223755 0.300267 0.016667
0.223797 0.300809 0.000000
0.223933 0.301950 -0.016667
0.223947 0.302612 -0.033333
0.224889 0.317146 0.033333
0.223356 0.316859 0.016667
0.223255 0.317426 0.000000
0.223378 0.318615 -0.016667
0.223361 0.319226 -0.033333
0.224812 0.333274 0.033333
0.222725 0.333460 0.016667
0.222622 0.334103 0.000000
0.222728 0.335321 -0.016667
0.222726 0.335913 -0.033333
0.224734 0.349403 0.033333
0.221951 0.350177 0.016667
0.221766 0.350795 0.000000
0.221972 0.352088 -0.016667
0.222080 0.352583 -0.033333
0.224657 0.365532 0.033333
0.220206 0.366957 0.016667
0.220732 0.367454 0.000000
0.221163 0.368888 -0.016667
0.221451 0.369200 -0.033333
0.216370 0.382881 0.033333
0.218442 0.383658 0.016667
0.219661 0.384077 0.000000
0.220335 0.385555 -0.016667
0.220993 0.385840 -0.033333
0.241161 -0.486562 0.033333
0.244683 -0.494554 0.016667
0.248198 -0.495964 0.000000
0.250459 -0.496350 -0.016667
0.251722 -0.497112 -0.033333
0.245019 -0.471067 0.033333
0.247295 -0.477702 0.016667
0.249687 -0.479814 0.000000
0.251457 -0.480153 -0.016667
0.252522 -0.480931 -0.033333
0.248006 -0.455198 0.033333
0.249625 -0.461062 0.016667
0.251372 -0.463501 0.000000
0.252716 -0.464067 -0.016667
0.253550 -0.464751 -0.033333
0.250292 -0.439190 0.033333
0.251593 -0.444500 0.016667
0.252978 -0.447164 0.000000
0.254038 -0.447984 -0.016667
0.254693 -0.448644 -0.033333
0.252014 -0.423110 0.033333
0.253183 -0.427994 0.016667
0.254397 -0.430834 0.000000
0.255297 -0.431903 -0.016667
0.255840 -0.432599 -0.033333
0.253254 -0.406977 0.033333
0.254416 -0.411534 0.016667
0.255587 -0.414525 0.000000
0.256421 -0.415838 -0.016667
0.256911 -0.416608 -0.033333
0.254078 -0.390778 0.033333
0.255313 -0.395104 0.016667
0.256536 -0.398247 0.000000
0.257379 -0.399802 -0.016667
0.257859 -0.400671 -0.033333
0.254546 -0.374497 0.033333
0.255921 -0.378691 0.016667
0.257260 -0.382005 0.000000
0.258161 -0.383808 -0.016667
0.258665 -0.384795 -0.033333
0.254751 -0.358106 0.033333
0.256288 -0.362280 0.016667
0.257790 -0.365806 0.000000
0.258786 -0.367870 -0.016667
0.259336 -0.368992 -0.033333
0.254795 -0.341605 0.033333
0.256508 -0.345869 0.016667
0.258183 -0.349662 0.000000
0.259289 -0.352008 -0.016667
0.259898 -0.353282 -0.033333
0.254854 -0.324997 0.033333
0.256670 -0.329474 0.016667
0.258510 -0.333600 0.000000
0.259726 -0.336249 -0.016667
0.260391 -0.337690 -0.033333
0.255087 -0.308395 0.033333
0.256946 -0.313141 0.016667
0.258869 -0.317661 0.000000
0.260159 -0.320634 -0.016667
0.260874 -0.322250 -0.033333
0.255688 -0.291896 0.033333
0.257441 -0.296979 0.016667
0.259358 -0.301915 0.000000
0.260672 -0.305212 -0.016667
0.261395 -0.307012 -0.033333
0.256819 -0.275777 0.033333
0.258356 -0.281125 0.016667
0.260088 -0.286455 0.000000
0.261318 -0.290054 -0.016667
0.262017 -0.292015 -0.033333
0.258507 -0.260177 0.033333
0.259650 -0.265786 0.016667
0.261098 -0.271395 0.000000
0.262175 -0.275208 -0.016667
0.262751 -0.277339 -0.033333
0.260959 -0.245380 0.033333
0.261513 -0.250997 0.016667
0.262455 -0.256810 0.000000
0.263209 -0.260801 -0.016667
0.263614 -0.262957 -0.033333
0.263766 -0.231623 0.033333
0.263800 -0.237115 0.016667
0.264032 -0.242855 0.000000
0.264396 -0.246763 -0.016667
0.264598 -0.248966 -0.033333
0.267242 -0.218730 0.033333
0.266185 -0.224045 0.016667
0.265837 -0.229366 0.000000
0.265666 -0.233195 -0.016667
0.265498 -0.235347 -0.033333
0.270883 -0.207495 0.033333
0.269005 -0.211683 0.016667
0.267522 -0.216651 0.000000
0.266787 -0.220018 -0.016667
0.266339 -0.221901 -0.033333
0.272236 -0.195902 0.033333
0.270042 -0.199801 0.016667
0.268396 -0.203912 0.000000
0.267436 -0.207019 -0.016667
0.266882 -0.208753 -0.033333
0.272680 -0.184375 0.033333
0.270422 -0.187591 0.016667
0.268736 -0.191382 0.000000
0.267745 -0.194085 -0.016667
0.267097 -0.195689 -0.033333
0.272569 -0.172479 0.033333
0.270417 -0.175391 0.016667
0.268724 -0.178701 0.000000
0.267715 -0.181263 -0.016667
0.267058 -0.182661 -0.033333
0.272127 -0.160537 0.033333
0.270077 -0.163079 0.016667
0.268442 -0.166114 0.000000
0.267434 -0.168388 -0.016667
0.266785 -0.169699 -0.033333
0.271442 -0.148400 0.033333
0.269547 -0.150728 0.016667
0.267942 -0.153439 0.000000
0.266970 -0.155548 -0.016667
0.266332 -0.156711 -0.033333
0.270641 -0.136193 0.033333
0.268846 -0.138301 0.016667
0.267306 -0.140757 0.000000
0.266361 -0.142662 -0.016667
0.265751 -0.143727 -0.033333
0.269747 -0.123877 0.033333
0.268060 -0.125808 0.016667
0.266571 -0.128020 0.000000
0.265662 -0.129753 -0.016667
0.265076 -0.130712 -0.033333
0.268822 -0.111503 0.033333
0.267213 -0.113246 0.016667
0.265779 -0.115241 0.000000
0.264903 -0.116800 -0.016667
0.264342 -0.117663 -0.033333
0.267885 -0.099017 0.033333
0.266340 -0.100616 0.016667
0.264957 -0.102404 0.000000
0.264112 -0.103799 -0.016667
0.263574 -0.104569 -0.033333
0.266951 -0.086481 0.033333
0.265466 -0.087912 0.016667
0.264125 -0.089505 0.000000
0.263310 -0.090743 -0.016667
0.262794 -0.091420 -0.033333
0.266052 -0.073832 0.033333
0.264603 -0.075126 0.016667
0.263300 -0.076539 0.000000
0.262510 -0.077623 -0.016667
0.262012 -0.078211 -0.033333
0.265176 -0.061104 0.033333
0.263763 -0.062259 0.016667
0.262492 -0.063496 0.000000
0.261723 -0.064434 -0.016667
0.261241 -0.064933 -0.033333
0.264350 -0.048270 0.033333
0.262954 -0.049294 0.016667
0.261705 -0.050373 0.000000
0.260954 -0.051168 -0.016667
0.260483 -0.051582 -0.033333
0.263567 -0.035328 0.033333
0.262181 -0.036237 0.016667
0.260946 -0.037160 0.000000
0.260204 -0.037822 -0.016667
0.259744 -0.038151 -0.033333
0.262840 -0.022272 0.033333
0.261449 -0.023070 0.016667
0.260214 -0.023856 0.000000
0.259476 -0.024389 -0.016667
0.259020 -0.024637 -0.033333
0.262177 -0.009093 0.033333
0.260759 -0.009799 0.016667
0.259511 -0.010455 0.000000
0.258765 -0.010867 -0.016667
0.258308 -0.011036 -0.033333
0.261592 0.004212 0.033333
0.260122 0.003589 0.016667
0.258831 0.003043 0.000000
0.258068 0.002746 -0.016667
0.257602 0.002655 -0.033333
0.261100 0.017641 0.033333
0.259534 0.017078 0.016667
0.258174 0.016642 0.000000
0.257372 0.016453 -0.016667
0.256891 0.016437 -0.033333
0.260721 0.031181 0.033333
0.259001 0.030679 0.016667
0.257519 0.030330 0.000000
0.256664 0.030251 -0.016667
0.256158 0.030312 -0.033333
0.260450 0.044787 0.033333
0.258496 0.044342 0.016667
0.256843 0.044111 0.000000
0.255916 0.044139 -0.016667
0.255382 0.044279 -0.033333
0.260270 0.058368 0.033333
0.257955 0.058047 0.016667
0.256085 0.057951 0.000000
0.255092 0.058113 -0.016667
0.254532 0.058346 -0.033333
0.259926 0.071667 0.033333
0.257260 0.071670 0.016667
0.255152 0.071868 0.000000
0.254139 0.072173 -0.016667
0.253579 0.072502 -0.033333
0.259056 0.084295 0.033333
0.256035 0.085221 0.016667
0.253968 0.085852 0.000000
0.252992 0.086277 -0.016667
0.252486 0.086808 -0.033333
0.256166 0.096488 0.033333
0.254294 0.098753 0.016667
0.252343 0.099798 0.000000
0.251574 0.100561 -0.016667
0.251333 0.101180 -0.033333
0.252922 0.110802 0.033333
0.251055 0.111700 0.016667
0.250267 0.114075 0.000000
0.250033 0.114905 -0.016667
0.249986 0.115707 -0.033333
0.241948 0.123677 0.033333
0.246723 0.127088 0.016667
0.247887 0.127982 0.000000
0.248526 0.129705 -0.016667
0.248635 0.130244 -0.033333
0.241871 0.139806 0.033333
0.244826 0.141584 0.016667
0.246099 0.143051 0.000000
0.247068 0.144299 -0.016667
0.247486 0.145147 -0.033333
0.241793 0.155935 0.033333
0.243834 0.157055 0.016667
0.245032 0.157952 0.000000
0.245948 0.159329 -0.016667
0.246344 0.160079 -0.033333
0.241716 0.172063 0.033333
0.243605 0.172307 0.016667
0.244189 0.173133 0.000000
0.245044 0.174401 -0.016667
0.245370 0.175283 -0.033333
0.241638 0.188193 0.033333
0.243132 0.187550 0.016667
0.243495 0.188412 0.000000
0.244209 0.189721 -0.016667
0.244525 0.190570 -0.033333
0.241561 0.204321 0.033333
0.242430 0.202902 0.016667
0.242841 0.203907 0.000000
0.243450 0.205190 -0.016667
0.243719 0.206053 -0.033333
0.241483 0.220450 0.033333
0.241818 0.218731 0.016667
0.242158 0.219528 0.000000
0.242726 0.220875 -0.016667
0.242969 0.221714 -0.033333
0.241406 0.236579 0.033333
0.241140 0.234503 0.016667
0.241563 0.235487 0.000000
0.242023 0.236732 -0.016667
0.242242 0.237571 -0.033333
0.241328 0.252708 0.033333
0.240513 0.250849 0.016667
0.240979 0.251508 0.000000
0.241347 0.252838 -0.016667
0.241556 0.253627 -0.033333
0.241251 0.268837 0.033333
0.240075 0.267102 0.016667
0.240390 0.267876 0.000000
0.240730 0.269088 -0.016667
0.240888 0.269867 -0.033333
0.241173 0.284965 0.033333
0.239520 0.283668 0.016667
0.239921 0.284286 0.000000
0.240107 0.285526 -0.016667
0.240260 0.286271 -0.033333
0.241096 0.301094 0.033333
0.239178 0.300197 0.016667
0.239351 0.300838 0.000000
0.239531 0.302084 -0.016667
0.239623 0.302774 -0.033333
0.241018 0.317223 0.033333
0.238623 0.316745 0.016667
0.238806 0.317463 0.000000
0.238895 0.318704 -0.016667
0.238989 0.319397 -0.033333
0.240941 0.333352 0.033333
0.238071 0.333342 0.016667
0.238094 0.334090 0.000000
0.238217 0.335431 -0.016667
0.238333 0.336020 -0.033333
0.240863 0.349481 0.033333
0.237118 0.349935 0.016667
0.237167 0.350815 0.000000
0.237493 0.352143 -0.016667
0.237659 0.352702 -0.033333
0.240786 0.365609 0.033333
0.235267 0.366851 0.016667
0.236185 0.367489 0.000000
0.236684 0.368904 -0.016667
0.237119 0.369314 -0.033333
0.230756 0.382921 0.033333
0.233654 0.383554 0.016667
0.235266 0.384060 0.000000
0.236014 0.385610 -0.016667
0.236653 0.385867 -0.033333
0.256856 -0.486694 0.033333
0.260564 -0.494899 0.016667
0.264210 -0.496402 0.000000
0.266572 -0.496854 -0.016667
0.267900 -0.497658 -0.033333
0.260558 -0.471444 0.033333
0.263076 -0.478247 0.016667
0.265681 -0.480454 0.000000
0.267586 -0.480837 -0.016667
0.268728 -0.481662 -0.033333
0.263470 -0.455893 0.033333
0.265355 -0.461876 0.016667
0.267348 -0.464370 0.000000
0.268854 -0.464961 -0.016667
0.269780 -0.465673 -0.033333
0.265733 -0.440264 0.033333
0.267304 -0.445634 0.016667
0.268952 -0.448302 0.000000
0.270191 -0.449114 -0.016667
0.270948 -0.449781 -0.033333
0.267456 -0.424613 0.033333
0.268901 -0.429493 0.016667
0.270387 -0.432279 0.000000
0.271475 -0.433301 -0.016667
0.272129 -0.433979 -0.033333
0.268706 -0.408947 0.033333
0.270151 -0.413436 0.016667
0.271607 -0.416312 0.000000
0.272640 -0.417534 -0.016667
0.273245 -0.418259 -0.033333
0.269531 -0.393254 0.033333
0.271075 -0.397443 0.016667
0.272599 -0.400405 0.000000
0.273650 -0.401822 -0.016667
0.274252 -0.402618 -0.033333
0.269989 -0.377503 0.033333
0.271702 -0.381492 0.016667
0.273373 -0.384557 0.000000
0.274499 -0.386174 -0.016667
0.275132 -0.387058 -0.033333
0.270146 -0.361656 0.033333
0.272090 -0.365560 0.016667
0.273962 -0.368769 0.000000
0.275203 -0.370597 -0.016667
0.275895 -0.371586 -0.033333
0.270126 -0.345671 0.033333
0.272307 -0.349625 0.016667
0.274420 -0.353043 0.000000
0.275804 -0.355104 -0.016667
0.276567 -0.356214 -0.033333
0.270073 -0.329535 0.033333
0.272478 -0.333684 0.016667
0.274826 -0.337391 0.000000
0.276354 -0.339713 -0.016667
0.277197 -0.340959 -0.033333
0.270247 -0.313260 0.033333
0.272735 -0.317747 0.016667
0.275280 -0.321839 0.000000
0.276936 -0.324453 -0.016667
0.277840 -0.325851 -0.033333
0.270853 -0.297011 0.033333
0.273317 -0.301881 0.016667
0.275913 -0.306440 0.000000
0.277624 -0.309368 -0.016667
0.278568 -0.310920 -0.033333
0.272181 -0.280930 0.033333
0.274372 -0.286234 0.016667
0.276855 -0.291276 0.000000
0.278520 -0.294508 -0.016667
0.279430 -0.296221 -0.033333
0.274387 -0.265454 0.033333
0.276163 -0.271039 0.016667
0.278226 -0.276480 0.000000
0.279665 -0.279951 -0.016667
0.280485 -0.281777 -0.033333
0.277471 -0.250712 0.033333
0.278480 -0.256570 0.016667
0.280019 -0.262168 0.000000
0.281138 -0.265718 -0.016667
0.281696 -0.267693 -0.033333
0.281817 -0.237145 0.033333
0.281624 -0.242746 0.016667
0.282308 -0.248373 0.000000
0.282807 -0.252008 -0.016667
0.283038 -0.253831 -0.033333
0.286605 -0.225350 0.033333
0.285426 -0.230052 0.016667
0.284771 -0.235368 0.000000
0.284561 -0.238598 -0.016667
0.284479 -0.240300 -0.033333
0.293168 -0.215212 0.033333
0.289688 -0.219218 0.016667
0.287592 -0.222814 0.000000
0.286236 -0.225569 -0.016667
0.285635 -0.227077 -0.033333
0.294424 -0.204598 0.033333
0.290853 -0.207010 0.016667
0.288570 -0.210472 0.000000
0.287270 -0.212543 -0.016667
0.286448 -0.213908 -0.033333
0.294722 -0.192865 0.033333
0.291351 -0.194954 0.016667
0.289093 -0.197640 0.000000
0.287736 -0.199677 -0.016667
0.286897 -0.200697 -0.033333
0.294448 -0.180941 0.033333
0.291297 -0.182487 0.016667
0.289176 -0.184974 0.000000
0.287817 -0.186585 -0.016667
0.286968 -0.187593 -0.033333
0.293796 -0.168498 0.033333
0.290992 -0.169949 0.016667
0.288891 -0.172028 0.000000
0.287600 -0.173564 -0.016667
0.286755 -0.174364 -0.033333
0.292981 -0.155919 0.033333
0.290384 -0.157233 0.016667
0.288387 -0.159071 0.000000
0.287129 -0.160423 -0.016667
0.286323 -0.161148 -0.033333
0.292020 -0.143174 0.033333
0.289629 -0.144397 0.016667
0.287694 -0.146020 0.000000
0.286495 -0.147243 -0.016667
0.285717 -0.147876 -0.033333
0.290990 -0.130337 0.033333
0.288739 -0.131473 0.016667
0.286884 -0.132914 0.000000
0.285735 -0.134003 -0.016667
0.284994 -0.134564 -0.033333
0.289909 -0.117399 0.033333
0.287785 -0.118461 0.016667
0.285994 -0.119743 0.000000
0.284896 -0.120711 -0.016667
0.284187 -0.121205 -0.033333
0.288810 -0.104404 0.033333
0.286787 -0.105375 0.016667
0.285060 -0.106512 0.000000
0.284008 -0.107366 -0.016667
0.283330 -0.107793 -0.033333
0.287720 -0.091314 0.033333
0.285774 -0.092214 0.016667
0.284104 -0.093220 0.000000
0.283095 -0.093962 -0.016667
0.282446 -0.094329 -0.033333
0.286636 -0.078166 0.033333
0.284764 -0.078984 0.016667
0.283145 -0.079861 0.000000
0.282174 -0.080500 -0.016667
0.281551 -0.080805 -0.033333
0.285589 -0.064928 0.033333
0.283765 -0.065670 0.016667
0.282193 -0.066435 0.000000
0.281258 -0.066971 -0.016667
0.280658 -0.067218 -0.033333
0.284565 -0.051606 0.033333
0.282788 -0.052276 0.016667
0.281258 -0.052931 0.000000
0.280353 -0.053374 -0.016667
0.279773 -0.053563 -0.033333
0.283584 -0.038184 0.033333
0.281840 -0.038786 0.016667
0.280342 -0.039349 0.000000
0.279464 -0.039701 -0.016667
0.278901 -0.039836 -0.033333
0.282644 -0.024651 0.033333
0.280922 -0.025202 0.016667
0.279452 -0.025678 0.000000
0.278592 -0.025949 -0.016667
0.278043 -0.026031 -0.033333
0.281757 -0.010991 0.033333
0.280047 -0.011503 0.016667
0.278585 -0.011917 0.000000
0.277736 -0.012114 -0.016667
0.277195 -0.012145 -0.033333
0.280939 0.002813 0.033333
0.279211 0.002309 0.016667
0.277746 0.001944 0.000000
0.276893 0.001810 -0.016667
0.276353 0.001824 -0.033333
0.280209 0.016782 0.033333
0.278436 0.016257 0.016667
0.276925 0.015904 0.000000
0.276055 0.015823 -0.016667
0.275506 0.015880 -0.033333
0.279603 0.030936 0.033333
0.277712 0.030332 0.016667
0.276122 0.029972 0.000000
0.275205 0.029927 -0.016667
0.274640 0.030022 -0.033333
0.279165 0.045286 0.033333
0.277059 0.044561 0.016667
0.275302 0.044131 0.000000
0.274325 0.044121 -0.016667
0.273731 0.044252 -0.033333
0.278914 0.059824 0.033333
0.276438 0.058877 0.016667
0.274435 0.058384 0.000000
0.273370 0.058395 -0.016667
0.272753 0.058562 -0.033333
0.278942 0.074412 0.033333
0.275749 0.073265 0.016667
0.273405 0.072666 0.000000
0.272299 0.072737 -0.016667
0.271662 0.072965 -0.033333
0.278758 0.088701 0.033333
0.274790 0.087397 0.016667
0.272074 0.086991 0.000000
0.271045 0.087156 -0.016667
0.270439 0.087409 -0.033333
0.278082 0.100882 0.033333
0.272962 0.101208 0.016667
0.270321 0.101442 0.000000
0.269555 0.101466 -0.016667
0.269044 0.102082 -0.033333
0.275167 0.109375 0.033333
0.270073 0.115139 0.016667
0.267963 0.115613 0.000000
0.267726 0.116032 -0.016667
0.267726 0.116703 -0.033333
0.258077 0.123755 0.033333
0.264183 0.127407 0.016667
0.265599 0.130192 0.000000
0.265944 0.130700 -0.016667
0.266288 0.131234 -0.033333
0.257999 0.139884 0.033333
0.261306 0.143402 0.016667
0.263454 0.144059 0.000000
0.264568 0.145679 -0.016667
0.264706 0.145933 -0.033333
0.257922 0.156012 0.033333
0.261454 0.158369 0.016667
0.262029 0.158946 0.000000
0.263318 0.160285 -0.016667
0.263435 0.161092 -0.033333
0.257844 0.172140 0.033333
0.261107 0.172772 0.016667
0.261102 0.173899 0.000000
0.262186 0.175305 -0.016667
0.262337 0.176125 -0.033333
0.257767 0.188270 0.033333
0.260306 0.187564 0.016667
0.260252 0.188976 0.000000
0.261196 0.190458 -0.016667
0.261298 0.191366 -0.033333
0.257690 0.204399 0.033333
0.259395 0.202704 0.016667
0.259363 0.204213 0.000000
0.260226 0.205806 -0.016667
0.260343 0.206747 -0.033333
0.257612 0.220528 0.033333
0.258102 0.218054 0.016667
0.258571 0.219760 0.000000
0.259247 0.221306 -0.016667
0.259415 0.222337 -0.033333
0.257535 0.236656 0.033333
0.257185 0.234253 0.016667
0.257732 0.235378 0.000000
0.258273 0.237101 -0.016667
0.258539 0.238100 -0.033333
0.257457 0.252785 0.033333
0.256283 0.250163 0.016667
0.256887 0.251587 0.000000
0.257369 0.253038 -0.016667
0.257668 0.254092 -0.033333
0.257379 0.268914 0.033333
0.255308 0.266901 0.016667
0.256278 0.267779 0.000000
0.256473 0.269312 -0.016667
0.256882 0.270253 -0.033333
0.257302 0.285043 0.033333
0.254950 0.283491 0.016667
0.255565 0.284297 0.000000
0.255758 0.285721 -0.016667
0.256109 0.286586 -0.033333
0.257225 0.301172 0.033333
0.254363 0.300096 0.016667
0.255044 0.300884 0.000000
0.255036 0.302255 -0.016667
0.255400 0.303074 -0.033333
0.257147 0.317301 0.033333
0.253959 0.316708 0.016667
0.254361 0.317499 0.000000
0.254383 0.318912 -0.016667
0.254687 0.319612 -0.033333
0.257070 0.333429 0.033333
0.253259 0.333218 0.016667
0.253660 0.334235 0.000000
0.253653 0.335545 -0.016667
0.254017 0.336274 -0.033333
0.256992 0.349558 0.033333
0.252336 0.349857 0.016667
0.252713 0.350833 0.000000
0.252889 0.352346 -0.016667
0.253392 0.352825 -0.033333
0.256915 0.365687 0.033333
0.250130 0.366537 0.016667
0.251556 0.367640 0.000000
0.252306 0.368967 -0.016667
0.252748 0.369494 -0.033333
0.244929 0.382771 0.033333
0.248806 0.383787 0.016667
0.250990 0.384030 0.000000
0.251627 0.385746 -0.016667
0.252413 0.385932 -0.033333
0.272737 -0.486843 0.033333
0.276624 -0.495299 0.016667
0.280410 -0.496896 0.000000
0.282874 -0.497424 -0.016667
0.284266 -0.498268 -0.033333
0.276377 -0.471866 0.033333
0.279099 -0.478864 0.016667
0.281891 -0.481171 0.000000
0.283917 -0.481604 -0.016667
0.285130 -0.482476 -0.033333
0.279280 -0.456664 0.033333
0.281380 -0.462783 0.016667
0.283578 -0.465340 0.000000
0.285220 -0.465956 -0.016667
0.286223 -0.466699 -0.033333
0.281571 -0.441449 0.033333
0.283361 -0.446890 0.016667
0.285220 -0.449565 0.000000
0.286603 -0.450369 -0.016667
0.287443 -0.451044 -0.033333
0.283342 -0.426268 0.033333
0.285007 -0.431149 0.016667
0.286709 -0.433878 0.000000
0.287947 -0.434848 -0.016667
0.288685 -0.435508 -0.033333
0.284644 -0.411126 0.033333
0.286318 -0.415537 0.016667
0.287994 -0.418286 0.000000
0.289181 -0.419407 -0.016667
0.289874 -0.420084 -0.033333
0.285515 -0.396005 0.033333
0.287303 -0.400031 0.016667
0.289060 -0.402789 0.000000
0.290272 -0.404052 -0.016667
0.290966 -0.404767 -0.033333
0.285994 -0.380874 0.033333
0.287989 -0.384608 0.016667
0.289913 -0.387383 0.000000
0.291210 -0.388787 -0.016667
0.291942 -0.389554 -0.033333
0.286140 -0.365690 0.033333
0.288415 -0.369236 0.016667
0.290582 -0.372063 0.000000
0.292013 -0.373616 -0.016667
0.292810 -0.374449 -0.033333
0.286035 -0.350397 0.033333
0.288654 -0.353894 0.016667
0.291118 -0.356825 0.000000
0.292716 -0.358544 -0.016667
0.293601 -0.359456 -0.033333
0.285841 -0.334933 0.033333
0.288797 -0.338553 0.016667
0.291597 -0.341673 0.000000
0.293382 -0.343581 -0.016667
0.294359 -0.344586 -0.033333
0.285760 -0.319265 0.033333
0.289006 -0.323205 0.016667
0.292125 -0.326618 0.000000
0.294082 -0.328749 -0.016667
0.295152 -0.329856 -0.033333
0.286180 -0.303419 0.033333
0.289468 -0.307860 0.016667
0.292835 -0.311696 0.000000
0.294918 -0.314076 -0.016667
0.296045 -0.315296 -0.033333
0.287376 -0.287657 0.033333
0.290518 -0.292606 0.016667
0.293893 -0.296971 0.000000
0.295981 -0.299611 -0.016667
0.297116 -0.300932 -0.033333
0.289802 -0.272233 0.033333
0.292402 -0.277653 0.016667
0.295476 -0.282556 0.000000
0.297375 -0.285402 -0.016667
0.298396 -0.286822 -0.033333
0.293574 -0.257895 0.033333
0.295481 -0.263469 0.016667
0.297677 -0.268625 0.000000
0.299106 -0.271536 -0.016667
0.299930 -0.272943 -0.033333
0.298771 -0.244898 0.033333
0.299004 -0.250415 0.016667
0.300454 -0.255308 0.000000
0.301204 -0.257945 -0.016667
0.301614 -0.259442 -0.033333
0.306259 -0.233964 0.033333
0.303414 -0.237953 0.016667
0.303778 -0.242382 0.000000
0.303462 -0.245010 -0.016667
0.303304 -0.245987 -0.033333
0.316232 -0.228816 0.033333
0.311608 -0.227945 0.016667
0.307433 -0.231007 0.000000
0.305574 -0.231941 -0.016667
0.304819 -0.232850 -0.033333
0.316926 -0.217421 0.033333
0.311717 -0.217073 0.016667
0.308698 -0.217988 0.000000
0.306768 -0.219242 -0.016667
0.305960 -0.219496 -0.033333
0.316650 -0.205714 0.033333
0.311638 -0.204403 0.016667
0.309254 -0.205492 0.000000
0.307369 -0.205910 -0.016667
0.306467 -0.206416 -0.033333
0.315834 -0.192771 0.033333
0.311632 -0.191691 0.016667
0.309226 -0.192253 0.000000
0.307529 -0.192798 -0.016667
0.306588 -0.192962 -0.033333
0.314944 -0.179652 0.033333
0.311210 -0.178665 0.016667
0.308955 -0.179046 0.000000
0.307297 -0.179408 -0.016667
0.306385 -0.179543 -0.033333
0.313881 -0.166268 0.033333
0.310572 -0.165441 0.016667
0.308364 -0.165677 0.000000
0.306817 -0.165947 -0.016667
0.305921 -0.166015 -0.033333
0.312750 -0.152745 0.033333
0.309709 -0.152087 0.016667
0.307593 -0.152213 0.000000
0.306129 -0.152389 -0.016667
0.305270 -0.152429 -0.033333
0.311545 -0.139113 0.033333
0.308729 -0.138592 0.016667
0.306680 -0.138656 0.000000
0.305305 -0.138760 -0.016667
0.304478 -0.138778 -0.033333
0.310313 -0.125417 0.033333
0.307658 -0.125015 0.016667
0.305681 -0.125025 0.000000
0.304384 -0.125070 -0.016667
0.303591 -0.125068 -0.033333
0.309063 -0.111655 0.033333
0.306545 -0.111349 0.016667
0.304629 -0.111329 0.000000
0.303405 -0.111324 -0.016667
0.302641 -0.111303 -0.033333
0.307809 -0.097860 0.033333
0.305408 -0.097621 0.016667
0.303550 -0.097570 0.000000
0.302390 -0.097527 -0.016667
0.301657 -0.097483 -0.033333
0.306575 -0.084003 0.033333
0.304267 -0.083822 0.016667
0.302461 -0.083754 0.000000
0.301360 -0.083673 -0.016667
0.300655 -0.083611 -0.033333
0.305352 -0.070101 0.033333
0.303128 -0.069968 0.016667
0.301375 -0.069874 0.000000
0.300327 -0.069764 -0.016667
0.299649 -0.069680 -0.033333
0.304162 -0.056135 0.033333
0.302001 -0.056035 0.016667
0.300299 -0.055931 0.000000
0.299300 -0.055794 -0.016667
0.298646 -0.055690 -0.033333
0.302990 -0.042097 0.033333
0.300890 -0.042031 0.016667
0.299239 -0.041917 0.000000
0.298284 -0.041760 -0.016667
0.297653 -0.041636 -0.033333
0.301847 -0.027969 0.033333
0.299805 -0.027935 0.016667
0.298198 -0.027828 0.000000
0.297282 -0.027657 -0.016667
0.296670 -0.027513 -0.033333
0.300734 -0.013731 0.033333
0.298742 -0.013748 0.016667
0.297179 -0.013656 0.000000
0.296292 -0.013478 -0.016667
0.295697 -0.013319 -0.033333
0.299661 0.000645 0.033333
0.297717 0.000556 0.016667
0.296178 0.000603 0.000000
0.295313 0.000779 -0.016667
0.294728 0.000951 -0.033333
0.298648 0.015193 0.033333
0.296719 0.014983 0.016667
0.295200 0.014962 0.000000
0.294336 0.015120 -0.016667
0.293756 0.015298 -0.033333
0.297714 0.029966 0.033333
0.295782 0.029573 0.016667
0.294226 0.029420 0.000000
0.293354 0.029548 -0.016667
0.292765 0.029726 -0.033333
0.296909 0.045039 0.033333
0.294874 0.044329 0.016667
0.293262 0.043994 0.000000
0.292339 0.044062 -0.016667
0.291739 0.044229 -0.033333
0.296293 0.060499 0.033333
0.294043 0.059326 0.016667
0.292242 0.058657 0.000000
0.291274 0.058653 -0.016667
0.290644 0.058809 -0.033333
0.295905 0.076574 0.033333
0.293177 0.074497 0.016667
0.291146 0.073411 0.000000
0.290090 0.073313 -0.016667
0.289458 0.073437 -0.033333
0.295710 0.093328 0.033333
0.292213 0.089919 0.016667
0.289770 0.088122 0.000000
0.288760 0.087994 -0.016667
0.288125 0.088156 -0.033333
0.295315 0.111461 0.033333
0.290871 0.104888 0.016667
0.287918 0.102731 0.000000
0.287213 0.102787 -0.016667
0.286660 0.102793 -0.033333
0.291471 0.128723 0.033333
0.287897 0.118739 0.016667
0.285243 0.117810 0.000000
0.285659 0.116975 -0.016667
0.284943 0.117987 -0.033333
0.274206 0.123832 0.033333
0.281759 0.135475 0.016667
0.282831 0.130306 0.000000
0.283931 0.132957 -0.016667
0.283270 0.131721 -0.033333
0.274128 0.139961 0.033333
0.280124 0.146772 0.016667
0.280684 0.145925 0.000000
0.282316 0.146845 -0.016667
0.281760 0.147230 -0.033333
0.274051 0.156090 0.033333
0.280159 0.159608 0.016667
0.279073 0.160482 0.000000
0.280985 0.161711 -0.016667
0.280318 0.162072 -0.033333
0.273973 0.172218 0.033333
0.279467 0.173494 0.016667
0.277911 0.175223 0.000000
0.279800 0.176503 -0.016667
0.278990 0.177226 -0.033333
0.273896 0.188348 0.033333
0.278417 0.187506 0.016667
0.276875 0.190175 0.000000
0.278601 0.191481 -0.016667
0.277853 0.192426 -0.033333
0.273818 0.204476 0.033333
0.276853 0.201833 0.016667
0.275991 0.205279 0.000000
0.277324 0.206613 -0.016667
0.276819 0.207789 -0.033333
0.273741 0.220605 0.033333
0.275334 0.216619 0.016667
0.275020 0.220456 0.000000
0.276009 0.221995 -0.016667
0.275852 0.223271 -0.033333
0.273663 0.236734 0.033333
0.273557 0.231292 0.016667
0.274149 0.236139 0.000000
0.274611 0.237476 -0.016667
0.274908 0.239023 -0.033333
0.273586 0.252863 0.033333
0.271042 0.248605 0.016667
0.273281 0.251509 0.000000
0.273188 0.253529 -0.016667
0.274072 0.254822 -0.033333
0.273508 0.268992 0.033333
0.270524 0.265705 0.016667
0.272117 0.267818 0.000000
0.272117 0.269668 -0.016667
0.273131 0.270860 -0.033333
0.273431 0.285120 0.033333
0.269725 0.282774 0.016667
0.271509 0.284321 0.000000
0.271147 0.286063 -0.016667
0.272240 0.287097 -0.033333
0.273353 0.301249 0.033333
0.269462 0.299785 0.016667
0.270739 0.300964 0.000000
0.270413 0.302588 -0.016667
0.271389 0.303498 -0.033333
0.273276 0.317378 0.033333
0.268822 0.316603 0.016667
0.270149 0.317745 0.000000
0.269630 0.319138 -0.016667
0.270668 0.320046 -0.033333
0.273198 0.333507 0.033333
0.268262 0.333562 0.016667
0.269364 0.334362 0.000000
0.268908 0.335887 -0.016667
0.269946 0.336526 -0.033333
0.273121 0.349636 0.033333
0.267486 0.349997 0.016667
0.268296 0.351324 0.000000
0.268194 0.352402 -0.016667
0.269329 0.353222 -0.033333
0.273043 0.365764 0.033333
0.264374 0.367153 0.016667
0.267605 0.367631 0.000000
0.267470 0.369306 -0.016667
0.268849 0.369564 -0.033333
0.258523 0.383180 0.033333
0.264491 0.383574 0.016667
0.266408 0.384152 0.000000
0.267439 0.385921 -0.016667
0.268135 0.386029 -0.033333
0.288824 -0.487009 0.033333
0.292885 -0.495730 0.016667
0.296816 -0.497427 0.000000
0.299386 -0.498025 -0.016667
0.300842 -0.498916 -0.033333
0.292509 -0.472315 0.033333
0.295390 -0.479521 0.016667
0.298343 -0.481934 0.000000
0.300473 -0.482416 -0.016667
0.301749 -0.483338 -0.033333
0.295478 -0.457479 0.033333
0.297739 -0.463746 0.016667
0.300092 -0.466367 0.000000
0.301842 -0.467009 -0.016667
0.302906 -0.467784 -0.033333
0.297862 -0.442699 0.033333
0.299807 -0.448220 0.016667
0.301818 -0.450902 0.000000
0.303305 -0.451695 -0.016667
0.304206 -0.452379 -0.033333
0.299739 -0.428013 0.033333
0.301556 -0.432899 0.016667
0.303405 -0.435568 0.000000
0.304745 -0.436483 -0.016667
0.305542 -0.437123 -0.033333
0.301153 -0.413425 0.033333
0.302977 -0.417756 0.016667
0.304799 -0.420370 0.000000
0.306086 -0.421384 -0.016667
0.306837 -0.422009 -0.033333
0.302131 -0.398920 0.033333
0.304076 -0.402771 0.016667
0.305980 -0.405306 0.000000
0.307292 -0.406404 -0.016667
0.308042 -0.407031 -0.033333
0.302702 -0.384472 0.033333
0.304870 -0.387916 0.016667
0.306951 -0.390371 0.000000
0.308351 -0.391544 -0.016667
0.309140 -0.392184 -0.033333
0.302900 -0.370045 0.033333
0.305393 -0.373168 0.016667
0.307736 -0.375557 0.000000
0.309277 -0.376803 -0.016667
0.310136 -0.377465 -0.033333
0.302791 -0.355585 0.033333
0.305697 -0.358497 0.016667
0.308381 -0.360858 0.000000
0.310105 -0.362184 -0.016667
0.311057 -0.362874 -0.033333
0.302470 -0.341029 0.033333
0.305870 -0.343885 0.016667
0.308958 -0.346273 0.000000
0.310892 -0.347692 -0.016667
0.311952 -0.348416 -0.033333
0.302139 -0.326308 0.033333
0.306025 -0.329306 0.016667
0.309565 -0.331809 0.000000
0.311716 -0.333336 -0.016667
0.312881 -0.334099 -0.033333
0.302071 -0.311363 0.033333
0.306369 -0.314769 0.016667
0.310336 -0.317488 0.000000
0.312668 -0.319143 -0.016667
0.313923 -0.319937 -0.033333
0.302841 -0.296245 0.033333
0.307145 -0.300287 0.016667
0.311444 -0.303356 0.000000
0.313864 -0.305135 -0.016667
0.315145 -0.305958 -0.033333
0.304844 -0.281354 0.033333
0.308819 -0.285986 0.016667
0.313093 -0.289488 0.000000
0.315397 -0.291373 -0.016667
0.316621 -0.292165 -0.033333
0.308865 -0.267257 0.033333
0.311847 -0.272074 0.016667
0.315531 -0.276062 0.000000
0.317360 -0.277856 -0.016667
0.318323 -0.278638 -0.033333
0.315168 -0.255407 0.033333
0.316803 -0.259584 0.016667
0.318754 -0.263121 0.000000
0.319637 -0.264815 -0.016667
0.320322 -0.265150 -0.033333
0.324387 -0.248102 0.033333
0.321004 -0.248099 0.016667
0.322816 -0.251343 0.000000
0.322190 -0.251746 -0.016667
0.322325 -0.252025 -0.033333
0.339393 -0.248781 0.033333
0.331395 -0.243390 0.016667
0.327510 -0.239019 0.000000
0.324415 -0.239519 -0.016667
0.324167 -0.238442 -0.033333
0.338870 -0.237802 0.033333
0.331391 -0.227768 0.016667
0.328512 -0.227588 0.000000
0.326196 -0.225716 -0.016667
0.325070 -0.225802 -0.033333
0.337441 -0.223971 0.033333
0.332006 -0.214865 0.016667
0.328629 -0.214043 0.000000
0.326840 -0.212711 -0.016667
0.325666 -0.212146 -0.033333
0.336360 -0.209891 0.033333
0.331519 -0.201955 0.016667
0.328772 -0.200539 0.000000
0.326823 -0.199221 -0.016667
0.325829 -0.198514 -0.033333
0.335143 -0.195517 0.033333
0.330966 -0.188614 0.016667
0.328410 -0.186823 0.000000
0.326539 -0.185547 -0.016667
0.325598 -0.184745 -0.033333
0.333891 -0.180913 0.033333
0.330072 -0.174964 0.016667
0.327763 -0.172926 0.000000
0.325955 -0.171695 -0.016667
0.325103 -0.170898 -0.033333
0.332583 -0.166192 0.033333
0.329067 -0.161022 0.016667
0.326906 -0.158918 0.000000
0.325184 -0.157720 -0.016667
0.324391 -0.156961 -0.033333
0.331244 -0.151391 0.033333
0.327924 -0.146936 0.016667
0.325897 -0.144812 0.000000
0.324272 -0.143659 -0.016667
0.323530 -0.142950 -0.033333
0.329881 -0.136557 0.033333
0.326732 -0.132713 0.016667
0.324800 -0.130642 0.000000
0.323266 -0.129532 -0.016667
0.322563 -0.128879 -0.033333
0.328514 -0.121717 0.033333
0.325490 -0.118420 0.016667
0.323641 -0.116412 0.000000
0.322199 -0.115354 -0.016667
0.321527 -0.114752 -0.033333
0.327140 -0.106868 0.033333
0.324234 -0.104047 0.016667
0.322449 -0.102137 0.000000
0.321097 -0.101128 -0.016667
0.320447 -0.100577 -0.033333
0.325773 -0.092035 0.033333
0.322971 -0.089620 0.016667
0.321244 -0.087811 0.000000
0.319975 -0.086862 -0.016667
0.319346 -0.086351 -0.033333
0.324423 -0.077203 0.033333
0.321706 -0.075112 0.016667
0.320035 -0.073446 0.000000
0.318848 -0.072548 -0.016667
0.318234 -0.072078 -0.033333
0.323078 -0.062360 0.033333
0.320449 -0.060554 0.016667
0.318834 -0.059029 0.000000
0.317721 -0.058189 -0.016667
0.317124 -0.057753 -0.033333
0.321750 -0.047487 0.033333
0.319210 -0.045934 0.016667
0.317643 -0.044561 0.000000
0.316603 -0.043780 -0.016667
0.316019 -0.043373 -0.033333
0.320427 -0.032570 0.033333
0.317981 -0.031258 0.016667
0.316469 -0.030033 0.000000
0.315492 -0.029316 -0.016667
0.314922 -0.028934 -0.033333
0.319117 -0.017591 0.033333
0.316774 -0.016506 0.016667
0.315308 -0.015442 0.000000
0.314392 -0.014792 -0.016667
0.313833 -0.014433 -0.033333
0.317821 -0.002529 0.033333
0.315574 -0.001674 0.016667
0.314166 -0.000779 0.000000
0.313296 -0.000203 -0.016667
0.312748 0.000133 -0.033333
0.316537 0.012653 0.033333
0.314405 0.013264 0.016667
0.313031 0.013963 0.000000
0.312202 0.014457 -0.016667
0.311660 0.014768 -0.033333
0.315287 0.028002 0.033333
0.313234 0.028318 0.016667
0.311912 0.028795 0.000000
0.311097 0.029192 -0.016667
0.310558 0.029471 -0.033333
0.314055 0.043606 0.033333
0.312112 0.043540 0.016667
0.310774 0.043720 0.000000
0.309972 0.044001 -0.016667
0.309423 0.044245 -0.033333
0.312914 0.059605 0.033333
0.310954 0.058940 0.016667
0.309637 0.058747 0.000000
0.308788 0.058887 -0.016667
0.308239 0.059071 -0.033333
0.311755 0.076205 0.033333
0.309854 0.074612 0.016667
0.308392 0.073851 0.000000
0.307535 0.073822 -0.016667
0.306963 0.073964 -0.033333
0.310806 0.093685 0.033333
0.308570 0.090469 0.016667
0.307072 0.088993 0.000000
0.306108 0.088831 -0.016667
0.305600 0.088818 -0.033333
0.309134 0.112298 0.033333
0.307283 0.106678 0.016667
0.305271 0.104128 0.000000
0.304578 0.103639 -0.016667
0.304073 0.103884 -0.033333
0.307053 0.130718 0.033333
0.304671 0.122828 0.016667
0.303165 0.118233 0.000000
0.302863 0.119049 -0.016667
0.302434 0.118391 -0.033333
0.297845 0.147728 0.033333
0.300092 0.134855 0.016667
0.300799 0.133568 0.000000
0.301046 0.133495 -0.016667
0.300861 0.133552 -0.033333
0.297064 0.155649 0.033333
0.299064 0.149165 0.016667
0.298800 0.147511 0.000000
0.299312 0.148592 -0.016667
0.299372 0.148272 -0.033333
0.296906 0.165319 0.033333
0.297240 0.162572 0.016667
0.297498 0.162308 0.000000
0.297772 0.163134 -0.016667
0.297913 0.163475 -0.033333
0.296458 0.175753 0.033333
0.296050 0.176237 0.016667
0.296163 0.177142 0.000000
0.296401 0.177895 -0.016667
0.296575 0.178590 -0.033333
0.296044 0.186638 0.033333
0.294858 0.190313 0.016667
0.294939 0.192036 0.000000
0.295100 0.192761 -0.016667
0.295265 0.193828 -0.033333
0.295501 0.197523 0.033333
0.293677 0.204390 0.016667
0.293601 0.206935 0.000000
0.293853 0.207850 -0.016667
0.293954 0.209076 -0.033333
0.295024 0.208407 0.033333
0.291872 0.218476 0.016667
0.292438 0.222019 0.000000
0.292458 0.222946 -0.016667
0.292659 0.224637 -0.033333
0.294323 0.218797 0.033333
0.291037 0.233389 0.016667
0.290737 0.236720 0.000000
0.291022 0.238678 -0.016667
0.291385 0.240049 -0.033333
0.287465 0.238438 0.033333
0.287730 0.246590 0.016667
0.288846 0.252875 0.000000
0.289764 0.254186 -0.016667
0.290008 0.255921 -0.033333
0.286059 0.259655 0.033333
0.285574 0.264202 0.016667
0.287534 0.268136 0.000000
0.288437 0.270658 -0.016667
0.288839 0.271522 -0.033333
0.286541 0.280483 0.033333
0.285523 0.282046 0.016667
0.286278 0.284631 0.000000
0.287464 0.286726 -0.016667
0.287709 0.287837 -0.033333
0.287108 0.299238 0.033333
0.285025 0.299535 0.016667
0.285637 0.301317 0.000000
0.286499 0.303151 -0.016667
0.286823 0.304103 -0.033333
0.287321 0.317025 0.033333
0.284663 0.316934 0.016667
0.284881 0.318012 0.000000
0.285751 0.319698 -0.016667
0.285958 0.320509 -0.033333
0.286528 0.334862 0.033333
0.284243 0.333906 0.016667
0.284088 0.334836 0.000000
0.284984 0.336247 -0.016667
0.285260 0.336991 -0.033333
0.287889 0.352426 0.033333
0.282980 0.351356 0.016667
0.283208 0.351332 0.000000
0.284301 0.352898 -0.016667
0.284600 0.353462 -0.033333
0.281923 0.372061 0.033333
0.281406 0.367739 0.016667
0.282134 0.367858 0.000000
0.283890 0.369544 -0.016667
0.284005 0.369830 -0.033333
0.276167 0.386032 0.033333
0.279916 0.383944 0.016667
0.282227 0.384073 0.000000
0.283224 0.386188 -0.016667
0.283925 0.386139 -0.033333
0.305129 -0.487182 0.033333
0.309356 -0.496168 0.016667
0.313444 -0.497964 0.000000
0.316123 -0.498631 -0.016667
0.317643 -0.499570 -0.033333
0.308975 -0.472771 0.033333
0.311971 -0.480191 0.016667
0.315053 -0.482707 0.000000
0.317273 -0.483237 -0.016667
0.318603 -0.484210 -0.033333
0.312098 -0.458301 0.033333
0.314457 -0.464724 0.016667
0.316914 -0.467408 0.000000
0.318737 -0.468076 -0.016667
0.319847 -0.468883 -0.033333
0.314648 -0.443958 0.033333
0.316674 -0.449566 0.016667
0.318772 -0.452255 0.000000
0.320320 -0.453038 -0.016667
0.321257 -0.453732 -0.033333
0.316700 -0.429771 0.033333
0.318585 -0.434665 0.016667
0.320505 -0.437276 0.000000
0.321895 -0.438136 -0.016667
0.322721 -0.438758 -0.033333
0.318296 -0.415743 0.033333
0.320178 -0.419997 0.016667
0.322057 -0.422474 0.000000
0.323383 -0.423382 -0.016667
0.324156 -0.423957 -0.033333
0.319463 -0.401864 0.033333
0.321454 -0.405535 0.016667
0.323401 -0.407846 0.000000
0.324742 -0.408778 -0.016667
0.325509 -0.409318 -0.033333
0.320217 -0.388120 0.033333
0.322426 -0.391261 0.016667
0.324539 -0.393386 0.000000
0.325959 -0.394323 -0.016667
0.326759 -0.394836 -0.033333
0.320586 -0.374490 0.033333
0.323120 -0.377153 0.016667
0.325489 -0.379086 0.000000
0.327043 -0.380017 -0.016667
0.327908 -0.380503 -0.033333
0.320605 -0.360947 0.033333
0.323582 -0.363197 0.016667
0.326293 -0.364939 0.000000
0.328025 -0.365855 -0.016667
0.328981 -0.366315 -0.033333
0.320343 -0.347454 0.033333
0.323878 -0.349374 0.016667
0.327017 -0.350945 0.000000
0.328960 -0.351840 -0.016667
0.330021 -0.352269 -0.033333
0.319907 -0.333963 0.033333
0.324114 -0.335689 0.016667
0.327752 -0.337109 0.000000
0.329919 -0.337977 -0.016667
0.331092 -0.338364 -0.033333
0.319524 -0.320433 0.033333
0.324425 -0.322140 0.016667
0.328624 -0.323451 0.000000
0.330995 -0.324278 -0.016667
0.332262 -0.324606 -0.033333
0.319544 -0.306858 0.033333
0.325058 -0.308779 0.016667
0.329792 -0.310003 0.000000
0.332289 -0.310768 -0.016667
0.333613 -0.310991 -0.033333
0.320713 -0.293369 0.033333
0.326318 -0.295675 0.016667
0.331469 -0.296854 0.000000
0.333921 -0.297445 -0.016667
0.335195 -0.297549 -0.033333
0.323616 -0.280606 0.033333
0.328767 -0.283122 0.016667
0.333899 -0.284009 0.000000
0.335971 -0.284413 -0.016667
0.337059 -0.284192 -0.033333
0.329655 -0.269975 0.033333
0.333209 -0.271105 0.016667
0.337423 -0.271931 0.000000
0.338474 -0.271426 -0.016667
0.339049 -0.271120 -0.033333
0.341353 -0.264611 0.033333
0.340532 -0.262985 0.016667
0.342130 -0.259376 0.000000
0.340839 -0.259598 -0.016667
0.341413 -0.257093 -0.033333
0.359744 -0.280914 0.033333
0.353790 -0.255039 0.016667
0.345490 -0.250177 0.000000
0.344270 -0.244913 -0.016667
0.342415 -0.245453 -0.033333
0.358314 -0.264849 0.033333
0.353073 -0.245823 0.016667
0.347631 -0.236210 0.000000
0.345491 -0.232510 -0.016667
0.343822 -0.231309 -0.033333
0.356884 -0.248783 0.033333
0.351470 -0.232477 0.016667
0.347828 -0.223006 0.000000
0.345980 -0.218826 -0.016667
0.344449 -0.217631 -0.033333
0.355454 -0.232718 0.033333
0.350660 -0.217508 0.016667
0.347454 -0.208953 0.000000
0.345834 -0.205126 -0.016667
0.344606 -0.203602 -0.033333
0.354024 -0.216652 0.033333
0.349831 -0.202449 0.016667
0.346953 -0.194504 0.000000
0.345359 -0.191061 -0.016667
0.344315 -0.189572 -0.033333
0.352595 -0.200587 0.033333
0.348782 -0.187084 0.016667
0.346197 -0.179909 0.000000
0.344664 -0.176796 -0.016667
0.343729 -0.175400 -0.033333
0.351165 -0.184521 0.033333
0.347636 -0.171779 0.016667
0.345257 -0.165215 0.000000
0.343791 -0.162413 -0.016667
0.342939 -0.161127 -0.033333
0.349735 -0.168455 0.033333
0.346352 -0.156396 0.016667
0.344191 -0.150483 0.000000
0.342785 -0.147944 -0.016667
0.342005 -0.146772 -0.033333
0.348305 -0.152390 0.033333
0.345024 -0.141069 0.016667
0.343035 -0.135715 0.000000
0.341686 -0.133424 -0.016667
0.340973 -0.132346 -0.033333
0.346875 -0.136324 0.033333
0.343642 -0.125725 0.016667
0.341827 -0.120932 0.000000
0.340524 -0.118857 -0.016667
0.339873 -0.117871 -0.033333
0.345445 -0.120259 0.033333
0.342249 -0.110425 0.016667
0.340587 -0.106126 0.000000
0.339323 -0.104259 -0.016667
0.338732 -0.103345 -0.033333
0.344015 -0.104193 0.033333
0.340852 -0.095131 0.016667
0.339329 -0.091310 0.000000
0.338104 -0.089624 -0.016667
0.337565 -0.088782 -0.033333
0.342586 -0.088128 0.033333
0.339463 -0.079879 0.016667
0.338066 -0.076467 0.000000
0.336875 -0.074958 -0.016667
0.336388 -0.074174 -0.033333
0.341156 -0.072062 0.033333
0.338084 -0.064625 0.016667
0.336801 -0.061608 0.000000
0.335648 -0.060253 -0.016667
0.335206 -0.059529 -0.033333
0.339726 -0.055997 0.033333
0.336716 -0.049378 0.016667
0.335545 -0.046717 0.000000
0.334424 -0.045511 -0.016667
0.334027 -0.044838 -0.033333
0.338296 -0.039931 0.033333
0.335366 -0.034106 0.016667
0.334292 -0.031795 0.000000
0.333209 -0.030723 -0.016667
0.332851 -0.030102 -0.033333
0.336866 -0.023866 0.033333
0.334025 -0.018815 0.016667
0.333050 -0.016829 0.000000
0.332000 -0.015890 -0.016667
0.331678 -0.015316 -0.033333
0.335436 -0.007800 0.033333
0.332703 -0.003485 0.016667
0.331809 -0.001819 0.000000
0.330798 -0.001003 -0.016667
0.330507 -0.000477 -0.033333
0.334007 0.008265 0.033333
0.331382 0.011885 0.016667
0.330576 0.013248 0.000000
0.329595 0.013939 -0.016667
0.329329 0.014417 -0.033333
0.332577 0.024331 0.033333
0.330081 0.027325 0.016667
0.329331 0.028373 0.000000
0.328387 0.028940 -0.016667
0.328137 0.029369 -0.033333
0.331147 0.040397 0.033333
0.328756 0.042835 0.016667
0.328090 0.043569 0.000000
0.327154 0.044003 -0.016667
0.326918 0.044373 -0.033333
0.329717 0.056462 0.033333
0.327456 0.058464 0.016667
0.326800 0.058830 0.000000
0.325893 0.059121 -0.016667
0.325651 0.059431 -0.033333
0.328287 0.072528 0.033333
0.326063 0.074188 0.016667
0.325507 0.074158 0.000000
0.324546 0.074294 -0.016667
0.324329 0.074511 -0.033333
0.326858 0.088593 0.033333
0.324727 0.090098 0.016667
0.324039 0.089522 0.000000
0.323135 0.089466 -0.016667
0.322905 0.089642 -0.033333
0.325428 0.104659 0.033333
0.322916 0.106027 0.016667
0.322595 0.104799 0.000000
0.321523 0.104701 -0.016667
0.321406 0.104683 -0.033333
0.323998 0.120724 0.033333
0.321356 0.121882 0.016667
0.320701 0.120074 0.000000
0.319729 0.119792 -0.016667
0.319941 0.119723 -0.033333
0.322568 0.136790 0.033333
0.317721 0.137654 0.016667
0.318860 0.134742 0.000000
0.317858 0.134817 -0.016667
0.318431 0.134832 -0.033333
0.321138 0.152855 0.033333
0.315829 0.151527 0.016667
0.317235 0.149572 0.000000
0.316072 0.149765 -0.016667
0.316939 0.149818 -0.033333
0.319709 0.168921 0.033333
0.314060 0.165516 0.016667
0.315739 0.164362 0.000000
0.314439 0.164609 -0.016667
0.315535 0.164947 -0.033333
0.318279 0.184986 0.033333
0.312593 0.179545 0.016667
0.314306 0.179219 0.000000
0.313022 0.179505 -0.016667
0.314058 0.180088 -0.033333
0.316849 0.201052 0.033333
0.311587 0.193575 0.016667
0.312796 0.194107 0.000000
0.311736 0.194511 -0.016667
0.312565 0.195236 -0.033333
0.315419 0.217117 0.033333
0.310605 0.207776 0.016667
0.311340 0.208988 0.000000
0.310447 0.209563 -0.016667
0.311026 0.210542 -0.033333
0.313990 0.233183 0.033333
0.310490 0.221129 0.016667
0.309525 0.223917 0.000000
0.309096 0.224862 -0.016667
0.309430 0.225815 -0.033333
0.312560 0.249249 0.033333
0.308960 0.233095 0.016667
0.307277 0.240196 0.000000
0.307481 0.239414 -0.016667
0.308019 0.241977 -0.033333
0.299675 0.243150 0.033333
0.302587 0.251083 0.016667
0.305827 0.253611 0.000000
0.305634 0.256281 -0.016667
0.306692 0.256601 -0.033333
0.297527 0.262445 0.033333
0.300865 0.266805 0.016667
0.303265 0.269695 0.000000
0.304556 0.271714 -0.016667
0.305014 0.272788 -0.033333
0.299702 0.282154 0.033333
0.300238 0.283246 0.016667
0.301982 0.285851 0.000000
0.303256 0.287782 -0.016667
0.303841 0.288762 -0.033333
0.300879 0.300087 0.033333
0.300006 0.300568 0.016667
0.301016 0.302146 0.000000
0.302285 0.304027 -0.016667
0.302750 0.304940 -0.033333
0.300844 0.318187 0.033333
0.299752 0.317551 0.016667
0.300271 0.318764 0.000000
0.301397 0.320372 -0.016667
0.301891 0.321207 -0.033333
0.301226 0.335211 0.033333
0.299156 0.334857 0.016667
0.299503 0.335282 0.000000
0.300655 0.336832 -0.016667
0.301107 0.337549 -0.033333
0.300134 0.353753 0.033333
0.298239 0.351628 0.016667
0.298659 0.351863 0.000000
0.300012 0.353314 -0.016667
0.300480 0.353864 -0.033333
0.296890 0.370522 0.033333
0.296938 0.368360 0.016667
0.298065 0.368124 0.000000
0.299422 0.369807 -0.016667
0.300109 0.370202 -0.033333
0.295164 0.385982 0.033333
0.296317 0.384147 0.016667
0.297875 0.384347 0.000000
0.299218 0.386259 -0.016667
0.299745 0.386467 -0.033333
0.321653 -0.487354 0.033333
0.326040 -0.496590 0.016667
0.330302 -0.498485 0.000000
0.333091 -0.499212 -0.016667
0.334677 -0.500202 -0.033333
0.325784 -0.473211 0.033333
0.328848 -0.480840 0.016667
0.332030 -0.483454 0.000000
0.334325 -0.484032 -0.016667
0.335700 -0.485053 -0.033333
0.329156 -0.459093 0.033333
0.331545 -0.465670 0.016667
0.334053 -0.468417 0.000000
0.335918 -0.469110 -0.016667
0.337054 -0.469951 -0.033333
0.331952 -0.445170 0.033333
0.333981 -0.450866 0.016667
0.336095 -0.453567 0.000000
0.337659 -0.454342 -0.016667
0.338607 -0.455047 -0.033333
0.334255 -0.431461 0.033333
0.336119 -0.436371 0.016667
0.338026 -0.438930 0.000000
0.339410 -0.439740 -0.016667
0.340234 -0.440347 -0.033333
0.336115 -0.417966 0.033333
0.337948 -0.422153 0.016667
0.339786 -0.424508 0.000000
0.341086 -0.425316 -0.016667
0.341844 -0.425846 -0.033333
0.337557 -0.404683 0.033333
0.339469 -0.408192 0.016667
0.341345 -0.410295 0.000000
0.342639 -0.411071 -0.016667
0.343380 -0.411532 -0.033333
0.338606 -0.391608 0.033333
0.340694 -0.394469 0.016667
0.342701 -0.396286 0.000000
0.344052 -0.397003 -0.016667
0.344813 -0.397396 -0.033333
0.339281 -0.378741 0.033333
0.341649 -0.380971 0.016667
0.343871 -0.382471 0.000000
0.345330 -0.383105 -0.016667
0.346143 -0.383428 -0.033333
0.339619 -0.366082 0.033333
0.342374 -0.367689 0.016667
0.344892 -0.368845 0.000000
0.346502 -0.369373 -0.016667
0.347389 -0.369616 -0.033333
0.339667 -0.353641 0.033333
0.342935 -0.354629 0.016667
0.345824 -0.355406 0.000000
0.347614 -0.355802 -0.016667
0.348591 -0.355952 -0.033333
0.339515 -0.341445 0.033333
0.343420 -0.341802 0.016667
0.346754 -0.342159 0.000000
0.348736 -0.342393 -0.016667
0.349804 -0.342426 -0.033333
0.339298 -0.329543 0.033333
0.343967 -0.329258 0.016667
0.347795 -0.329118 0.000000
0.349949 -0.329149 -0.016667
0.351096 -0.329026 -0.033333
0.339286 -0.318056 0.033333
0.344753 -0.317057 0.016667
0.349103 -0.316318 0.000000
0.351352 -0.316068 -0.016667
0.352530 -0.315748 -0.033333
0.339872 -0.307265 0.033333
0.346097 -0.305372 0.016667
0.350864 -0.303774 0.000000
0.353041 -0.303186 -0.016667
0.354176 -0.302531 -0.033333
0.341900 -0.297773 0.033333
0.348408 -0.294392 0.016667
0.353313 -0.291662 0.000000
0.355106 -0.290368 -0.016667
0.356033 -0.289434 -0.033333
0.345953 -0.291031 0.033333
0.352268 -0.285094 0.016667
0.356694 -0.279585 0.000000
0.357536 -0.277844 -0.016667
0.358086 -0.276118 -0.033333
0.352526 -0.289025 0.033333
0.359099 -0.276374 0.016667
0.361051 -0.267934 0.000000
0.360151 -0.264969 -0.016667
0.360049 -0.262913 -0.033333
0.375809 -0.279484 0.033333
0.369946 -0.264825 0.016667
0.364745 -0.256069 0.000000
0.362825 -0.251126 -0.016667
0.361379 -0.250256 -0.033333
0.374379 -0.263419 0.033333
0.372224 -0.247015 0.016667
0.366418 -0.242720 0.000000
0.364053 -0.237564 -0.016667
0.362619 -0.236354 -0.033333
0.372950 -0.247353 0.033333
0.369154 -0.233006 0.016667
0.366579 -0.227473 0.000000
0.364363 -0.224180 -0.016667
0.363174 -0.221916 -0.033333
0.371520 -0.231288 0.033333
0.368135 -0.218984 0.016667
0.365712 -0.213009 0.000000
0.364240 -0.209746 -0.016667
0.363074 -0.207902 -0.033333
0.370090 -0.215222 0.033333
0.366907 -0.204177 0.016667
0.364905 -0.198464 0.000000
0.363613 -0.195288 -0.016667
0.362683 -0.193530 -0.033333
0.368660 -0.199157 0.033333
0.365899 -0.189213 0.016667
0.363976 -0.183690 0.000000
0.362802 -0.180696 -0.016667
0.361982 -0.179069 -0.033333
0.367230 -0.183091 0.033333
0.364658 -0.173967 0.016667
0.362956 -0.168798 0.000000
0.361829 -0.165994 -0.016667
0.361097 -0.164495 -0.033333
0.365800 -0.167026 0.033333
0.363434 -0.158689 0.016667
0.361818 -0.153815 0.000000
0.360749 -0.151216 -0.016667
0.360075 -0.149842 -0.033333
0.364370 -0.150960 0.033333
0.362088 -0.143307 0.016667
0.360616 -0.138785 0.000000
0.359586 -0.136379 -0.016667
0.358960 -0.135125 -0.033333
0.362940 -0.134895 0.033333
0.360745 -0.127920 0.016667
0.359355 -0.123717 0.000000
0.358367 -0.121503 -0.016667
0.357783 -0.120356 -0.033333
0.361511 -0.118829 0.033333
0.359352 -0.112488 0.016667
0.358066 -0.108626 0.000000
0.357113 -0.106592 -0.016667
0.356566 -0.105547 -0.033333
0.360081 -0.102763 0.033333
0.357971 -0.097054 0.016667
0.356756 -0.093510 0.000000
0.355837 -0.091655 -0.016667
0.355326 -0.090699 -0.033333
0.358651 -0.086698 0.033333
0.356574 -0.081584 0.016667
0.355437 -0.078377 0.000000
0.354553 -0.076688 -0.016667
0.354072 -0.075818 -0.033333
0.357221 -0.070632 0.033333
0.355180 -0.066106 0.016667
0.354115 -0.063220 0.000000
0.353265 -0.061696 -0.016667
0.352816 -0.060901 -0.033333
0.355791 -0.054567 0.033333
0.353785 -0.050601 0.016667
0.352793 -0.048042 0.000000
0.351980 -0.046672 -0.016667
0.351559 -0.045950 -0.033333
0.354361 -0.038501 0.033333
0.352396 -0.035083 0.016667
0.351476 -0.032836 0.000000
0.350698 -0.031617 -0.016667
0.350305 -0.030960 -0.033333
0.352932 -0.022436 0.033333
0.351017 -0.019538 0.016667
0.350159 -0.017603 0.000000
0.349421 -0.016527 -0.016667
0.349054 -0.015931 -0.033333
0.351502 -0.006370 0.033333
0.349635 -0.003974 0.016667
0.348848 -0.002337 0.000000
0.348146 -0.001399 -0.016667
0.347803 -0.000859 -0.033333
0.350072 0.009695 0.033333
0.348267 0.011622 0.016667
0.347530 0.012964 0.000000
0.346870 0.013770 -0.016667
0.346547 0.014256 -0.033333
0.348642 0.025761 0.033333
0.346878 0.027244 0.016667
0.346216 0.028304 0.000000
0.345583 0.028982 -0.016667
0.345279 0.029415 -0.033333
0.347212 0.041826 0.033333
0.345507 0.042903 0.016667
0.344873 0.043682 0.000000
0.344283 0.044235 -0.016667
0.343989 0.044617 -0.033333
0.345783 0.057892 0.033333
0.344074 0.058590 0.016667
0.343533 0.059098 0.000000
0.342943 0.059532 -0.016667
0.342665 0.059851 -0.033333
0.344353 0.073957 0.033333
0.342683 0.074319 0.016667
0.342114 0.074553 0.000000
0.341570 0.074849 -0.016667
0.341287 0.075122 -0.033333
0.342923 0.090023 0.033333
0.341108 0.090085 0.016667
0.340709 0.089998 0.000000
0.340105 0.090210 -0.016667
0.339847 0.090376 -0.033333
0.341493 0.106088 0.033333
0.339641 0.105814 0.016667
0.339113 0.105498 0.000000
0.338558 0.105520 -0.016667
0.338364 0.105639 -0.033333
0.340063 0.122154 0.033333
0.337625 0.121721 0.016667
0.337522 0.120772 0.000000
0.336899 0.120812 -0.016667
0.336796 0.120874 -0.033333
0.338634 0.138220 0.033333
0.335633 0.136821 0.016667
0.335719 0.136096 0.000000
0.335209 0.135992 -0.016667
0.335232 0.136031 -0.033333
0.337204 0.154285 0.033333
0.333934 0.152114 0.016667
0.334062 0.151101 0.000000
0.333545 0.151086 -0.016667
0.333692 0.151236 -0.033333
0.335774 0.170351 0.033333
0.332122 0.167011 0.016667
0.332503 0.166088 0.000000
0.332001 0.166191 -0.016667
0.332141 0.166359 -0.033333
0.334344 0.186416 0.033333
0.330691 0.181747 0.016667
0.330990 0.181072 0.000000
0.330503 0.181284 -0.016667
0.330662 0.181527 -0.033333
0.332915 0.202482 0.033333
0.329415 0.196515 0.016667
0.329566 0.196071 0.000000
0.329055 0.196411 -0.016667
0.329158 0.196744 -0.033333
0.331485 0.218547 0.033333
0.328537 0.210985 0.016667
0.328082 0.211206 0.000000
0.327561 0.211600 -0.016667
0.327626 0.211974 -0.033333
0.330055 0.234613 0.033333
0.327980 0.226212 0.016667
0.326300 0.226587 0.000000
0.325903 0.226570 -0.016667
0.326104 0.227544 -0.033333
0.328625 0.250678 0.033333
0.324686 0.242474 0.016667
0.323687 0.241412 0.000000
0.324418 0.241801 -0.016667
0.324237 0.243213 -0.033333
0.314463 0.264697 0.033333
0.319233 0.256001 0.016667
0.321602 0.256387 0.000000
0.322515 0.257751 -0.016667
0.322701 0.258237 -0.033333
0.313962 0.273899 0.033333
0.316977 0.270964 0.016667
0.319484 0.271703 0.000000
0.320640 0.273446 -0.016667
0.321449 0.273957 -0.033333
0.314822 0.287014 0.033333
0.315769 0.286509 0.016667
0.317885 0.287492 0.000000
0.319318 0.289128 -0.016667
0.320010 0.289967 -0.033333
0.314925 0.303227 0.033333
0.315359 0.302436 0.016667
0.316770 0.303538 0.000000
0.318165 0.305128 -0.016667
0.318888 0.305930 -0.033333
0.315569 0.319588 0.033333
0.314870 0.319037 0.016667
0.315893 0.319688 0.000000
0.317245 0.321266 -0.016667
0.317905 0.322046 -0.033333
0.315173 0.336887 0.033333
0.314344 0.335532 0.016667
0.315113 0.336030 0.000000
0.316448 0.337504 -0.016667
0.317130 0.338191 -0.033333
0.314165 0.353637 0.033333
0.313542 0.352183 0.016667
0.314413 0.352256 0.000000
0.315787 0.353803 -0.016667
0.316531 0.354400 -0.033333
0.312725 0.370095 0.033333
0.312715 0.368284 0.016667
0.313917 0.368468 0.000000
0.315350 0.370102 -0.016667
0.316072 0.370589 -0.033333
0.312416 0.384877 0.033333
0.312797 0.384068 0.016667
0.313847 0.384456 0.000000
0.315135 0.386441 -0.016667
0.315822 0.386738 -0.033333
0.338383 -0.487514 0.033333
0.342934 -0.496973 0.016667
0.347387 -0.498962 0.000000
0.350289 -0.499745 -0.016667
0.351943 -0.500784 -0.033333
0.342931 -0.473610 0.033333
0.346023 -0.481435 0.016667
0.349276 -0.484143 0.000000
0.351628 -0.484767 -0.016667
0.353042 -0.485835 -0.033333
0.346653 -0.459819 0.033333
0.349006 -0.466541 0.016667
0.351510 -0.469352 0.000000
0.353384 -0.470070 -0.016667
0.354531 -0.470945 -0.033333
0.349777 -0.446281 0.033333
0.351728 -0.452064 0.016667
0.353787 -0.454782 0.000000
0.355322 -0.455554 -0.016667
0.356257 -0.456273 -0.033333
0.352408 -0.433003 0.033333
0.354157 -0.437937 0.016667
0.355967 -0.440459 0.000000
0.357289 -0.441230 -0.016667
0.358080 -0.441828 -0.033333
0.354607 -0.419986 0.033333
0.356284 -0.424128 0.016667
0.357983 -0.426382 0.000000
0.359192 -0.427109 -0.016667
0.359899 -0.427603 -0.033333
0.356413 -0.407226 0.033333
0.358116 -0.410611 0.016667
0.359806 -0.412543 0.000000
0.360977 -0.413189 -0.016667
0.361648 -0.413584 -0.033333
0.357853 -0.394728 0.033333
0.359666 -0.397370 0.016667
0.361430 -0.398932 0.000000
0.362622 -0.399464 -0.016667
0.363294 -0.399759 -0.033333
0.358963 -0.382501 0.033333
0.360962 -0.384393 0.016667
0.362868 -0.385539 0.000000
0.364128 -0.385926 -0.016667
0.364829 -0.386112 -0.033333
0.359786 -0.370565 0.033333
0.362048 -0.371681 0.016667
0.364156 -0.372357 0.000000
0.365517 -0.372563 -0.016667
0.366267 -0.372628 -0.033333
0.360391 -0.358956 0.033333
0.362991 -0.359237 0.016667
0.365351 -0.359379 0.000000
0.366832 -0.359366 -0.016667
0.367641 -0.359288 -0.033333
0.360879 -0.347735 0.033333
0.363891 -0.347090 0.016667
0.366529 -0.346604 0.000000
0.368132 -0.346325 -0.016667
0.368998 -0.346072 -0.033333
0.361422 -0.337008 0.033333
0.364884 -0.335275 0.016667
0.367799 -0.334036 0.000000
0.369491 -0.333425 -0.016667
0.370391 -0.332961 -0.033333
0.362263 -0.326923 0.033333
0.366176 -0.323876 0.016667
0.369290 -0.321665 0.000000
0.370991 -0.320661 -0.016667
0.371881 -0.319911 -0.033333
0.363850 -0.317674 0.033333
0.368032 -0.312951 0.016667
0.371169 -0.309509 0.000000
0.372714 -0.307968 -0.016667
0.373500 -0.306907 -0.033333
0.366834 -0.309540 0.033333
0.370934 -0.302610 0.016667
0.373580 -0.297383 0.000000
0.374698 -0.295383 -0.016667
0.375276 -0.293793 -0.033333
0.372254 -0.301629 0.033333
0.375289 -0.292006 0.016667
0.376532 -0.285335 0.000000
0.376985 -0.282614 -0.016667
0.377073 -0.280625 -0.033333
0.379152 -0.289235 0.033333
0.380790 -0.280116 0.016667
0.379995 -0.272702 0.000000
0.379275 -0.269644 -0.016667
0.378859 -0.267188 -0.033333
0.391875 -0.278054 0.033333
0.386516 -0.263723 0.016667
0.382969 -0.260596 0.000000
0.381365 -0.255120 -0.016667
0.380064 -0.254398 -0.033333
0.390445 -0.261989 0.033333
0.387474 -0.250304 0.016667
0.384427 -0.245240 0.000000
0.382320 -0.241715 -0.016667
0.381033 -0.239984 -0.033333
0.389015 -0.245923 0.033333
0.387529 -0.234413 0.016667
0.384248 -0.230664 0.000000
0.382507 -0.227312 -0.016667
0.381422 -0.225729 -0.033333
0.387585 -0.229858 0.033333
0.385355 -0.219778 0.016667
0.383674 -0.215539 0.000000
0.382100 -0.212969 -0.016667
0.381255 -0.211089 -0.033333
0.386155 -0.213792 0.033333
0.384253 -0.204970 0.016667
0.382565 -0.200641 0.000000
0.381463 -0.198174 -0.016667
0.380660 -0.196558 -0.033333
0.384726 -0.197727 0.033333
0.382828 -0.189871 0.016667
0.381490 -0.185691 0.000000
0.380523 -0.183319 -0.016667
0.379868 -0.181820 -0.033333
0.383296 -0.181661 0.033333
0.381627 -0.174650 0.016667
0.380315 -0.170634 0.000000
0.379465 -0.168376 -0.016667
0.378880 -0.167000 -0.033333
0.381866 -0.165596 0.033333
0.380253 -0.159266 0.016667
0.379105 -0.155499 0.000000
0.378302 -0.153365 -0.016667
0.377777 -0.152099 -0.033333
0.380436 -0.149530 0.033333
0.378935 -0.143835 0.016667
0.377828 -0.140301 0.000000
0.377076 -0.138303 -0.016667
0.376588 -0.137138 -0.033333
0.379006 -0.133465 0.033333
0.377528 -0.128328 0.016667
0.376522 -0.125063 0.000000
0.375801 -0.123199 -0.016667
0.375344 -0.122131 -0.033333
0.377576 -0.117399 0.033333
0.376145 -0.112799 0.016667
0.375183 -0.109789 0.000000
0.374496 -0.108065 -0.016667
0.374065 -0.107084 -0.033333
0.376146 -0.101334 0.033333
0.374724 -0.097227 0.016667
0.373832 -0.094491 0.000000
0.373174 -0.092902 -0.016667
0.372765 -0.092005 -0.033333
0.374717 -0.085268 0.033333
0.373317 -0.081639 0.016667
0.372471 -0.079167 0.000000
0.371841 -0.077717 -0.016667
0.371454 -0.076896 -0.033333
0.373287 -0.069203 0.033333
0.371897 -0.066022 0.016667
0.371105 -0.063824 0.000000
0.370506 -0.062507 -0.016667
0.370138 -0.061758 -0.033333
0.371857 -0.053137 0.033333
0.370484 -0.050395 0.016667
0.369741 -0.048457 0.000000
0.369171 -0.047274 -0.016667
0.368824 -0.046591 -0.033333
0.370427 -0.037072 0.033333
0.369073 -0.034746 0.016667
0.368376 -0.033071 0.000000
0.367839 -0.032015 -0.016667
0.367511 -0.031395 -0.033333
0.368997 -0.021006 0.033333
0.367663 -0.019086 0.016667
0.367016 -0.017662 0.000000
0.366508 -0.016731 -0.016667
0.366200 -0.016168 -0.033333
0.367567 -0.004940 0.033333
0.366262 -0.003406 0.016667
0.365652 -0.002232 0.000000
0.365180 -0.001419 -0.016667
0.364890 -0.000909 -0.033333
0.366138 0.011125 0.033333
0.364849 0.012288 0.016667
0.364292 0.013221 0.000000
0.363847 0.013922 -0.016667
0.363575 0.014382 -0.033333
0.364708 0.027191 0.033333
0.363451 0.028000 0.016667
0.362917 0.028698 0.000000
0.362508 0.029291 -0.016667
0.362251 0.029706 -0.033333
0.363278 0.043256 0.033333
0.362015 0.043727 0.016667
0.361544 0.044193 0.000000
0.361152 0.044690 -0.016667
0.360910 0.045058 -0.033333
0.361848 0.059322 0.033333
0.360606 0.059463 0.016667
0.360129 0.059712 0.000000
0.359777 0.060109 -0.016667
0.359541 0.060439 -0.033333
0.360418 0.075387 0.033333
0.359101 0.075223 0.016667
0.358720 0.075227 0.000000
0.358358 0.075555 -0.016667
0.358134 0.075827 -0.033333
0.358989 0.091453 0.033333
0.357655 0.090948 0.016667
0.357219 0.090776 0.000000
0.356899 0.090990 -0.016667
0.356688 0.091227 -0.033333
0.357559 0.107518 0.033333
0.355982 0.106752 0.016667
0.355723 0.106237 0.000000
0.355376 0.106433 -0.016667
0.355179 0.106610 -0.033333
0.356129 0.123584 0.033333
0.354357 0.122267 0.016667
0.354104 0.121751 0.000000
0.353800 0.121815 -0.016667
0.353647 0.121951 -0.033333
0.354699 0.139649 0.033333
0.352640 0.137901 0.016667
0.352460 0.137046 0.000000
0.352198 0.137149 -0.016667
0.352083 0.137287 -0.033333
0.353270 0.155715 0.033333
0.350926 0.153129 0.016667
0.350883 0.152346 0.000000
0.350612 0.152442 -0.016667
0.350519 0.152540 -0.033333
0.351840 0.171780 0.033333
0.349417 0.168402 0.016667
0.349302 0.167553 0.000000
0.349055 0.167679 -0.016667
0.348994 0.167817 -0.033333
0.350410 0.187846 0.033333
0.347915 0.183537 0.016667
0.347805 0.182742 0.000000
0.347540 0.182933 -0.016667
0.347459 0.183064 -0.033333
0.348980 0.203912 0.033333
0.346636 0.198549 0.016667
0.346318 0.197982 0.000000
0.346009 0.198193 -0.016667
0.345934 0.198331 -0.033333
0.347550 0.219977 0.033333
0.345571 0.213813 0.016667
0.344749 0.213309 0.000000
0.344419 0.213414 -0.016667
0.344378 0.213695 -0.033333
0.346121 0.236043 0.033333
0.343731 0.229188 0.016667
0.342894 0.228696 0.000000
0.342761 0.228657 -0.016667
0.342661 0.229114 -0.033333
0.344691 0.252108 0.033333
0.340999 0.243558 0.016667
0.340607 0.244542 0.000000
0.340826 0.243554 -0.016667
0.341054 0.244882 -0.033333
0.334986 0.263050 0.033333
0.336937 0.260227 0.016667
0.338036 0.258643 0.000000
0.338907 0.259636 -0.016667
0.339395 0.259847 -0.033333
0.333467 0.277763 0.033333
0.333794 0.274388 0.016667
0.335851 0.273958 0.000000
0.337174 0.275060 -0.016667
0.337713 0.275479 -0.033333
0.331116 0.291642 0.033333
0.332359 0.289251 0.016667
0.334123 0.289347 0.000000
0.335573 0.290656 -0.016667
0.336385 0.291202 -0.033333
0.330817 0.306044 0.033333
0.331228 0.304715 0.016667
0.332859 0.304975 0.000000
0.334334 0.306361 -0.016667
0.335122 0.307063 -0.033333
0.330404 0.321833 0.033333
0.330579 0.320435 0.016667
0.331845 0.320836 0.000000
0.333298 0.322247 -0.016667
0.334119 0.322950 -0.033333
0.330062 0.337764 0.033333
0.329889 0.336526 0.016667
0.331019 0.336756 0.000000
0.332466 0.338245 -0.016667
0.333289 0.338940 -0.033333
0.329244 0.353945 0.033333
0.329229 0.352498 0.016667
0.330359 0.352765 0.000000
0.331819 0.354317 -0.016667
0.332656 0.354955 -0.033333
0.328779 0.369448 0.033333
0.328813 0.368394 0.016667
0.329937 0.368683 0.000000
0.331395 0.370443 -0.016667
0.332225 0.371004 -0.033333
0.329005 0.385108 0.033333
0.329082 0.384028 0.016667
0.329978 0.384533 0.000000
0.331236 0.386642 -0.016667
0.331930 0.387006 -0.033333
0.355292 -0.487639 0.033333
0.360032 -0.497303 0.016667
0.364686 -0.499372 0.000000
0.367707 -0.500211 -0.016667
0.369431 -0.501292 -0.033333
0.360401 -0.473951 0.033333
0.363481 -0.481953 0.016667
0.366778 -0.484747 0.000000
0.369173 -0.485413 -0.016667
0.370619 -0.486528 -0.033333
0.364568 -0.460446 0.033333
0.366822 -0.467301 0.016667
0.369272 -0.470175 0.000000
0.371124 -0.470920 -0.016667
0.372266 -0.471830 -0.033333
0.368099 -0.447240 0.033333
0.369896 -0.453108 0.016667
0.371833 -0.455853 0.000000
0.373295 -0.456628 -0.016667
0.374194 -0.457366 -0.033333
0.371127 -0.434331 0.033333
0.372673 -0.439300 0.016667
0.374307 -0.441804 0.000000
0.375515 -0.442550 -0.016667
0.376245 -0.443147 -0.033333
0.373732 -0.421709 0.033333
0.375154 -0.425834 0.016667
0.376623 -0.428023 0.000000
0.377680 -0.428692 -0.016667
0.378302 -0.429163 -0.033333
0.375963 -0.409368 0.033333
0.377348 -0.412682 0.016667
0.378749 -0.414496 0.000000
0.379728 -0.415049 -0.016667
0.380292 -0.415398 -0.033333
0.377864 -0.397309 0.033333
0.379274 -0.399821 0.016667
0.380676 -0.401210 0.000000
0.381632 -0.401610 -0.016667
0.382172 -0.401835 -0.033333
0.379478 -0.385539 0.033333
0.380963 -0.387240 0.016667
0.382416 -0.388150 0.000000
0.383388 -0.388362 -0.016667
0.383929 -0.388453 -0.033333
0.380868 -0.374068 0.033333
0.382462 -0.374927 0.016667
0.384001 -0.375302 0.000000
0.385011 -0.375287 -0.016667
0.385568 -0.375229 -0.033333
0.382114 -0.362919 0.033333
0.383840 -0.362882 0.016667
0.385478 -0.362648 0.000000
0.386535 -0.362367 -0.016667
0.387113 -0.362137 -0.033333
0.383342 -0.352116 0.033333
0.385194 -0.351096 0.016667
0.386917 -0.350173 0.000000
0.388008 -0.349576 -0.016667
0.388600 -0.349148 -0.033333
0.384716 -0.341674 0.033333
0.386663 -0.339573 0.016667
0.388405 -0.337849 0.000000
0.389488 -0.336889 -0.016667
0.390071 -0.336224 -0.033333
0.386482 -0.331565 0.033333
0.388403 -0.328257 0.016667
0.390042 -0.325643 0.000000
0.391038 -0.324254 -0.016667
0.391564 -0.323325 -0.033333
0.388904 -0.321645 0.033333
0.390632 -0.317053 0.016667
0.391916 -0.313440 0.000000
0.392700 -0.311640 -0.016667
0.393113 -0.310367 -0.033333
0.392264 -0.311179 0.033333
0.393398 -0.305526 0.016667
0.394088 -0.301166 0.000000
0.394514 -0.298909 -0.016667
0.394680 -0.297308 -0.033333
0.395472 -0.299207 0.033333
0.396690 -0.293359 0.016667
0.396538 -0.288516 0.000000
0.396369 -0.285995 -0.016667
0.396270 -0.284018 -0.033333
0.400193 -0.289156 0.033333
0.399983 -0.280137 0.016667
0.399000 -0.275409 0.000000
0.398173 -0.272699 -0.016667
0.397672 -0.270417 -0.033333
0.407940 -0.276625 0.033333
0.403444 -0.265830 0.016667
0.400943 -0.262263 0.000000
0.399689 -0.258107 -0.016667
0.398573 -0.257308 -0.033333
0.406510 -0.260559 0.033333
0.404605 -0.250407 0.016667
0.401859 -0.247569 0.000000
0.400277 -0.244109 -0.016667
0.399288 -0.242777 -0.033333
0.405081 -0.244494 0.033333
0.403626 -0.235862 0.016667
0.401832 -0.232159 0.000000
0.400273 -0.229758 -0.016667
0.399359 -0.228156 -0.033333
0.403651 -0.228428 0.033333
0.402798 -0.220234 0.016667
0.400955 -0.217126 0.000000
0.399783 -0.214899 -0.016667
0.399036 -0.213507 -0.033333
0.402221 -0.212362 0.033333
0.401038 -0.205150 0.016667
0.399956 -0.201888 0.000000
0.398940 -0.200018 -0.016667
0.398353 -0.198619 -0.033333
0.400791 -0.196297 0.033333
0.399803 -0.189885 0.016667
0.398702 -0.186712 0.000000
0.397947 -0.184937 -0.016667
0.397419 -0.183708 -0.033333
0.399361 -0.180231 0.033333
0.398321 -0.174536 0.016667
0.397453 -0.171489 0.000000
0.396789 -0.169802 -0.016667
0.396349 -0.168675 -0.033333
0.397931 -0.164166 0.033333
0.397002 -0.159099 0.016667
0.396137 -0.156209 0.000000
0.395560 -0.154609 -0.016667
0.395164 -0.153577 -0.033333
0.396501 -0.148100 0.033333
0.395560 -0.143580 0.016667
0.394807 -0.140882 0.000000
0.394267 -0.139370 -0.016667
0.393911 -0.138423 -0.033333
0.395072 -0.132035 0.033333
0.394174 -0.128015 0.016667
0.393440 -0.125512 0.000000
0.392941 -0.124096 -0.016667
0.392609 -0.123226 -0.033333
0.393642 -0.115969 0.033333
0.392729 -0.112401 0.016667
0.392063 -0.110109 0.000000
0.391589 -0.108794 -0.016667
0.391277 -0.107994 -0.033333
0.392212 -0.099904 0.033333
0.391311 -0.096759 0.016667
0.390672 -0.094680 0.000000
0.390224 -0.093466 -0.016667
0.389929 -0.092733 -0.033333
0.390782 -0.083838 0.033333
0.389870 -0.081088 0.016667
0.389276 -0.079228 0.000000
0.388852 -0.078117 -0.016667
0.388571 -0.077445 -0.033333
0.389352 -0.067773 0.033333
0.388442 -0.065401 0.016667
0.387878 -0.063756 0.000000
0.387477 -0.062749 -0.016667
0.387211 -0.062134 -0.033333
0.387922 -0.051707 0.033333
0.387010 -0.049693 0.016667
0.386480 -0.048266 0.000000
0.386103 -0.047361 -0.016667
0.385851 -0.046800 -0.033333
0.386493 -0.035642 0.033333
0.385584 -0.033975 0.016667
0.385085 -0.032758 0.000000
0.384731 -0.031954 -0.016667
0.384494 -0.031443 -0.033333
0.385063 -0.019576 0.033333
0.384162 -0.018242 0.016667
0.383690 -0.017235 0.000000
0.383362 -0.016528 -0.016667
0.383139 -0.016063 -0.033333
0.383633 -0.003511 0.033333
0.382736 -0.002499 0.016667
0.382299 -0.001697 0.000000
0.381994 -0.001081 -0.016667
0.381784 -0.000659 -0.033333
0.382203 0.012555 0.033333
0.381320 0.013254 0.016667
0.380901 0.013857 0.000000
0.380624 0.014384 -0.016667
0.380428 0.014769 -0.033333
0.380773 0.028620 0.033333
0.379884 0.029016 0.016667
0.379506 0.029421 0.000000
0.379246 0.029869 -0.016667
0.379064 0.030218 -0.033333
0.379343 0.044686 0.033333
0.378467 0.044779 0.016667
0.378089 0.045000 0.000000
0.377860 0.045368 -0.016667
0.377687 0.045688 -0.033333
0.377914 0.060752 0.033333
0.376997 0.060557 0.016667
0.376675 0.060576 0.000000
0.376452 0.060885 -0.016667
0.376289 0.061170 -0.033333
0.376484 0.076817 0.033333
0.375562 0.076306 0.016667
0.375213 0.076169 0.000000
0.375023 0.076402 -0.016667
0.374869 0.076664 -0.033333
0.375054 0.092883 0.033333
0.374017 0.092090 0.016667
0.373753 0.091720 0.000000
0.373558 0.091927 -0.016667
0.373407 0.092153 -0.033333
0.373624 0.108948 0.033333
0.372515 0.107744 0.016667
0.372222 0.107298 0.000000
0.372058 0.107425 -0.016667
0.371922 0.107624 -0.033333
0.372194 0.125014 0.033333
0.370907 0.123460 0.016667
0.370678 0.122765 0.000000
0.370528 0.122903 -0.016667
0.370398 0.123082 -0.033333
0.370765 0.141079 0.033333
0.369322 0.138930 0.016667
0.369116 0.138239 0.000000
0.368974 0.138344 -0.016667
0.368863 0.138483 -0.033333
0.369335 0.157145 0.033333
0.367768 0.154458 0.016667
0.367545 0.153606 0.000000
0.367427 0.153736 -0.016667
0.367326 0.153884 -0.033333
0.367905 0.173210 0.033333
0.366220 0.169789 0.016667
0.366022 0.168966 0.000000
0.365888 0.169123 -0.016667
0.365786 0.169228 -0.033333
0.366475 0.189276 0.033333
0.364788 0.185114 0.016667
0.364497 0.184311 0.000000
0.364348 0.184482 -0.016667
0.364256 0.184585 -0.033333
0.365046 0.205341 0.033333
0.363434 0.200440 0.016667
0.362970 0.199682 0.000000
0.362790 0.199837 -0.016667
0.362702 0.199941 -0.033333
0.363616 0.221407 0.033333
0.361890 0.215790 0.016667
0.361358 0.215108 0.000000
0.361171 0.215182 -0.016667
0.361074 0.215319 -0.033333
0.362186 0.237472 0.033333
0.360325 0.230918 0.016667
0.359442 0.230673 0.000000
0.359401 0.230415 -0.016667
0.359433 0.230789 -0.033333
0.360756 0.253538 0.033333
0.357520 0.246050 0.016667
0.357164 0.246252 0.000000
0.357580 0.245426 -0.016667
0.357621 0.246546 -0.033333
0.353137 0.266539 0.033333
0.353938 0.261496 0.016667
0.354818 0.260750 0.000000
0.355532 0.261395 -0.016667
0.355982 0.261375 -0.033333
0.349990 0.279381 0.033333
0.351272 0.276640 0.016667
0.352524 0.275805 0.000000
0.353690 0.276692 -0.016667
0.354367 0.276974 -0.033333
0.348502 0.293943 0.033333
0.349059 0.291447 0.016667
0.350721 0.291037 0.000000
0.352104 0.292088 -0.016667
0.352833 0.292552 -0.033333
0.347002 0.308618 0.033333
0.347777 0.306518 0.016667
0.349268 0.306406 0.000000
0.350727 0.307610 -0.016667
0.351585 0.308192 -0.033333
0.346324 0.323465 0.033333
0.346724 0.321885 0.016667
0.348143 0.321910 0.000000
0.349625 0.323245 -0.016667
0.350489 0.323920 -0.033333
0.345603 0.338855 0.033333
0.345956 0.337367 0.016667
0.347241 0.337551 0.000000
0.348729 0.339004 -0.016667
0.349625 0.339694 -0.033333
0.345143 0.354157 0.033333
0.345333 0.352977 0.016667
0.346558 0.353223 0.000000
0.348059 0.354856 -0.016667
0.348958 0.355543 -0.033333
0.344841 0.369675 0.033333
0.345048 0.368500 0.016667
0.346176 0.368936 0.000000
0.347627 0.370795 -0.016667
0.348492 0.371418 -0.033333
0.345305 0.384783 0.033333
0.345372 0.384072 0.016667
0.346196 0.384613 0.000000
0.347451 0.386851 -0.016667
0.348198 0.387285 -0.033333
0.372358 -0.487729 0.033333
0.377328 -0.497566 0.016667
0.382180 -0.499698 0.000000
0.385327 -0.500597 -0.016667
0.387123 -0.501708 -0.033333
0.378160 -0.474221 0.033333
0.381196 -0.482371 0.016667
0.384519 -0.485243 0.000000
0.386943 -0.485950 -0.016667
0.388414 -0.487109 -0.033333
0.382863 -0.460951 0.033333
0.384965 -0.467920 0.016667
0.387316 -0.470857 0.000000
0.389121 -0.471631 -0.016667
0.390242 -0.472578 -0.033333
0.386870 -0.448013 0.033333
0.388446 -0.453961 0.016667
0.390203 -0.456743 0.000000
0.391557 -0.457532 -0.016667
0.392398 -0.458292 -0.033333
0.390352 -0.435393 0.033333
0.391621 -0.440407 0.016667
0.393010 -0.442919 0.000000
0.394060 -0.443658 -0.016667
0.394702 -0.444263 -0.033333
0.393406 -0.423069 0.033333
0.394495 -0.427209 0.016667
0.395659 -0.429374 0.000000
0.396513 -0.430015 -0.016667
0.397022 -0.430479 -0.033333
0.396097 -0.411027 0.033333
0.397083 -0.414328 0.016667
0.398114 -0.416089 0.000000
0.398847 -0.416591 -0.016667
0.399272 -0.416919 -0.033333
0.398474 -0.399256 0.033333
0.399406 -0.401736 0.016667
0.400363 -0.403044 0.000000
0.401025 -0.403373 -0.016667
0.401400 -0.403561 -0.033333
0.400589 -0.387743 0.033333
0.401495 -0.389405 0.016667
0.402415 -0.390217 0.000000
0.403038 -0.390338 -0.016667
0.403384 -0.390379 -0.033333
0.402500 -0.376479 0.033333
0.403394 -0.377312 0.016667
0.404291 -0.377580 0.000000
0.404891 -0.377462 -0.016667
0.405221 -0.377343 -0.033333
0.404285 -0.365442 0.033333
0.405160 -0.365426 0.016667
0.406030 -0.365105 0.000000
0.406607 -0.364715 -0.016667
0.406923 -0.364419 -0.033333
0.406032 -0.354596 0.033333
0.406872 -0.353713 0.016667
0.407681 -0.352753 0.000000
0.408220 -0.352061 -0.016667
0.408514 -0.351568 -0.033333
0.407852 -0.343876 0.033333
0.408608 -0.342099 0.016667
0.409305 -0.340476 0.000000
0.409767 -0.339454 -0.016667
0.410019 -0.338746 -0.033333
0.409817 -0.333147 0.033333
0.410465 -0.330490 0.016667
0.410951 -0.328188 0.000000
0.411284 -0.326845 -0.016667
0.411467 -0.325888 -0.033333
0.412003 -0.322164 0.033333
0.412440 -0.318687 0.016667
0.412660 -0.315812 0.000000
0.412801 -0.314147 -0.016667
0.412855 -0.312936 -0.033333
0.414090 -0.310962 0.033333
0.414588 -0.306617 0.016667
0.414432 -0.303180 0.000000
0.414285 -0.301289 -0.016667
0.414200 -0.299798 -0.033333
0.416946 -0.300544 0.033333
0.416746 -0.294094 0.016667
0.416205 -0.290184 0.000000
0.415723 -0.288173 -0.016667
0.415393 -0.286363 -0.033333
0.420399 -0.287811 0.033333
0.419366 -0.281091 0.016667
0.417730 -0.276692 0.000000
0.416946 -0.274600 -0.016667
0.416409 -0.272665 -0.033333
0.424006 -0.275195 0.033333
0.420628 -0.265208 0.016667
0.419016 -0.263614 0.000000
0.417774 -0.259794 -0.016667
0.417009 -0.259292 -0.033333
0.422576 -0.259129 0.033333
0.421125 -0.251074 0.016667
0.419285 -0.248319 0.000000
0.418083 -0.245770 -0.016667
0.417258 -0.244579 -0.033333
0.421146 -0.243064 0.033333
0.420473 -0.235529 0.016667
0.418932 -0.233203 0.000000
0.417806 -0.231080 -0.016667
0.417131 -0.229833 -0.033333
0.419716 -0.226998 0.033333
0.419108 -0.220476 0.016667
0.418124 -0.217768 0.000000
0.417155 -0.216171 -0.016667
0.416562 -0.214949 -0.033333
0.418286 -0.210933 0.033333
0.417949 -0.204883 0.016667
0.416938 -0.202481 0.000000
0.416223 -0.201019 -0.016667
0.415751 -0.199964 -0.033333
0.416857 -0.194867 0.033333
0.416364 -0.189533 0.016667
0.415707 -0.187102 0.000000
0.415101 -0.185814 -0.016667
0.414721 -0.184839 -0.033333
0.415427 -0.178802 0.033333
0.415040 -0.174047 0.016667
0.414349 -0.171730 0.000000
0.413887 -0.170518 -0.016667
0.413553 -0.169652 -0.033333
0.413997 -0.162736 0.033333
0.413543 -0.158540 0.016667
0.412993 -0.156325 0.000000
0.412583 -0.155178 -0.016667
0.412303 -0.154394 -0.033333
0.412567 -0.146671 0.033333
0.412150 -0.142963 0.016667
0.411591 -0.140885 0.000000
0.411242 -0.139802 -0.016667
0.410987 -0.139088 -0.033333
0.411137 -0.130605 0.033333
0.410671 -0.127340 0.016667
0.410190 -0.125411 0.000000
0.409865 -0.124396 -0.016667
0.409636 -0.123740 -0.033333
0.409707 -0.114539 0.033333
0.409239 -0.111672 0.016667
0.408771 -0.109913 0.000000
0.408472 -0.108964 -0.016667
0.408261 -0.108365 -0.033333
0.408277 -0.098474 0.033333
0.407774 -0.095974 0.016667
0.407349 -0.094389 0.000000
0.407070 -0.093512 -0.016667
0.406871 -0.092963 -0.033333
0.406848 -0.082408 0.033333
0.406334 -0.080252 0.016667
0.405925 -0.078845 0.000000
0.405664 -0.078043 -0.016667
0.405477 -0.077540 -0.033333
0.405418 -0.066343 0.033333
0.404882 -0.064510 0.016667
0.404501 -0.063283 0.000000
0.404258 -0.062557 -0.016667
0.404081 -0.062096 -0.033333
0.403988 -0.050277 0.033333
0.403443 -0.048754 0.016667
0.403080 -0.047707 0.000000
0.402853 -0.047056 -0.016667
0.402688 -0.046635 -0.033333
0.402558 -0.034212 0.033333
0.402005 -0.032986 0.016667
0.401661 -0.032117 0.000000
0.401453 -0.031541 -0.016667
0.401297 -0.031156 -0.033333
0.401128 -0.018146 0.033333
0.400569 -0.017209 0.016667
0.400246 -0.016515 0.000000
0.400055 -0.016012 -0.016667
0.399910 -0.015659 -0.033333
0.399699 -0.002081 0.033333
0.399141 -0.001425 0.016667
0.398830 -0.000903 0.000000
0.398659 -0.000470 -0.016667
0.398524 -0.000146 -0.033333
0.398269 0.013985 0.033333
0.397704 0.014367 0.016667
0.397419 0.014716 0.000000
0.397262 0.015085 -0.016667
0.397137 0.015383 -0.033333
0.396839 0.030050 0.033333
0.396280 0.030157 0.016667
0.395997 0.030344 0.000000
0.395862 0.030651 -0.016667
0.395747 0.030927 -0.033333
0.395409 0.046116 0.033333
0.394829 0.045955 0.016667
0.394578 0.045970 0.000000
0.394453 0.046227 -0.016667
0.394346 0.046482 -0.033333
0.393979 0.062181 0.033333
0.393400 0.061733 0.016667
0.393134 0.061604 0.000000
0.393033 0.061806 -0.016667
0.392935 0.062045 -0.033333
0.392549 0.078247 0.033333
0.391915 0.077527 0.016667
0.391692 0.077213 0.000000
0.391594 0.077389 -0.016667
0.391499 0.077610 -0.033333
0.391120 0.094312 0.033333
0.390460 0.093250 0.016667
0.390209 0.092833 0.000000
0.390135 0.092960 -0.016667
0.390049 0.093167 -0.033333
0.389690 0.110378 0.033333
0.388936 0.109003 0.016667
0.388721 0.108391 0.000000
0.388653 0.108524 -0.016667
0.388567 0.108714 -0.033333
0.388260 0.126443 0.033333
0.387440 0.124609 0.016667
0.387200 0.123956 0.000000
0.387150 0.124060 -0.016667
0.387071 0.124229 -0.033333
0.386830 0.142509 0.033333
0.385908 0.140247 0.016667
0.385676 0.139441 0.000000
0.385631 0.139566 -0.016667
0.385559 0.139735 -0.033333
0.385401 0.158575 0.033333
0.384389 0.155720 0.016667
0.384153 0.154917 0.000000
0.384108 0.155058 -0.016667
0.384037 0.155186 -0.033333
0.383971 0.174640 0.033333
0.382894 0.171213 0.016667
0.382625 0.170353 0.000000
0.382579 0.170511 -0.016667
0.382515 0.170642 -0.033333
0.382541 0.190705 0.033333
0.381424 0.186620 0.016667
0.381108 0.185791 0.000000
0.381040 0.185966 -0.016667
0.380981 0.186057 -0.033333
0.381111 0.206771 0.033333
0.379920 0.202045 0.016667
0.379557 0.201242 0.000000
0.379474 0.201393 -0.016667
0.379409 0.201480 -0.033333
0.379681 0.222837 0.033333
0.378444 0.217353 0.016667
0.377907 0.216744 0.000000
0.377825 0.216781 -0.016667
0.377811 0.216897 -0.033333
0.378252 0.238902 0.033333
0.376669 0.232675 0.016667
0.376024 0.232265 0.000000
0.376100 0.232060 -0.016667
0.376103 0.232394 -0.033333
0.376822 0.254968 0.033333
0.374155 0.247366 0.016667
0.373903 0.247993 0.000000
0.374214 0.247038 -0.016667
0.374391 0.248104 -0.033333
0.370685 0.267930 0.033333
0.371117 0.263568 0.016667
0.371573 0.262314 0.000000
0.372280 0.262972 -0.016667
0.372690 0.262940 -0.033333
0.367407 0.282065 0.033333
0.368160 0.278254 0.016667
0.369433 0.277414 0.000000
0.370424 0.278208 -0.016667
0.371039 0.278366 -0.033333
0.365124 0.295876 0.033333
0.366170 0.293178 0.016667
0.367516 0.292510 0.000000
0.368775 0.293443 -0.016667
0.369545 0.293854 -0.033333
0.363862 0.310300 0.033333
0.364521 0.308055 0.016667
0.365989 0.307677 0.000000
0.367378 0.308781 -0.016667
0.368189 0.309329 -0.033333
0.362688 0.324972 0.033333
0.363373 0.323067 0.016667
0.364749 0.322937 0.000000
0.366188 0.324214 -0.016667
0.367077 0.324859 -0.033333
0.361961 0.339706 0.033333
0.362434 0.338216 0.016667
0.363767 0.338275 0.000000
0.365240 0.339748 -0.016667
0.366144 0.340461 -0.033333
0.361354 0.354743 0.033333
0.361789 0.353422 0.016667
0.363033 0.353701 0.000000
0.364512 0.355393 -0.016667
0.365431 0.356118 -0.033333
0.361209 0.369703 0.033333
0.361473 0.368730 0.016667
0.362593 0.369175 0.000000
0.364032 0.371151 -0.016667
0.364922 0.371840 -0.033333
0.361595 0.385025 0.033333
0.361703 0.384108 0.016667
0.362537 0.384703 0.000000
0.363801 0.387072 -0.016667
0.364586 0.387554 -0.033333
0.389543 -0.487790 0.033333
0.394787 -0.497751 0.016667
0.399845 -0.499935 0.000000
0.403121 -0.500887 -0.016667
0.404995 -0.502026 -0.033333
0.396163 -0.474412 0.033333
0.399138 -0.482672 0.016667
0.402468 -0.485618 0.000000
0.404912 -0.486364 -0.016667
0.406403 -0.487564 -0.033333
0.401482 -0.461317 0.033333
0.403390 -0.468379 0.016667
0.405608 -0.471380 0.000000
0.407343 -0.472188 -0.016667
0.408432 -0.473170 -0.033333
0.406023 -0.448579 0.033333
0.407327 -0.454598 0.016667
0.408857 -0.457428 0.000000
0.410071 -0.458241 -0.016667
0.410839 -0.459029 -0.033333
0.409996 -0.436164 0.033333
0.410934 -0.441233 0.016667
0.412026 -0.443775 0.000000
0.412882 -0.444528 -0.016667
0.413417 -0.445150 -0.033333
0.413520 -0.424042 0.033333
0.414224 -0.428223 0.016667
0.415029 -0.430405 0.000000
0.415642 -0.431047 -0.016667
0.416016 -0.431520 -0.033333
0.416667 -0.412183 0.033333
0.417214 -0.415521 0.016667
0.417825 -0.417290 0.000000
0.418273 -0.417785 -0.016667
0.418537 -0.418113 -0.033333
0.419493 -0.400560 0.033333
0.419924 -0.403086 0.016667
0.420396 -0.404403 0.000000
0.420729 -0.404720 -0.016667
0.420918 -0.404903 -0.033333
0.422039 -0.389148 0.033333
0.422379 -0.390880 0.016667
0.422743 -0.391712 0.000000
0.422990 -0.391824 -0.016667
0.423124 -0.391858 -0.033333
0.424352 -0.377909 0.033333
0.424610 -0.378859 0.016667
0.424877 -0.379182 0.000000
0.425052 -0.379065 -0.016667
0.425144 -0.378941 -0.033333
0.426479 -0.366804 0.033333
0.426655 -0.366979 0.016667
0.426819 -0.366768 0.000000
0.426925 -0.366404 -0.016667
0.426977 -0.366113 -0.033333
0.428467 -0.355776 0.033333
0.428551 -0.355171 0.016667
0.428600 -0.354421 0.000000
0.428625 -0.353796 -0.016667
0.428632 -0.353327 -0.033333
0.430348 -0.344752 0.033333
0.430343 -0.343372 0.016667
0.430244 -0.342075 0.000000
0.430171 -0.341191 -0.016667
0.430125 -0.340531 -0.033333
0.432173 -0.333671 0.033333
0.432034 -0.331476 0.016667
0.431775 -0.329663 0.000000
0.431583 -0.328522 -0.016667
0.431460 -0.327663 -0.033333
0.433903 -0.322566 0.033333
0.433685 -0.319444 0.016667
0.433200 -0.317079 0.000000
0.432853 -0.315721 -0.016667
0.432653 -0.314654 -0.033333
0.435959 -0.311450 0.033333
0.435222 -0.307104 0.016667
0.434497 -0.304233 0.000000
0.433989 -0.302713 -0.016667
0.433658 -0.301410 -0.033333
0.437582 -0.298948 0.033333
0.436793 -0.294334 0.016667
0.435593 -0.290997 0.000000
0.434908 -0.289384 -0.016667
0.434485 -0.287891 -0.033333
0.439110 -0.286841 0.033333
0.437777 -0.280352 0.016667
0.436429 -0.277348 0.000000
0.435553 -0.275684 -0.016667
0.435034 -0.273980 -0.033333
0.440072 -0.273765 0.033333
0.438149 -0.265195 0.016667
0.436780 -0.263879 0.000000
0.435896 -0.260745 -0.016667
0.435189 -0.260523 -0.033333
0.438642 -0.257699 0.033333
0.437824 -0.250349 0.016667
0.436642 -0.248728 0.000000
0.435693 -0.246562 -0.016667
0.435140 -0.245623 -0.033333
0.437212 -0.241634 0.033333
0.436870 -0.235420 0.016667
0.435982 -0.233337 0.000000
0.435185 -0.231811 -0.016667
0.434656 -0.230769 -0.033333
0.435782 -0.225568 0.033333
0.435737 -0.219804 0.016667
0.434983 -0.218002 0.000000
0.434332 -0.216711 -0.016667
0.433930 -0.215767 -0.033333
0.434352 -0.209503 0.033333
0.434303 -0.204451 0.016667
0.433793 -0.202512 0.000000
0.433291 -0.201468 -0.016667
0.432926 -0.200639 -0.033333
0.432922 -0.193437 0.033333
0.433022 -0.188831 0.016667
0.432446 -0.187048 0.000000
0.432091 -0.186120 -0.016667
0.431799 -0.185388 -0.033333
0.431492 -0.177372 0.033333
0.431509 -0.173331 0.016667
0.431090 -0.171548 0.000000
0.430790 -0.170705 -0.016667
0.430554 -0.170070 -0.033333
0.430062 -0.161306 0.033333
0.430123 -0.157739 0.016667
0.429653 -0.156032 0.000000
0.429451 -0.155254 -0.016667
0.429225 -0.154685 -0.033333
0.428633 -0.145241 0.033333
0.428598 -0.142131 0.016667
0.428237 -0.140492 0.000000
0.428050 -0.139772 -0.016667
0.427866 -0.139254 -0.033333
0.427203 -0.129175 0.033333
0.427145 -0.126446 0.016667
0.426795 -0.124945 0.000000
0.426633 -0.124257 -0.016667
0.426474 -0.123797 -0.033333
0.425773 -0.113110 0.033333
0.425650 -0.110739 0.016667
0.425352 -0.109369 0.000000
0.425205 -0.108728 -0.016667
0.425060 -0.108307 -0.033333
0.424343 -0.097044 0.033333
0.424193 -0.094996 0.016667
0.423904 -0.093776 0.000000
0.423771 -0.093181 -0.016667
0.423641 -0.092799 -0.033333
0.422913 -0.080979 0.033333
0.422720 -0.079235 0.016667
0.422458 -0.078165 0.000000
0.422338 -0.077622 -0.016667
0.422216 -0.077271 -0.033333
0.421483 -0.064913 0.033333
0.421269 -0.063456 0.016667
0.421016 -0.062540 0.000000
0.420906 -0.062049 -0.016667
0.420794 -0.061729 -0.033333
0.420054 -0.048848 0.033333
0.419814 -0.047666 0.016667
0.419577 -0.046903 0.000000
0.419479 -0.046466 -0.016667
0.419375 -0.046172 -0.033333
0.418624 -0.032782 0.033333
0.418369 -0.031865 0.016667
0.418143 -0.031256 0.000000
0.418056 -0.030873 -0.016667
0.417960 -0.030602 -0.033333
0.417194 -0.016716 0.033333
0.416929 -0.016058 0.016667
0.416712 -0.015601 0.000000
0.416638 -0.015270 -0.016667
0.416549 -0.015019 -0.033333
0.415764 -0.000651 0.033333
0.415489 -0.000245 0.016667
0.415286 0.000060 0.000000
0.415223 0.000342 -0.016667
0.415141 0.000575 -0.033333
0.414334 0.015414 0.033333
0.414059 0.015567 0.016667
0.413858 0.015726 0.000000
0.413809 0.015960 -0.016667
0.413736 0.016179 -0.033333
0.412904 0.031480 0.033333
0.412618 0.031384 0.016667
0.412434 0.031390 0.000000
0.412394 0.031585 -0.016667
0.412326 0.031792 -0.033333
0.411475 0.047546 0.033333
0.411192 0.047185 0.016667
0.410998 0.047057 0.000000
0.410975 0.047212 -0.016667
0.410915 0.047411 -0.033333
0.410045 0.063611 0.033333
0.409737 0.062995 0.016667
0.409566 0.062708 0.000000
0.409548 0.062841 -0.016667
0.409491 0.063032 -0.033333
0.408615 0.079677 0.033333
0.408305 0.078760 0.016667
0.408111 0.078360 0.000000
0.408110 0.078463 -0.016667
0.408059 0.078649 -0.033333
0.407185 0.095742 0.033333
0.406832 0.094541 0.016667
0.406654 0.093974 0.000000
0.406659 0.094081 -0.016667
0.406607 0.094261 -0.033333
0.405755 0.111808 0.033333
0.405384 0.110231 0.016667
0.405172 0.109588 0.000000
0.405191 0.109681 -0.016667
0.405145 0.109853 -0.033333
0.404326 0.127873 0.033333
0.403905 0.125940 0.016667
0.403683 0.125141 0.000000
0.403713 0.125268 -0.016667
0.403662 0.125430 -0.033333
0.402896 0.143939 0.033333
0.402450 0.141509 0.016667
0.402173 0.140699 0.000000
0.402227 0.140830 -0.016667
0.402164 0.140977 -0.033333
0.401466 0.160004 0.033333
0.400952 0.157078 0.016667
0.400677 0.156219 0.000000
0.400711 0.156356 -0.016667
0.400673 0.156522 -0.033333
0.400036 0.176070 0.033333
0.399454 0.172555 0.016667
0.399165 0.171719 0.000000
0.399198 0.171894 -0.016667
0.399163 0.172006 -0.033333
0.398607 0.192135 0.033333
0.397929 0.188051 0.016667
0.397643 0.187219 0.000000
0.397671 0.187382 -0.016667
0.397634 0.187505 -0.033333
0.397177 0.208201 0.033333
0.396420 0.203468 0.016667
0.396103 0.202719 0.000000
0.396094 0.202867 -0.016667
0.396099 0.202953 -0.033333
0.395747 0.224266 0.033333
0.394838 0.218896 0.016667
0.394464 0.218220 0.000000
0.394479 0.218285 -0.016667
0.394492 0.218409 -0.033333
0.394317 0.240332 0.033333
0.393156 0.234055 0.016667
0.392648 0.233781 0.000000
0.392763 0.233573 -0.016667
0.392852 0.233888 -0.033333
0.392888 0.256398 0.033333
0.390830 0.248988 0.016667
0.390606 0.249446 0.000000
0.390983 0.248526 -0.016667
0.391131 0.249614 -0.033333
0.387644 0.269815 0.033333
0.388035 0.264892 0.016667
0.388478 0.263823 0.000000
0.389083 0.264431 -0.016667
0.389495 0.264348 -0.033333
0.384549 0.283569 0.033333
0.385377 0.279954 0.016667
0.386375 0.278816 0.000000
0.387290 0.279569 -0.016667
0.387875 0.279740 -0.033333
0.382433 0.297746 0.033333
0.383218 0.294605 0.016667
0.384520 0.293819 0.000000
0.385659 0.294711 -0.016667
0.386355 0.295065 -0.033333
0.380749 0.311818 0.033333
0.381634 0.309359 0.016667
0.382941 0.308819 0.000000
0.384215 0.309876 -0.016667
0.385018 0.310413 -0.033333
0.379642 0.326110 0.033333
0.380305 0.324111 0.016667
0.381638 0.323855 0.000000
0.382996 0.325123 -0.016667
0.383836 0.325773 -0.033333
0.378666 0.340613 0.033333
0.379299 0.338951 0.016667
0.380573 0.338962 0.000000
0.381973 0.340460 -0.016667
0.382864 0.341192 -0.033333
0.378052 0.355171 0.033333
0.378528 0.353893 0.016667
0.379749 0.354140 0.000000
0.381175 0.355910 -0.016667
0.382080 0.356686 -0.033333
0.377724 0.370052 0.033333
0.378097 0.368933 0.016667
0.379202 0.369422 0.000000
0.380607 0.371500 -0.016667
0.381503 0.372243 -0.033333
0.377967 0.384971 0.033333
0.378134 0.384171 0.016667
0.378986 0.384791 0.000000
0.380274 0.387288 -0.016667
0.381118 0.387821 -0.033333
0.406809 -0.487813 0.033333
0.412376 -0.497856 0.016667
0.417649 -0.500079 0.000000
0.421061 -0.501080 -0.016667
0.423016 -0.502241 -0.033333
0.414354 -0.474521 0.033333
0.417265 -0.482855 0.016667
0.420592 -0.485867 0.000000
0.423047 -0.486648 -0.016667
0.424556 -0.487887 -0.033333
0.420359 -0.461542 0.033333
0.422048 -0.468670 0.016667
0.424107 -0.471736 0.000000
0.425755 -0.472580 -0.016667
0.426803 -0.473597 -0.033333
0.425475 -0.448933 0.033333
0.426476 -0.455011 0.016667
0.427745 -0.457900 0.000000
0.428797 -0.458746 -0.016667
0.429478 -0.459565 -0.033333
0.429960 -0.436646 0.033333
0.430537 -0.441770 0.016667
0.431296 -0.444365 0.000000
0.431933 -0.445149 -0.016667
0.432346 -0.445797 -0.033333
0.433952 -0.424637 0.033333
0.434249 -0.428876 0.016667
0.434663 -0.431109 0.000000
0.435011 -0.431781 -0.016667
0.435235 -0.432275 -0.033333
0.437532 -0.412865 0.033333
0.437629 -0.416273 0.016667
0.437798 -0.418099 0.000000
0.437941 -0.418624 -0.016667
0.438031 -0.418973 -0.033333
0.440749 -0.401295 0.033333
0.440693 -0.403910 0.016667
0.440675 -0.405299 0.000000
0.440666 -0.405652 -0.016667
0.440659 -0.405857 -0.033333
0.443640 -0.389884 0.033333
0.443457 -0.391738 0.016667
0.443285 -0.392671 0.000000
0.443157 -0.392832 -0.016667
0.443075 -0.392892 -0.033333
0.446231 -0.378599 0.033333
0.445935 -0.379708 0.016667
0.445627 -0.380170 0.000000
0.445396 -0.380125 -0.016667
0.445253 -0.380037 -0.033333
0.448547 -0.367388 0.033333
0.448144 -0.367762 0.016667
0.447707 -0.367748 0.000000
0.447381 -0.367487 -0.016667
0.447183 -0.367247 -0.033333
0.450611 -0.356205 0.033333
0.450102 -0.355849 0.016667
0.449532 -0.355350 0.000000
0.449113 -0.354870 -0.016667
0.448862 -0.354473 -0.033333
0.452452 -0.345016 0.033333
0.451815 -0.343892 0.016667
0.451112 -0.342917 0.000000
0.450599 -0.342219 -0.016667
0.450289 -0.341659 -0.033333
0.454076 -0.333760 0.033333
0.453318 -0.331848 0.016667
0.452449 -0.330370 0.000000
0.451833 -0.329471 -0.016667
0.451473 -0.328745 -0.033333
0.455622 -0.322318 0.033333
0.454561 -0.319564 0.016667
0.453530 -0.317636 0.000000
0.452825 -0.316561 -0.016667
0.452393 -0.315653 -0.033333
0.456570 -0.310232 0.033333
0.455580 -0.306956 0.016667
0.454326 -0.304612 0.000000
0.453533 -0.303402 -0.016667
0.453066 -0.302334 -0.033333
0.457376 -0.298424 0.033333
0.456052 -0.293713 0.016667
0.454796 -0.291193 0.000000
0.453959 -0.289968 -0.016667
0.453440 -0.288660 -0.033333
0.457529 -0.285306 0.033333
0.456181 -0.280005 0.016667
0.454830 -0.277335 0.000000
0.454061 -0.276080 -0.016667
0.453540 -0.274715 -0.033333
0.456137 -0.272335 0.033333
0.455394 -0.264274 0.016667
0.454604 -0.263805 0.000000
0.453792 -0.261109 -0.016667
0.453323 -0.261034 -0.033333
0.454707 -0.256269 0.033333
0.454533 -0.249849 0.016667
0.453859 -0.248493 0.000000
0.453261 -0.246816 -0.016667
0.452816 -0.246109 -0.033333
0.453277 -0.240204 0.033333
0.453382 -0.234512 0.016667
0.452927 -0.233181 0.000000
0.452403 -0.231964 -0.016667
0.452087 -0.231128 -0.033333
0.451847 -0.224138 0.033333
0.452068 -0.219218 0.016667
0.451770 -0.217695 0.000000
0.451380 -0.216801 -0.016667
0.451098 -0.216048 -0.033333
0.450418 -0.208073 0.033333
0.450773 -0.203518 0.016667
0.450473 -0.202233 0.000000
0.450187 -0.201433 -0.016667
0.449979 -0.200828 -0.033333
0.448988 -0.192007 0.033333
0.449389 -0.187943 0.016667
0.449053 -0.186703 0.000000
0.448957 -0.185947 -0.016667
0.448669 -0.185534 -0.033333
0.447558 -0.175942 0.033333
0.448113 -0.172323 0.016667
0.447568 -0.171065 0.000000
0.447640 -0.170498 -0.016667
0.447316 -0.170057 -0.033333
0.446128 -0.159876 0.033333
0.446541 -0.156755 0.016667
0.446185 -0.155427 0.000000
0.446199 -0.154978 -0.016667
0.445967 -0.154560 -0.033333
0.444698 -0.143811 0.033333
0.445058 -0.141046 0.016667
0.444739 -0.139839 0.000000
0.444753 -0.139390 -0.016667
0.444571 -0.139054 -0.033333
0.443268 -0.127745 0.033333
0.443524 -0.125341 0.016667
0.443285 -0.124216 0.000000
0.443298 -0.123800 -0.016667
0.443144 -0.123500 -0.033333
0.441838 -0.111680 0.033333
0.442046 -0.109586 0.016667
0.441821 -0.108588 0.000000
0.441837 -0.108191 -0.016667
0.441708 -0.107929 -0.033333
0.440409 -0.095614 0.033333
0.440549 -0.093823 0.016667
0.440359 -0.092940 0.000000
0.440379 -0.092575 -0.016667
0.440262 -0.092337 -0.033333
0.438979 -0.079549 0.033333
0.439082 -0.078035 0.016667
0.438899 -0.077282 0.000000
0.438921 -0.076947 -0.016667
0.438819 -0.076732 -0.033333
0.437549 -0.063483 0.033333
0.437611 -0.062239 0.016667
0.437444 -0.061611 0.000000
0.437470 -0.061312 -0.016667
0.437376 -0.061113 -0.033333
0.436119 -0.047418 0.033333
0.436156 -0.046429 0.016667
0.435994 -0.045932 0.000000
0.436024 -0.045668 -0.016667
0.435940 -0.045485 -0.033333
0.434689 -0.031352 0.033333
0.434704 -0.030615 0.016667
0.434549 -0.030246 0.000000
0.434586 -0.030018 -0.016667
0.434508 -0.029848 -0.033333
0.433259 -0.015287 0.033333
0.433259 -0.014793 0.016667
0.433111 -0.014555 0.000000
0.433153 -0.014362 -0.016667
0.433081 -0.014202 -0.033333
0.431830 0.000779 0.033333
0.431823 0.001027 0.016667
0.431675 0.001139 0.000000
0.431726 0.001298 -0.016667
0.431660 0.001451 -0.033333
0.430400 0.016844 0.033333
0.430386 0.016851 0.016667
0.430245 0.016832 0.000000
0.430302 0.016963 -0.016667
0.430240 0.017110 -0.033333
0.428970 0.032910 0.033333
0.428962 0.032663 0.016667
0.428813 0.032524 0.000000
0.428880 0.032627 -0.016667
0.428822 0.032773 -0.033333
0.427540 0.048975 0.033333
0.427526 0.048478 0.016667
0.427384 0.048205 0.000000
0.427458 0.048293 -0.016667
0.427401 0.048438 -0.033333
0.426110 0.065041 0.033333
0.426106 0.064262 0.016667
0.425945 0.063883 0.000000
0.426031 0.063953 -0.016667
0.425978 0.064101 -0.033333
0.424681 0.081106 0.033333
0.424666 0.080052 0.016667
0.424507 0.079534 0.000000
0.424600 0.079610 -0.016667
0.424543 0.079759 -0.033333
0.423251 0.097172 0.033333
0.423245 0.095782 0.016667
0.423053 0.095180 0.000000
0.423158 0.095253 -0.016667
0.423103 0.095406 -0.033333
0.421821 0.113237 0.033333
0.421804 0.111524 0.016667
0.421594 0.110780 0.000000
0.421710 0.110890 -0.016667
0.421646 0.111039 -0.033333
0.420391 0.129303 0.033333
0.420387 0.127172 0.016667
0.420115 0.126378 0.000000
0.420251 0.126508 -0.016667
0.420179 0.126651 -0.033333
0.418961 0.145369 0.033333
0.418958 0.142836 0.016667
0.418619 0.141918 0.000000
0.418788 0.142125 -0.016667
0.418695 0.142232 -0.033333
0.417532 0.161434 0.033333
0.417555 0.158349 0.016667
0.417071 0.157500 0.000000
0.417343 0.157699 -0.016667
0.417177 0.157804 -0.033333
0.416102 0.177500 0.033333
0.415973 0.173840 0.016667
0.415610 0.173114 0.000000
0.415812 0.173190 -0.016667
0.415714 0.173420 -0.033333
0.414672 0.193565 0.033333
0.414379 0.189358 0.016667
0.414160 0.188622 0.000000
0.414242 0.188762 -0.016667
0.414266 0.188904 -0.033333
0.413242 0.209631 0.033333
0.412823 0.204894 0.016667
0.412630 0.204119 0.000000
0.412701 0.204279 -0.016667
0.412744 0.204384 -0.033333
0.411813 0.225696 0.033333
0.411279 0.220249 0.016667
0.411033 0.219643 0.000000
0.411114 0.219718 -0.016667
0.411198 0.219837 -0.033333
0.410383 0.241762 0.033333
0.409621 0.235512 0.016667
0.409285 0.235182 0.000000
0.409483 0.234991 -0.016667
0.409590 0.235335 -0.033333
0.408953 0.257827 0.033333
0.407486 0.250287 0.016667
0.407403 0.250860 0.000000
0.407763 0.249929 -0.016667
0.407970 0.251008 -0.033333
0.404552 0.271180 0.033333
0.405002 0.266424 0.016667
0.405410 0.265169 0.000000
0.405991 0.265771 -0.016667
0.406381 0.265723 -0.033333
0.401803 0.285276 0.033333
0.402517 0.281244 0.016667
0.403467 0.280120 0.000000
0.404277 0.280860 -0.016667
0.404819 0.280988 -0.033333
0.399687 0.299120 0.033333
0.400562 0.295964 0.016667
0.401671 0.295007 0.000000
0.402692 0.295867 -0.016667
0.403347 0.296238 -0.033333
0.398153 0.313151 0.033333
0.398900 0.310476 0.016667
0.400116 0.309848 0.000000
0.401268 0.310903 -0.016667
0.401992 0.311425 -0.033333
0.396823 0.327185 0.033333
0.397573 0.325037 0.016667
0.398773 0.324696 0.000000
0.400005 0.325972 -0.016667
0.400802 0.326639 -0.033333
0.395829 0.341334 0.033333
0.396435 0.339622 0.016667
0.397630 0.339583 0.000000
0.398928 0.341129 -0.016667
0.399760 0.341894 -0.033333
0.394996 0.355714 0.033333
0.395542 0.354310 0.016667
0.396692 0.354560 0.000000
0.398032 0.356402 -0.016667
0.398905 0.357222 -0.033333
0.394510 0.370223 0.033333
0.394913 0.369150 0.016667
0.395984 0.369649 0.000000
0.397347 0.371835 -0.016667
0.398238 0.372634 -0.033333
0.394465 0.385140 0.033333
0.394666 0.384222 0.016667
0.395553 0.384878 0.000000
0.396873 0.387497 -0.016667
0.397782 0.388071 -0.033333
0.424118 -0.487803 0.033333
0.430064 -0.497880 0.016667
0.435559 -0.500130 0.000000
0.439110 -0.501178 -0.016667
0.441152 -0.502353 -0.033333
0.432675 -0.474552 0.033333
0.435534 -0.482918 0.016667
0.438852 -0.485990 0.000000
0.441313 -0.486805 -0.016667
0.442838 -0.488080 -0.033333
0.439421 -0.461631 0.033333
0.440883 -0.468799 0.016667
0.442767 -0.471928 0.000000
0.444318 -0.472811 -0.016667
0.445318 -0.473862 -0.033333
0.445143 -0.449089 0.033333
0.445825 -0.455210 0.016667
0.446814 -0.458163 0.000000
0.447691 -0.459052 -0.016667
0.448276 -0.459902 -0.033333
0.450147 -0.436862 0.033333
0.450351 -0.442035 0.016667
0.450759 -0.444698 0.000000
0.451161 -0.445526 -0.016667
0.451443 -0.446206 -0.033333
0.454594 -0.424896 0.033333
0.454480 -0.429196 0.016667
0.454491 -0.431504 0.000000
0.454561 -0.432225 -0.016667
0.454627 -0.432752 -0.033333
0.458570 -0.413145 0.033333
0.458228 -0.416630 0.016667
0.457954 -0.418543 0.000000
0.457785 -0.419126 -0.016667
0.457695 -0.419509 -0.033333
0.462125 -0.401564 0.033333
0.461607 -0.404279 0.016667
0.461114 -0.405776 0.000000
0.460765 -0.406198 -0.016667
0.460561 -0.406442 -0.033333
0.465284 -0.390116 0.033333
0.464621 -0.392092 0.016667
0.463950 -0.393158 0.000000
0.463460 -0.393404 -0.016667
0.463167 -0.393512 -0.033333
0.468066 -0.378753 0.033333
0.467275 -0.380014 0.016667
0.466451 -0.380643 0.000000
0.465842 -0.380704 -0.016667
0.465477 -0.380674 -0.033333
0.470485 -0.367439 0.033333
0.469573 -0.367996 0.016667
0.468609 -0.368179 0.000000
0.467896 -0.368050 -0.016667
0.467469 -0.367883 -0.033333
0.472550 -0.356128 0.033333
0.471514 -0.355974 0.016667
0.470418 -0.355715 0.000000
0.469613 -0.355394 -0.016667
0.469130 -0.355086 -0.033333
0.474262 -0.344747 0.033333
0.473106 -0.343898 0.016667
0.471873 -0.343186 0.000000
0.470983 -0.342678 -0.016667
0.470456 -0.342231 -0.033333
0.475643 -0.333231 0.033333
0.474314 -0.331653 0.016667
0.472962 -0.330528 0.000000
0.472006 -0.329848 -0.016667
0.471432 -0.329250 -0.033333
0.476460 -0.321413 0.033333
0.475138 -0.319193 0.016667
0.473665 -0.317658 0.000000
0.472658 -0.316828 -0.016667
0.472071 -0.316093 -0.033333
0.476997 -0.309622 0.033333
0.475414 -0.306339 0.016667
0.473945 -0.304487 0.000000
0.472950 -0.303579 -0.016667
0.472348 -0.302661 -0.033333
0.476694 -0.296861 0.033333
0.475240 -0.293133 0.016667
0.473751 -0.290933 0.000000
0.472858 -0.289994 -0.016667
0.472302 -0.288945 -0.033333
0.475478 -0.284060 0.033333
0.474180 -0.278979 0.016667
0.473153 -0.276991 0.000000
0.472404 -0.276058 -0.016667
0.471939 -0.274847 -0.033333
0.472202 -0.270905 0.033333
0.472717 -0.263566 0.016667
0.472189 -0.263313 0.000000
0.471680 -0.260990 -0.016667
0.471266 -0.261134 -0.033333
0.470773 -0.254840 0.033333
0.471180 -0.248819 0.016667
0.471068 -0.248014 0.000000
0.470670 -0.246654 -0.016667
0.470430 -0.246083 -0.033333
0.469343 -0.238774 0.033333
0.469832 -0.233733 0.016667
0.469784 -0.232621 0.000000
0.469559 -0.231729 -0.016667
0.469357 -0.231080 -0.033333
0.467913 -0.222709 0.033333
0.468459 -0.218170 0.016667
0.468468 -0.217168 0.000000
0.468299 -0.216502 -0.016667
0.468181 -0.215911 -0.033333
0.466483 -0.206643 0.033333
0.467034 -0.202626 0.016667
0.467076 -0.201611 0.000000
0.466987 -0.201081 -0.016667
0.466874 -0.200631 -0.033333
0.465053 -0.190578 0.033333
0.465674 -0.186734 0.016667
0.465643 -0.186152 0.000000
0.465608 -0.185444 -0.016667
0.465515 -0.185328 -0.033333
0.463938 -0.173772 0.033333
0.464181 -0.171429 0.016667
0.464226 -0.170233 0.000000
0.464164 -0.170091 -0.016667
0.464133 -0.169638 -0.033333
0.462346 -0.157672 0.033333
0.462786 -0.155624 0.016667
0.462748 -0.154626 0.000000
0.462724 -0.154431 -0.016667
0.462697 -0.154129 -0.033333
0.460927 -0.141600 0.033333
0.461243 -0.139905 0.016667
0.461285 -0.138961 0.000000
0.461257 -0.138787 -0.016667
0.461245 -0.138545 -0.033333
0.459462 -0.125571 0.033333
0.459770 -0.124125 0.016667
0.459796 -0.123303 0.000000
0.459785 -0.123122 -0.016667
0.459784 -0.122934 -0.033333
0.458027 -0.109557 0.033333
0.458264 -0.108356 0.016667
0.458311 -0.107627 0.000000
0.458313 -0.107456 -0.016667
0.458313 -0.107297 -0.033333
0.456584 -0.093551 0.033333
0.456795 -0.092560 0.016667
0.456829 -0.091944 0.000000
0.456840 -0.091783 -0.016667
0.456846 -0.091646 -0.033333
0.455150 -0.077549 0.033333
0.455315 -0.076762 0.016667
0.455352 -0.076250 0.000000
0.455374 -0.076105 -0.016667
0.455379 -0.075982 -0.033333
0.453715 -0.061548 0.033333
0.453856 -0.060948 0.016667
0.453884 -0.060549 0.000000
0.453911 -0.060421 -0.016667
0.453920 -0.060309 -0.033333
0.452283 -0.045548 0.033333
0.452397 -0.045132 0.016667
0.452422 -0.044841 0.000000
0.452457 -0.044734 -0.016667
0.452466 -0.044629 -0.033333
0.450854 -0.029547 0.033333
0.450949 -0.029308 0.016667
0.450970 -0.029129 0.000000
0.451010 -0.029042 -0.016667
0.451020 -0.028943 -0.033333
0.449428 -0.013547 0.033333
0.449508 -0.013484 0.016667
0.449523 -0.013414 0.000000
0.449570 -0.013347 -0.016667
0.449582 -0.013251 -0.033333
0.448005 0.002451 0.033333
0.448072 0.002343 0.016667
0.448086 0.002300 0.000000
0.448136 0.002349 -0.016667
0.448150 0.002446 -0.033333
0.446583 0.018445 0.033333
0.446646 0.018161 0.016667
0.446652 0.018013 0.000000
0.446708 0.018045 -0.016667
0.446724 0.018145 -0.033333
0.445167 0.034436 0.033333
0.445219 0.033978 0.016667
0.445225 0.033717 0.000000
0.445284 0.033740 -0.016667
0.445301 0.033845 -0.033333
0.443751 0.050417 0.033333
0.443805 0.049774 0.016667
0.443797 0.049415 0.000000
0.443860 0.049431 -0.016667
0.443881 0.049543 -0.033333
0.442342 0.066391 0.033333
0.442382 0.065567 0.016667
0.442374 0.065095 0.000000
0.442438 0.065117 -0.016667
0.442457 0.065239 -0.033333
0.440931 0.082352 0.033333
0.440975 0.081320 0.016667
0.440944 0.080763 0.000000
0.441010 0.080794 -0.016667
0.441033 0.080925 -0.033333
0.439531 0.098307 0.033333
0.439553 0.097072 0.016667
0.439513 0.096401 0.000000
0.439579 0.096461 -0.016667
0.439600 0.096603 -0.033333
0.438119 0.114250 0.033333
0.438148 0.112764 0.016667
0.438069 0.112027 0.000000
0.438139 0.112118 -0.016667
0.438163 0.112262 -0.033333
0.436736 0.130202 0.033333
0.436721 0.128465 0.016667
0.436618 0.127612 0.000000
0.436690 0.127768 -0.016667
0.436713 0.127902 -0.033333
0.435298 0.146175 0.033333
0.435316 0.144090 0.016667
0.435133 0.143197 0.000000
0.435236 0.143406 -0.016667
0.435255 0.143514 -0.033333
0.433998 0.162220 0.033333
0.433798 0.159764 0.016667
0.433653 0.158724 0.000000
0.433763 0.159059 -0.016667
0.433793 0.159076 -0.033333
0.432167 0.178929 0.033333
0.432344 0.174972 0.016667
0.432118 0.174563 0.000000
0.432312 0.174433 -0.016667
0.432306 0.174842 -0.033333
0.430738 0.194995 0.033333
0.430750 0.190700 0.016667
0.430649 0.189978 0.000000
0.430803 0.190116 -0.016667
0.430855 0.190277 -0.033333
0.429308 0.211060 0.033333
0.429218 0.206210 0.016667
0.429155 0.205495 0.000000
0.429290 0.205655 -0.016667
0.429393 0.205762 -0.033333
0.427878 0.227126 0.033333
0.427689 0.221652 0.016667
0.427606 0.221009 0.000000
0.427774 0.221091 -0.016667
0.427895 0.221232 -0.033333
0.426448 0.243191 0.033333
0.426107 0.236828 0.016667
0.425969 0.236544 0.000000
0.426219 0.236362 -0.016667
0.426384 0.236697 -0.033333
0.425019 0.259257 0.033333
0.424184 0.251695 0.016667
0.424219 0.252193 0.000000
0.424635 0.251247 -0.016667
0.424841 0.252369 -0.033333
0.421416 0.272728 0.033333
0.421972 0.267677 0.016667
0.422440 0.266463 0.000000
0.422979 0.267065 -0.016667
0.423364 0.266988 -0.033333
0.419076 0.286601 0.033333
0.419822 0.282614 0.016667
0.420660 0.281328 0.000000
0.421389 0.282054 -0.016667
0.421889 0.282203 -0.033333
0.417241 0.300533 0.033333
0.417989 0.297100 0.016667
0.418998 0.296105 0.000000
0.419891 0.296971 -0.016667
0.420471 0.297318 -0.033333
0.415684 0.314281 0.033333
0.416449 0.311536 0.016667
0.417492 0.310802 0.000000
0.418496 0.311852 -0.016667
0.419153 0.312397 -0.033333
0.414416 0.328130 0.033333
0.415067 0.325853 0.016667
0.416137 0.325463 0.000000
0.417227 0.326772 -0.016667
0.417933 0.327452 -0.033333
0.413244 0.342057 0.033333
0.413858 0.340236 0.016667
0.414918 0.340163 0.000000
0.416078 0.341756 -0.016667
0.416845 0.342556 -0.033333
0.412273 0.356123 0.033333
0.412789 0.354699 0.016667
0.413843 0.354941 0.000000
0.415076 0.356866 -0.016667
0.415895 0.357732 -0.033333
0.411488 0.370511 0.033333
0.411916 0.369340 0.016667
0.412936 0.369865 0.000000
0.414241 0.372150 -0.016667
0.415125 0.373000 -0.033333
0.411082 0.385157 0.033333
0.411304 0.384272 0.016667
0.412223 0.384958 0.000000
0.413592 0.387694 -0.016667
0.414580 0.388309 -0.033333
0.441436 -0.487760 0.033333
0.447818 -0.497828 0.016667
0.453539 -0.500095 0.000000
0.457234 -0.501189 -0.016667
0.459366 -0.502373 -0.033333
0.451069 -0.474513 0.033333
0.453901 -0.482872 0.016667
0.457209 -0.485997 0.000000
0.459671 -0.486843 -0.016667
0.461212 -0.488151 -0.033333
0.458601 -0.461599 0.033333
0.459839 -0.468778 0.016667
0.461543 -0.471966 0.000000
0.462990 -0.472889 -0.016667
0.463939 -0.473973 -0.033333
0.464946 -0.449070 0.033333
0.465311 -0.455213 0.016667
0.466012 -0.458232 0.000000
0.466705 -0.459169 -0.016667
0.467190 -0.460053 -0.033333
0.470470 -0.436850 0.033333
0.470303 -0.442057 0.016667
0.470355 -0.444795 0.000000
0.470517 -0.445678 -0.016667
0.470663 -0.446392 -0.033333
0.475355 -0.424878 0.033333
0.474838 -0.429228 0.016667
0.474448 -0.431620 0.000000
0.474238 -0.432405 -0.016667
0.474142 -0.432969 -0.033333
0.479696 -0.413101 0.033333
0.478931 -0.416655 0.016667
0.478225 -0.418668 0.000000
0.477746 -0.419324 -0.016667
0.477476 -0.419749 -0.033333
0.483542 -0.401478 0.033333
0.482588 -0.404280 0.016667
0.481642 -0.405894 0.000000
0.480963 -0.406402 -0.016667
0.480566 -0.406695 -0.033333
0.486918 -0.389960 0.033333
0.485809 -0.392049 0.016667
0.484671 -0.393254 0.000000
0.483837 -0.393600 -0.016667
0.483341 -0.393764 -0.033333
0.489832 -0.378514 0.033333
0.488588 -0.379911 0.016667
0.487289 -0.380699 0.000000
0.486330 -0.380876 -0.016667
0.485757 -0.380914 -0.033333
0.492288 -0.367087 0.033333
0.490918 -0.367806 0.016667
0.489480 -0.368180 0.000000
0.488416 -0.368184 -0.016667
0.487780 -0.368095 -0.033333
0.494278 -0.355625 0.033333
0.492793 -0.355687 0.016667
0.491227 -0.355640 0.000000
0.490077 -0.355472 -0.016667
0.489392 -0.355258 -0.033333
0.495789 -0.344090 0.033333
0.494183 -0.343467 0.016667
0.492513 -0.343024 0.000000
0.491299 -0.342690 -0.016667
0.490574 -0.342345 -0.033333
0.496732 -0.332377 0.033333
0.495076 -0.331112 0.016667
0.493319 -0.330262 0.000000
0.492065 -0.329774 -0.016667
0.491327 -0.329307 -0.033333
0.497223 -0.320582 0.033333
0.495385 -0.318486 0.016667
0.493612 -0.317283 0.000000
0.492376 -0.316679 -0.016667
0.491637 -0.316064 -0.033333
0.496837 -0.308180 0.033333
0.495125 -0.305581 0.016667
0.493363 -0.304014 0.000000
0.492216 -0.303317 -0.016667
0.491537 -0.302585 -0.033333
0.495693 -0.295775 0.033333
0.494028 -0.292088 0.016667
0.492571 -0.290373 0.000000
0.491623 -0.289683 -0.016667
0.491036 -0.288759 -0.033333
0.493286 -0.282522 0.033333
0.492162 -0.278110 0.016667
0.491283 -0.276341 0.000000
0.490652 -0.275637 -0.016667
0.490223 -0.274649 -0.033333
0.488268 -0.269475 0.033333
0.489831 -0.262479 0.016667
0.489777 -0.262595 0.000000
0.489403 -0.260586 -0.016667
0.489154 -0.260791 -0.033333
0.486838 -0.253410 0.033333
0.487848 -0.247899 0.016667
0.488153 -0.247267 0.000000
0.488045 -0.246157 -0.016667
0.487907 -0.245755 -0.033333
0.485408 -0.237344 0.033333
0.486270 -0.232611 0.016667
0.486613 -0.231884 0.000000
0.486602 -0.231207 -0.016667
0.486567 -0.230670 -0.033333
0.483978 -0.221279 0.033333
0.484777 -0.217202 0.016667
0.485099 -0.216380 0.000000
0.485160 -0.215933 -0.016667
0.485142 -0.215479 -0.033333
0.482549 -0.205213 0.033333
0.483312 -0.201472 0.016667
0.483620 -0.200844 0.000000
0.483683 -0.200456 -0.016667
0.483704 -0.200147 -0.033333
0.481119 -0.189148 0.033333
0.481825 -0.185719 0.016667
0.482158 -0.185276 0.000000
0.482201 -0.184813 -0.016667
0.482236 -0.184770 -0.033333
0.479933 -0.172553 0.033333
0.480453 -0.170196 0.016667
0.480656 -0.169383 0.000000
0.480725 -0.169373 -0.016667
0.480758 -0.169054 -0.033333
0.478565 -0.156244 0.033333
0.478969 -0.154481 0.016667
0.479184 -0.153682 0.000000
0.479238 -0.153688 -0.016667
0.479269 -0.153478 -0.033333
0.477098 -0.140154 0.033333
0.477521 -0.138651 0.016667
0.477689 -0.138002 0.000000
0.477746 -0.137980 -0.016667
0.477784 -0.137852 -0.033333
0.475676 -0.124090 0.033333
0.476012 -0.122871 0.016667
0.476198 -0.122296 0.000000
0.476257 -0.122274 -0.016667
0.476292 -0.122188 -0.033333
0.474229 -0.108067 0.033333
0.474542 -0.107060 0.016667
0.474703 -0.106590 0.000000
0.474766 -0.106564 -0.016667
0.474806 -0.106503 -0.033333
0.472794 -0.092056 0.033333
0.473053 -0.091260 0.016667
0.473213 -0.090874 0.000000
0.473283 -0.090852 -0.016667
0.473320 -0.090805 -0.033333
0.471354 -0.076055 0.033333
0.471588 -0.075444 0.016667
0.471731 -0.075153 0.000000
0.471804 -0.075137 -0.016667
0.471843 -0.075098 -0.033333
0.469919 -0.060058 0.033333
0.470120 -0.059629 0.016667
0.470256 -0.059427 0.000000
0.470333 -0.059419 -0.016667
0.470372 -0.059384 -0.033333
0.468485 -0.044062 0.033333
0.468666 -0.043804 0.016667
0.468790 -0.043698 0.000000
0.468870 -0.043699 -0.016667
0.468910 -0.043664 -0.033333
0.467056 -0.028069 0.033333
0.467217 -0.027980 0.016667
0.467333 -0.027965 0.000000
0.467416 -0.027978 -0.016667
0.467456 -0.027941 -0.033333
0.465633 -0.012076 0.033333
0.465779 -0.012151 0.016667
0.465886 -0.012233 0.000000
0.465971 -0.012255 -0.016667
0.466011 -0.012214 -0.033333
0.464214 0.003913 0.033333
0.464349 0.003671 0.016667
0.464447 0.003499 0.000000
0.464533 0.003467 -0.016667
0.464574 0.003515 -0.033333
0.462802 0.019900 0.033333
0.462926 0.019492 0.016667
0.463018 0.019224 0.000000
0.463104 0.019187 -0.016667
0.463145 0.019244 -0.033333
0.461395 0.035877 0.033333
0.461515 0.035296 0.016667
0.461594 0.034943 0.000000
0.461680 0.034904 -0.016667
0.461722 0.034972 -0.033333
0.459997 0.051848 0.033333
0.460104 0.051096 0.016667
0.460178 0.050647 0.000000
0.460262 0.050615 -0.016667
0.460302 0.050697 -0.033333
0.458602 0.067805 0.033333
0.458708 0.066865 0.016667
0.458763 0.066339 0.000000
0.458844 0.066319 -0.016667
0.458885 0.066415 -0.033333
0.457217 0.083755 0.033333
0.457305 0.082627 0.016667
0.457350 0.082008 0.000000
0.457428 0.082013 -0.016667
0.457466 0.082127 -0.033333
0.455825 0.099692 0.033333
0.455914 0.098345 0.016667
0.455931 0.097660 0.000000
0.456005 0.097698 -0.016667
0.456047 0.097824 -0.033333
0.454448 0.115630 0.033333
0.454506 0.114062 0.016667
0.454506 0.113282 0.000000
0.454578 0.113373 -0.016667
0.454619 0.113509 -0.033333
0.453032 0.131581 0.033333
0.453103 0.129724 0.016667
0.453061 0.128891 0.000000
0.453141 0.129041 -0.016667
0.453188 0.129168 -0.033333
0.451641 0.147569 0.033333
0.451640 0.145415 0.016667
0.451603 0.144460 0.000000
0.451694 0.144711 -0.016667
0.451751 0.144797 -0.033333
0.450074 0.163767 0.033333
0.450156 0.160997 0.016667
0.450108 0.160044 0.000000
0.450246 0.160371 -0.016667
0.450310 0.160383 -0.033333
0.448233 0.180359 0.033333
0.448621 0.176299 0.016667
0.448617 0.175888 0.000000
0.448794 0.175755 -0.016667
0.448871 0.176181 -0.033333
0.446803 0.196424 0.033333
0.447081 0.191977 0.016667
0.447139 0.191346 0.000000
0.447341 0.191441 -0.016667
0.447448 0.191633 -0.033333
0.445373 0.212490 0.033333
0.445580 0.207578 0.016667
0.445675 0.206840 0.000000
0.445892 0.207001 -0.016667
0.446033 0.207117 -0.033333
0.443944 0.228556 0.033333
0.444103 0.222966 0.016667
0.444203 0.222354 0.000000
0.444448 0.222438 -0.016667
0.444624 0.222570 -0.033333
0.442514 0.244621 0.033333
0.442604 0.238203 0.016667
0.442680 0.237873 0.000000
0.443009 0.237677 -0.016667
0.443206 0.238034 -0.033333
0.441084 0.260687 0.033333
0.440910 0.252969 0.016667
0.441107 0.253498 0.000000
0.441562 0.252536 -0.016667
0.441792 0.253652 -0.033333
0.438366 0.274109 0.033333
0.439026 0.269042 0.016667
0.439551 0.267700 0.000000
0.440068 0.268287 -0.016667
0.440437 0.268228 -0.033333
0.436496 0.288044 0.033333
0.437208 0.283790 0.016667
0.437989 0.282483 0.000000
0.438629 0.283214 -0.016667
0.439077 0.283334 -0.033333
0.434914 0.301723 0.033333
0.435636 0.298270 0.016667
0.436488 0.297148 0.000000
0.437244 0.298000 -0.016667
0.437751 0.298369 -0.033333
0.433549 0.315405 0.033333
0.434183 0.312463 0.016667
0.435070 0.311689 0.000000
0.435913 0.312762 -0.016667
0.436469 0.313302 -0.033333
0.432233 0.328993 0.033333
0.432830 0.326643 0.016667
0.433719 0.326188 0.000000
0.434635 0.327518 -0.016667
0.435250 0.328229 -0.033333
0.430999 0.342692 0.033333
0.431520 0.340789 0.016667
0.432424 0.340696 0.000000
0.433424 0.342349 -0.016667
0.434097 0.343179 -0.033333
0.429787 0.356571 0.033333
0.430267 0.355062 0.016667
0.431192 0.355302 0.000000
0.432295 0.357300 -0.016667
0.433051 0.358212 -0.033333
0.428691 0.370694 0.033333
0.429097 0.369518 0.016667
0.430044 0.370061 0.000000
0.431285 0.372447 -0.016667
0.432155 0.373344 -0.033333
0.427824 0.385275 0.033333
0.428038 0.384317 0.016667
0.428995 0.385035 0.000000
0.430425 0.387877 -0.016667
0.431506 0.388530 -0.033333
0.458734 -0.487691 0.033333
0.465605 -0.497712 0.016667
0.471556 -0.499984 0.000000
0.475396 -0.501124 -0.016667
0.477621 -0.502311 -0.033333
0.469483 -0.474416 0.033333
0.472324 -0.482728 0.016667
0.475624 -0.485901 0.000000
0.478085 -0.486774 -0.016667
0.479640 -0.488114 -0.033333
0.477833 -0.461468 0.033333
0.478864 -0.468627 0.016667
0.480390 -0.471868 0.000000
0.481731 -0.472832 -0.016667
0.482626 -0.473945 -0.033333
0.484816 -0.448909 0.033333
0.484873 -0.455050 0.016667
0.485289 -0.458132 0.000000
0.485796 -0.459120 -0.016667
0.486178 -0.460035 -0.033333
0.490857 -0.436655 0.033333
0.490331 -0.441877 0.016667
0.490031 -0.444687 0.000000
0.489952 -0.445631 -0.016667
0.489961 -0.446381 -0.033333
0.496166 -0.424639 0.033333
0.495261 -0.429022 0.016667
0.494478 -0.431499 0.000000
0.493989 -0.432354 -0.016667
0.493733 -0.432958 -0.033333
0.500846 -0.412809 0.033333
0.499678 -0.416414 0.016667
0.498553 -0.418525 0.000000
0.497772 -0.419260 -0.016667
0.497326 -0.419731 -0.033333
0.504952 -0.401115 0.033333
0.503585 -0.403992 0.016667
0.502206 -0.405719 0.000000
0.501210 -0.406317 -0.016667
0.500625 -0.406661 -0.033333
0.508503 -0.389521 0.033333
0.506977 -0.391703 0.016667
0.505400 -0.393036 0.000000
0.504239 -0.393484 -0.016667
0.503551 -0.393707 -0.033333
0.511502 -0.377972 0.033333
0.509842 -0.379489 0.016667
0.508103 -0.380428 0.000000
0.506816 -0.380718 -0.016667
0.506048 -0.380822 -0.033333
0.513944 -0.366434 0.033333
0.512164 -0.367304 0.016667
0.510292 -0.367843 0.000000
0.508904 -0.367974 -0.016667
0.508076 -0.367961 -0.033333
0.515806 -0.354861 0.033333
0.513920 -0.355078 0.016667
0.511941 -0.355231 0.000000
0.510481 -0.355203 -0.016667
0.509608 -0.355071 -0.033333
0.517053 -0.343176 0.033333
0.515089 -0.342777 0.016667
0.513028 -0.342532 0.000000
0.511522 -0.342350 -0.016667
0.510629 -0.342106 -0.033333
0.517697 -0.331409 0.033333
0.515616 -0.330290 0.016667
0.513522 -0.329686 0.000000
0.512020 -0.329369 -0.016667
0.511124 -0.328996 -0.033333
0.517496 -0.319265 0.033333
0.515480 -0.317604 0.016667
0.513399 -0.316628 0.000000
0.511958 -0.316187 -0.016667
0.511112 -0.315707 -0.033333
0.516558 -0.307090 0.033333
0.514521 -0.304520 0.016667
0.512634 -0.303281 0.000000
0.511362 -0.302779 -0.016667
0.510603 -0.302144 -0.033333
0.514434 -0.294224 0.033333
0.512760 -0.291098 0.016667
0.511223 -0.289579 0.000000
0.510269 -0.289052 -0.016667
0.509672 -0.288301 -0.033333
0.510915 -0.281154 0.033333
0.509941 -0.276939 0.016667
0.509344 -0.275495 0.000000
0.508776 -0.275002 -0.016667
0.508415 -0.274092 -0.033333
0.504334 -0.268045 0.033333
0.506967 -0.261461 0.016667
0.507209 -0.261708 0.000000
0.507097 -0.259888 -0.016667
0.506909 -0.260230 -0.033333
0.502904 -0.251980 0.033333
0.504447 -0.246731 0.016667
0.505227 -0.246364 0.000000
0.505311 -0.245456 -0.016667
0.505332 -0.245121 -0.033333
0.501474 -0.235914 0.033333
0.502702 -0.231561 0.016667
0.503370 -0.230966 0.000000
0.503609 -0.230454 -0.016667
0.503678 -0.230041 -0.033333
0.500044 -0.219849 0.033333
0.501098 -0.216016 0.016667
0.501704 -0.215470 0.000000
0.501941 -0.215163 -0.016667
0.502053 -0.214798 -0.033333
0.498614 -0.203783 0.033333
0.499540 -0.200397 0.016667
0.500113 -0.199892 0.000000
0.500334 -0.199663 -0.016667
0.500446 -0.199443 -0.033333
0.497184 -0.187718 0.033333
0.498062 -0.184553 0.016667
0.498575 -0.184319 0.000000
0.498762 -0.183994 -0.016667
0.498870 -0.184019 -0.033333
0.496005 -0.171133 0.033333
0.496626 -0.169100 0.016667
0.497059 -0.168391 0.000000
0.497219 -0.168512 -0.016667
0.497318 -0.168284 -0.033333
0.494654 -0.154936 0.033333
0.495219 -0.153283 0.016667
0.495548 -0.152681 0.000000
0.495700 -0.152796 -0.016667
0.495779 -0.152663 -0.033333
0.493279 -0.138785 0.033333
0.493740 -0.137495 0.016667
0.494053 -0.136960 0.000000
0.494187 -0.137057 -0.016667
0.494254 -0.137004 -0.033333
0.491853 -0.122728 0.033333
0.492284 -0.121657 0.016667
0.492553 -0.121236 0.000000
0.492678 -0.121318 -0.016667
0.492746 -0.121304 -0.033333
0.490433 -0.106690 0.033333
0.490797 -0.105848 0.016667
0.491056 -0.105501 0.000000
0.491179 -0.105577 -0.016667
0.491240 -0.105585 -0.033333
0.488997 -0.090679 0.033333
0.489330 -0.090019 0.016667
0.489564 -0.089764 0.000000
0.489684 -0.089837 -0.016667
0.489746 -0.089853 -0.033333
0.487563 -0.074676 0.033333
0.487855 -0.074198 0.016667
0.488077 -0.074023 0.000000
0.488199 -0.074095 -0.016667
0.488257 -0.074115 -0.033333
0.486127 -0.058680 0.033333
0.486395 -0.058366 0.016667
0.486600 -0.058278 0.000000
0.486721 -0.058352 -0.016667
0.486780 -0.058370 -0.033333
0.484695 -0.042686 0.033333
0.484937 -0.042536 0.016667
0.485132 -0.042530 0.000000
0.485253 -0.042608 -0.016667
0.485310 -0.042623 -0.033333
0.483268 -0.026693 0.033333
0.483491 -0.026699 0.016667
0.483674 -0.026782 0.000000
0.483794 -0.026865 -0.016667
0.483852 -0.026872 -0.033333
0.481846 -0.010702 0.033333
0.482055 -0.010867 0.016667
0.482226 -0.011034 0.000000
0.482346 -0.011120 -0.016667
0.482403 -0.011120 -0.033333
0.480434 0.005287 0.033333
0.480628 0.004967 0.016667
0.480791 0.004711 0.000000
0.480908 0.004622 -0.016667
0.480963 0.004634 -0.033333
0.479030 0.021271 0.033333
0.479215 0.020789 0.016667
0.479365 0.020450 0.000000
0.479479 0.020361 -0.016667
0.479534 0.020386 -0.033333
0.477637 0.037251 0.033333
0.477809 0.036607 0.016667
0.477950 0.036179 0.000000
0.478059 0.036096 -0.016667
0.478112 0.036137 -0.033333
0.476251 0.053219 0.033333
0.476418 0.052403 0.016667
0.476541 0.051897 0.000000
0.476646 0.051824 -0.016667
0.476697 0.051881 -0.033333
0.474878 0.069181 0.033333
0.475029 0.068190 0.016667
0.475140 0.067596 0.000000
0.475237 0.067544 -0.016667
0.475285 0.067622 -0.033333
0.473504 0.085130 0.033333
0.473651 0.083942 0.016667
0.473739 0.083278 0.000000
0.473829 0.083254 -0.016667
0.473877 0.083350 -0.033333
0.472139 0.101075 0.033333
0.472264 0.099687 0.016667
0.472337 0.098934 0.000000
0.472421 0.098953 -0.016667
0.472466 0.099069 -0.033333
0.470749 0.117021 0.033333
0.470876 0.115387 0.016667
0.470922 0.114571 0.000000
0.471004 0.114644 -0.016667
0.471054 0.114768 -0.033333
0.469354 0.132984 0.033333
0.469451 0.131093 0.016667
0.469493 0.130177 0.000000
0.469581 0.130328 -0.016667
0.469637 0.130448 -0.033333
0.467859 0.149025 0.033333
0.467995 0.146739 0.016667
0.468033 0.145770 0.000000
0.468148 0.146015 -0.016667
0.468222 0.146086 -0.033333
0.466254 0.165152 0.033333
0.466448 0.162381 0.016667
0.466562 0.161353 0.000000
0.466709 0.161684 -0.016667
0.466814 0.161696 -0.033333
0.464298 0.181789 0.033333
0.464927 0.177608 0.016667
0.465061 0.177230 0.000000
0.465301 0.177074 -0.016667
0.465398 0.177503 -0.033333
0.462869 0.197854 0.033333
0.463386 0.193337 0.016667
0.463623 0.192680 0.000000
0.463880 0.192769 -0.016667
0.464035 0.192964 -0.033333
0.461439 0.213920 0.033333
0.461935 0.208890 0.016667
0.462206 0.208183 0.000000
0.462501 0.208329 -0.016667
0.462690 0.208440 -0.033333
0.460009 0.229985 0.033333
0.460516 0.224335 0.016667
0.460817 0.223681 0.000000
0.461155 0.223751 -0.016667
0.461374 0.223891 -0.033333
0.458580 0.246051 0.033333
0.459117 0.239506 0.016667
0.459435 0.239182 0.000000
0.459843 0.238976 -0.016667
0.460084 0.239317 -0.033333
0.457150 0.262116 0.033333
0.457693 0.254320 0.016667
0.458053 0.254778 0.000000
0.458570 0.253773 -0.016667
0.458806 0.254917 -0.033333
0.455401 0.275588 0.033333
0.456156 0.270275 0.016667
0.456764 0.268910 0.000000
0.457255 0.269491 -0.016667
0.457611 0.269399 -0.033333
0.454053 0.289346 0.033333
0.454757 0.285055 0.016667
0.455453 0.283606 0.000000
0.456000 0.284314 -0.016667
0.456391 0.284443 -0.033333
0.452842 0.302999 0.033333
0.453447 0.299307 0.016667
0.454151 0.298146 0.000000
0.454758 0.299005 -0.016667
0.455173 0.299352 -0.033333
0.451624 0.316404 0.033333
0.452160 0.313423 0.016667
0.452849 0.312548 0.000000
0.453506 0.313616 -0.016667
0.453955 0.314180 -0.033333
0.450372 0.329851 0.033333
0.450829 0.327353 0.016667
0.451516 0.326866 0.000000
0.452238 0.328236 -0.016667
0.452733 0.328957 -0.033333
0.449014 0.343309 0.033333
0.449428 0.341337 0.016667
0.450140 0.341208 0.000000
0.450956 0.342904 -0.016667
0.451524 0.343772 -0.033333
0.447577 0.356953 0.033333
0.447964 0.355395 0.016667
0.448732 0.355635 0.000000
0.449686 0.357712 -0.016667
0.450363 0.358662 -0.033333
0.446087 0.370929 0.033333
0.446445 0.369687 0.016667
0.447304 0.370248 0.000000
0.448472 0.372724 -0.016667
0.449326 0.373667 -0.033333
0.444681 0.385315 0.033333
0.444871 0.384355 0.016667
0.445859 0.385106 0.000000
0.447368 0.388047 -0.016667
0.448553 0.388738 -0.033333
0.475994 -0.487600 0.033333
0.483394 -0.497540 0.016667
0.489578 -0.499810 0.000000
0.493561 -0.500998 -0.016667
0.495879 -0.502184 -0.033333
0.487872 -0.474275 0.033333
0.490765 -0.482503 0.016667
0.494060 -0.485718 0.000000
0.496517 -0.486617 -0.016667
0.498086 -0.487986 -0.033333
0.497065 -0.461259 0.033333
0.497914 -0.468368 0.016667
0.499267 -0.471657 0.000000
0.500501 -0.472661 -0.016667
0.501341 -0.473802 -0.033333
0.504696 -0.448637 0.033333
0.504462 -0.454752 0.016667
0.504599 -0.457891 0.000000
0.504922 -0.458930 -0.016667
0.505202 -0.459875 -0.033333
0.511253 -0.436319 0.033333
0.510383 -0.441536 0.016667
0.509739 -0.444413 0.000000
0.509423 -0.445418 -0.016667
0.509296 -0.446202 -0.033333
0.516974 -0.424236 0.033333
0.515698 -0.428632 0.016667
0.514533 -0.431187 0.000000
0.513773 -0.432112 -0.016667
0.513358 -0.432755 -0.033333
0.521978 -0.412329 0.033333
0.520423 -0.415969 0.016667
0.518895 -0.418170 0.000000
0.517820 -0.418984 -0.016667
0.517202 -0.419499 -0.033333
0.526317 -0.400558 0.033333
0.524558 -0.403486 0.016667
0.522765 -0.405315 0.000000
0.521463 -0.406000 -0.016667
0.520699 -0.406394 -0.033333
0.530014 -0.388866 0.033333
0.528095 -0.391126 0.016667
0.526101 -0.392577 0.000000
0.524630 -0.393120 -0.016667
0.523758 -0.393398 -0.033333
0.533067 -0.377228 0.033333
0.531016 -0.378840 0.016667
0.528865 -0.379906 0.000000
0.527268 -0.380300 -0.016667
0.526317 -0.380467 -0.033333
0.535458 -0.365586 0.033333
0.533299 -0.366567 0.016667
0.531026 -0.367256 0.000000
0.529336 -0.367498 -0.016667
0.528328 -0.367553 -0.033333
0.537169 -0.353893 0.033333
0.534917 -0.354270 0.016667
0.532553 -0.354572 0.000000
0.530805 -0.354663 -0.016667
0.529763 -0.354610 -0.033333
0.538166 -0.342145 0.033333
0.535832 -0.341860 0.016667
0.533418 -0.341802 0.000000
0.531651 -0.341750 -0.016667
0.530598 -0.341581 -0.033333
0.538336 -0.330153 0.033333
0.536007 -0.329323 0.016667
0.533593 -0.328888 0.000000
0.531858 -0.328696 -0.016667
0.530834 -0.328425 -0.033333
0.537716 -0.318126 0.033333
0.535349 -0.316508 0.016667
0.533046 -0.315762 0.000000
0.531431 -0.315470 -0.016667
0.530475 -0.315065 -0.033333
0.535974 -0.305588 0.033333
0.533838 -0.303448 0.016667
0.531762 -0.302364 0.000000
0.530387 -0.301987 -0.016667
0.529575 -0.301479 -0.033333
0.533056 -0.292932 0.033333
0.531282 -0.289876 0.016667
0.529779 -0.288623 0.000000
0.528808 -0.288242 -0.016667
0.528203 -0.287566 -0.033333
0.528453 -0.279641 0.033333
0.527708 -0.275834 0.016667
0.527281 -0.274508 0.000000
0.526824 -0.274134 -0.016667
0.526513 -0.273357 -0.033333
0.520399 -0.266615 0.033333
0.523963 -0.260284 0.016667
0.524625 -0.260670 0.000000
0.524678 -0.259052 -0.016667
0.524612 -0.259408 -0.033333
0.518969 -0.250550 0.033333
0.521062 -0.245617 0.016667
0.522213 -0.245344 0.000000
0.522544 -0.244556 -0.016667
0.522667 -0.244326 -0.033333
0.517539 -0.234484 0.033333
0.519109 -0.230344 0.016667
0.520115 -0.229941 0.000000
0.520544 -0.229557 -0.016667
0.520745 -0.229200 -0.033333
0.516109 -0.218419 0.033333
0.517406 -0.214884 0.016667
0.518265 -0.214432 0.000000
0.518691 -0.214238 -0.016667
0.518895 -0.213958 -0.033333
0.514680 -0.202353 0.033333
0.515799 -0.199184 0.016667
0.516574 -0.198855 0.000000
0.516940 -0.198730 -0.016667
0.517141 -0.198566 -0.033333
0.513250 -0.186288 0.033333
0.514268 -0.183416 0.016667
0.514974 -0.183257 0.000000
0.515277 -0.183046 -0.016667
0.515457 -0.183126 -0.033333
0.512108 -0.169770 0.033333
0.512850 -0.167883 0.016667
0.513416 -0.167344 0.000000
0.513679 -0.167538 -0.016667
0.513830 -0.167370 -0.033333
0.510785 -0.153573 0.033333
0.511423 -0.152125 0.016667
0.511895 -0.151611 0.000000
0.512123 -0.151800 -0.016667
0.512242 -0.151734 -0.033333
0.509428 -0.137478 0.033333
0.509990 -0.136288 0.016667
0.510387 -0.135880 0.000000
0.510587 -0.136047 -0.016667
0.510690 -0.136042 -0.033333
0.508044 -0.121407 0.033333
0.508521 -0.120476 0.016667
0.508886 -0.120137 0.000000
0.509068 -0.120286 -0.016667
0.509156 -0.120323 -0.033333
0.506628 -0.105382 0.033333
0.507064 -0.104637 0.016667
0.507387 -0.104389 0.000000
0.507557 -0.104527 -0.016667
0.507641 -0.104578 -0.033333
0.505206 -0.089368 0.033333
0.505589 -0.088813 0.016667
0.505893 -0.088636 0.000000
0.506058 -0.088767 -0.016667
0.506135 -0.088826 -0.033333
0.503773 -0.073368 0.033333
0.504126 -0.072974 0.016667
0.504407 -0.072880 0.000000
0.504565 -0.073007 -0.016667
0.504641 -0.073065 -0.033333
0.502340 -0.057372 0.033333
0.502660 -0.057139 0.016667
0.502927 -0.057121 0.000000
0.503083 -0.057246 -0.016667
0.503157 -0.057300 -0.033333
0.500909 -0.041377 0.033333
0.501207 -0.041296 0.016667
0.501458 -0.041360 0.000000
0.501611 -0.041486 -0.016667
0.501683 -0.041532 -0.033333
0.499481 -0.025383 0.033333
0.499760 -0.025454 0.016667
0.499999 -0.025597 0.000000
0.500150 -0.025724 -0.016667
0.500221 -0.025762 -0.033333
0.498064 -0.009388 0.033333
0.498326 -0.009609 0.016667
0.498553 -0.009836 0.000000
0.498700 -0.009964 -0.016667
0.498769 -0.009990 -0.033333
0.496655 0.006605 0.033333
0.496904 0.006230 0.016667
0.497119 0.005923 0.000000
0.497262 0.005795 -0.016667
0.497329 0.005781 -0.033333
0.495260 0.022598 0.033333
0.495496 0.022068 0.016667
0.495699 0.021675 0.000000
0.495836 0.021550 -0.016667
0.495900 0.021552 -0.033333
0.493875 0.038583 0.033333
0.494102 0.037891 0.016667
0.494290 0.037419 0.000000
0.494420 0.037301 -0.016667
0.494481 0.037320 -0.033333
0.492506 0.054566 0.033333
0.492719 0.053708 0.016667
0.492893 0.053149 0.000000
0.493014 0.053045 -0.016667
0.493070 0.053084 -0.033333
0.491143 0.070537 0.033333
0.491349 0.069498 0.016667
0.491503 0.068863 0.000000
0.491614 0.068781 -0.016667
0.491667 0.068840 -0.033333
0.489792 0.086504 0.033333
0.489980 0.085277 0.016667
0.490117 0.084556 0.000000
0.490218 0.084505 -0.016667
0.490267 0.084587 -0.033333
0.488428 0.102463 0.033333
0.488612 0.101019 0.016667
0.488727 0.100228 0.000000
0.488821 0.100221 -0.016667
0.488870 0.100319 -0.033333
0.487057 0.118428 0.033333
0.487223 0.116754 0.016667
0.487327 0.115872 0.000000
0.487419 0.115924 -0.016667
0.487471 0.116038 -0.033333
0.485623 0.134416 0.033333
0.485805 0.132440 0.016667
0.485905 0.131494 0.000000
0.486008 0.131624 -0.016667
0.486074 0.131725 -0.033333
0.484113 0.150443 0.033333
0.484322 0.148129 0.016667
0.484458 0.147088 0.000000
0.484590 0.147317 -0.016667
0.484681 0.147383 -0.033333
0.482434 0.166595 0.033333
0.482761 0.163723 0.016667
0.482987 0.162684 0.000000
0.483177 0.163001 -0.016667
0.483300 0.162993 -0.033333
0.480364 0.183218 0.033333
0.481223 0.178976 0.016667
0.481510 0.178568 0.000000
0.481796 0.178385 -0.016667
0.481933 0.178822 -0.033333
0.478934 0.199284 0.033333
0.479700 0.194663 0.016667
0.480100 0.194018 0.000000
0.480434 0.194089 -0.016667
0.480624 0.194270 -0.033333
0.477504 0.215350 0.033333
0.478287 0.210261 0.016667
0.478749 0.209511 0.000000
0.479128 0.209639 -0.016667
0.479365 0.209749 -0.033333
0.476075 0.231415 0.033333
0.476935 0.225653 0.016667
0.477456 0.225001 0.000000
0.477893 0.225053 -0.016667
0.478160 0.225173 -0.033333
0.474645 0.247481 0.033333
0.475655 0.240865 0.016667
0.476234 0.240482 0.000000
0.476730 0.240238 -0.016667
0.477014 0.240585 -0.033333
0.473215 0.263546 0.033333
0.474526 0.255597 0.016667
0.475068 0.256043 0.000000
0.475656 0.255001 -0.016667
0.475899 0.256127 -0.033333
0.472550 0.276996 0.033333
0.473397 0.271608 0.016667
0.474087 0.270104 0.000000
0.474548 0.270648 -0.016667
0.474886 0.270554 -0.033333
0.471809 0.290746 0.033333
0.472450 0.286205 0.016667
0.473060 0.284704 0.000000
0.473509 0.285401 -0.016667
0.473832 0.285492 -0.033333
0.470977 0.304156 0.033333
0.471472 0.300431 0.016667
0.471997 0.299129 0.000000
0.472434 0.299959 -0.016667
0.472746 0.300316 -0.033333
0.469997 0.317484 0.033333
0.470369 0.314285 0.016667
0.470831 0.313369 0.000000
0.471282 0.314454 -0.016667
0.471604 0.315003 -0.033333
0.468788 0.330639 0.033333
0.469075 0.328097 0.016667
0.469527 0.327534 0.000000
0.470028 0.328911 -0.016667
0.470389 0.329659 -0.033333
0.467324 0.343915 0.033333
0.467588 0.341838 0.016667
0.468068 0.341690 0.000000
0.468671 0.343439 -0.016667
0.469115 0.344327 -0.033333
0.465617 0.357351 0.033333
0.465875 0.355729 0.016667
0.466456 0.355958 0.000000
0.467243 0.358096 -0.016667
0.467830 0.359088 -0.033333
0.463688 0.371113 0.033333
0.463965 0.369845 0.016667
0.464711 0.370420 0.000000
0.465796 0.372984 -0.016667
0.466632 0.373967 -0.033333
0.461656 0.385406 0.033333
0.461794 0.384394 0.016667
0.462809 0.385175 0.000000
0.464415 0.388202 -0.016667
0.465718 0.388933 -0.033333
0.493202 -0.487493 0.033333
0.501157 -0.497327 0.016667
0.507577 -0.499590 0.000000
0.511696 -0.500829 -0.016667
0.514107 -0.502012 -0.033333
0.506202 -0.474102 0.033333
0.509192 -0.482216 0.016667
0.512485 -0.485468 0.000000
0.514934 -0.486393 -0.016667
0.516516 -0.487790 -0.033333
0.516255 -0.460995 0.033333
0.516949 -0.468026 0.016667
0.518139 -0.471358 0.000000
0.519266 -0.472401 -0.016667
0.520050 -0.473567 -0.033333
0.524542 -0.448286 0.033333
0.524037 -0.454353 0.016667
0.523906 -0.457541 0.000000
0.524049 -0.458631 -0.016667
0.524225 -0.459602 -0.033333
0.531616 -0.435884 0.033333
0.530417 -0.441075 0.016667
0.529442 -0.444011 0.000000
0.528895 -0.445076 -0.016667
0.528634 -0.445891 -0.033333
0.537744 -0.423714 0.033333
0.536110 -0.428107 0.016667
0.534577 -0.430730 0.000000
0.533552 -0.431723 -0.016667
0.532984 -0.432402 -0.033333
0.543056 -0.411724 0.033333
0.541131 -0.415378 0.016667
0.539214 -0.417656 0.000000
0.537856 -0.418545 -0.016667
0.537071 -0.419101 -0.033333
0.547614 -0.399855 0.033333
0.545479 -0.402824 0.016667
0.543288 -0.404742 0.000000
0.541692 -0.405507 -0.016667
0.540754 -0.405948 -0.033333
0.551437 -0.388082 0.033333
0.549141 -0.390393 0.016667
0.546749 -0.391939 0.000000
0.544981 -0.392569 -0.016667
0.543933 -0.392899 -0.033333
0.554518 -0.376338 0.033333
0.552099 -0.378026 0.016667
0.549554 -0.379204 0.000000
0.547663 -0.379690 -0.016667
0.546538 -0.379912 -0.033333
0.556849 -0.364601 0.033333
0.554324 -0.365684 0.016667
0.551669 -0.366485 0.000000
0.549695 -0.366824 -0.016667
0.548517 -0.366941 -0.033333
0.558384 -0.352831 0.033333
0.555785 -0.353294 0.016667
0.553059 -0.353735 0.000000
0.551041 -0.353929 -0.016667
0.549838 -0.353936 -0.033333
0.559080 -0.340920 0.033333
0.556442 -0.340836 0.016667
0.553693 -0.340901 0.000000
0.551677 -0.340949 -0.016667
0.550481 -0.340857 -0.033333
0.558905 -0.328987 0.033333
0.556236 -0.328189 0.016667
0.553538 -0.327925 0.000000
0.551594 -0.327849 -0.016667
0.550441 -0.327636 -0.033333
0.557662 -0.316673 0.033333
0.555124 -0.315381 0.016667
0.552572 -0.314753 0.000000
0.550791 -0.314556 -0.016667
0.549746 -0.314247 -0.033333
0.555339 -0.304307 0.033333
0.552975 -0.302197 0.016667
0.550786 -0.301315 0.000000
0.549315 -0.301052 -0.016667
0.548444 -0.300599 -0.033333
0.551529 -0.291406 0.033333
0.549765 -0.288695 0.016667
0.548227 -0.287551 0.000000
0.547257 -0.287250 -0.016667
0.546651 -0.286686 -0.033333
0.545904 -0.278219 0.033333
0.545364 -0.274590 0.016667
0.545164 -0.273404 0.000000
0.544783 -0.273159 -0.016667
0.544537 -0.272412 -0.033333
0.536465 -0.265186 0.033333
0.540955 -0.259123 0.016667
0.541943 -0.259566 0.000000
0.542225 -0.258040 -0.016667
0.542226 -0.258470 -0.033333
0.535035 -0.249120 0.033333
0.537628 -0.244381 0.016667
0.539185 -0.244226 0.000000
0.539705 -0.243554 -0.016667
0.539961 -0.243350 -0.033333
0.533605 -0.233055 0.033333
0.535522 -0.229166 0.016667
0.536813 -0.228830 0.000000
0.537452 -0.228522 -0.016667
0.537754 -0.228240 -0.033333
0.532175 -0.216989 0.033333
0.533715 -0.213637 0.016667
0.534815 -0.213320 0.000000
0.535397 -0.213209 -0.016667
0.535704 -0.212969 -0.033333
0.530745 -0.200923 0.033333
0.532048 -0.197999 0.016667
0.533015 -0.197735 0.000000
0.533520 -0.197686 -0.016667
0.533796 -0.197579 -0.033333
0.529315 -0.184858 0.033333
0.530505 -0.182185 0.016667
0.531353 -0.182133 0.000000
0.531767 -0.182007 -0.016667
0.532009 -0.182110 -0.033333
0.528236 -0.168371 0.033333
0.529064 -0.166684 0.016667
0.529763 -0.166228 0.000000
0.530114 -0.166473 -0.016667
0.530311 -0.166363 -0.033333
0.526937 -0.152230 0.033333
0.527662 -0.150891 0.016667
0.528225 -0.150495 0.000000
0.528522 -0.150733 -0.016667
0.528679 -0.150703 -0.033333
0.525605 -0.136146 0.033333
0.526222 -0.135097 0.016667
0.526711 -0.134756 0.000000
0.526967 -0.134967 -0.016667
0.527096 -0.135004 -0.033333
0.524233 -0.120112 0.033333
0.524780 -0.119263 0.016667
0.525206 -0.119008 0.000000
0.525434 -0.119201 -0.016667
0.525547 -0.119265 -0.033333
0.522836 -0.104092 0.033333
0.523316 -0.103444 0.016667
0.523706 -0.103253 0.000000
0.523917 -0.103429 -0.016667
0.524016 -0.103512 -0.033333
0.521417 -0.088092 0.033333
0.521856 -0.087605 0.016667
0.522212 -0.087493 0.000000
0.522410 -0.087660 -0.016667
0.522504 -0.087744 -0.033333
0.519988 -0.072095 0.033333
0.520387 -0.071771 0.016667
0.520723 -0.071728 0.000000
0.520915 -0.071888 -0.016667
0.521003 -0.071971 -0.033333
0.518555 -0.056103 0.033333
0.518927 -0.055925 0.016667
0.519243 -0.055960 0.000000
0.519428 -0.056117 -0.016667
0.519515 -0.056192 -0.033333
0.517122 -0.040109 0.033333
0.517469 -0.040081 0.016667
0.517772 -0.040189 0.000000
0.517954 -0.040344 -0.016667
0.518037 -0.040412 -0.033333
0.515696 -0.024112 0.033333
0.516025 -0.024228 0.016667
0.516313 -0.024416 0.000000
0.516490 -0.024572 -0.016667
0.516572 -0.024628 -0.033333
0.514277 -0.008113 0.033333
0.514590 -0.008377 0.016667
0.514867 -0.008643 0.000000
0.515039 -0.008798 -0.016667
0.515118 -0.008843 -0.033333
0.512872 0.007889 0.033333
0.513172 0.007477 0.016667
0.513436 0.007128 0.000000
0.513602 0.006973 -0.016667
0.513678 0.006943 -0.033333
0.511479 0.023890 0.033333
0.511769 0.023323 0.016667
0.512019 0.022894 0.000000
0.512178 0.022743 -0.016667
0.512250 0.022727 -0.033333
0.510106 0.039893 0.033333
0.510382 0.039167 0.016667
0.510618 0.038652 0.000000
0.510767 0.038508 -0.016667
0.510834 0.038511 -0.033333
0.508744 0.055889 0.033333
0.509012 0.054993 0.016667
0.509230 0.054398 0.000000
0.509367 0.054267 -0.016667
0.509429 0.054289 -0.033333
0.507400 0.071884 0.033333
0.507652 0.070809 0.016667
0.507852 0.070127 0.000000
0.507977 0.070017 -0.016667
0.508033 0.070062 -0.033333
0.506055 0.087869 0.033333
0.506299 0.086596 0.016667
0.506479 0.085837 0.000000
0.506592 0.085759 -0.016667
0.506644 0.085823 -0.033333
0.504711 0.103854 0.033333
0.504941 0.102371 0.016667
0.505105 0.101522 0.000000
0.505209 0.101487 -0.016667
0.505258 0.101573 -0.033333
0.503331 0.119838 0.033333
0.503564 0.118102 0.016667
0.503717 0.117182 0.000000
0.503821 0.117207 -0.016667
0.503877 0.117300 -0.033333
0.501901 0.135839 0.033333
0.502144 0.133824 0.016667
0.502309 0.132812 0.000000
0.502427 0.132916 -0.016667
0.502499 0.133006 -0.033333
0.500352 0.151879 0.033333
0.500655 0.149486 0.016667
0.500869 0.148417 0.000000
0.501030 0.148623 -0.016667
0.501131 0.148665 -0.033333
0.498627 0.168021 0.033333
0.499074 0.165111 0.016667
0.499413 0.164014 0.000000
0.499640 0.164307 -0.016667
0.499788 0.164289 -0.033333
0.496430 0.184648 0.033333
0.497527 0.180314 0.016667
0.497951 0.179906 0.000000
0.498305 0.179694 -0.016667
0.498464 0.180115 -0.033333
0.495000 0.200714 0.033333
0.496015 0.196039 0.016667
0.496588 0.195348 0.000000
0.496996 0.195391 -0.016667
0.497230 0.195568 -0.033333
0.493570 0.216779 0.033333
0.494646 0.211590 0.016667
0.495303 0.210835 0.000000
0.495782 0.210939 -0.016667
0.496063 0.211024 -0.033333
0.492140 0.232845 0.033333
0.493369 0.227025 0.016667
0.494126 0.226311 0.000000
0.494668 0.226326 -0.016667
0.494989 0.226440 -0.033333
0.490711 0.248910 0.033333
0.492215 0.242174 0.016667
0.493078 0.241771 0.000000
0.493678 0.241490 -0.016667
0.494002 0.241808 -0.033333
0.489281 0.264976 0.033333
0.491423 0.256950 0.016667
0.492165 0.257299 0.000000
0.492823 0.256189 -0.016667
0.493075 0.257324 -0.033333
0.489830 0.278475 0.033333
0.490740 0.272852 0.016667
0.491519 0.271284 0.000000
0.491956 0.271800 -0.016667
0.492269 0.271651 -0.033333
0.489745 0.292070 0.033333
0.490324 0.287470 0.016667
0.490827 0.285795 0.000000
0.491157 0.286440 -0.016667
0.491404 0.286525 -0.033333
0.489391 0.305438 0.033333
0.489715 0.301442 0.016667
0.490026 0.300085 0.000000
0.490278 0.300904 -0.016667
0.490472 0.301222 -0.033333
0.488655 0.318450 0.033333
0.488815 0.315236 0.016667
0.489026 0.314189 0.000000
0.489242 0.315243 -0.016667
0.489417 0.315806 -0.033333
0.487502 0.331497 0.033333
0.487596 0.328773 0.016667
0.487759 0.328168 0.000000
0.488006 0.329572 -0.016667
0.488216 0.330314 -0.033333
0.485940 0.344501 0.033333
0.485985 0.342367 0.016667
0.486204 0.342167 0.000000
0.486571 0.343939 -0.016667
0.486871 0.344858 -0.033333
0.483920 0.357729 0.033333
0.484017 0.356041 0.016667
0.484371 0.356261 0.000000
0.484962 0.358463 -0.016667
0.485447 0.359484 -0.033333
0.481493 0.371325 0.033333
0.481648 0.370005 0.016667
0.482260 0.370587 0.000000
0.483255 0.373225 -0.016667
0.484067 0.374248 -0.033333
0.478750 0.385458 0.033333
0.478816 0.384424 0.016667
0.479841 0.385238 0.000000
0.481562 0.388345 -0.016667
0.482991 0.389114 -0.033333
0.510353 -0.487376 0.033333
0.518871 -0.497083 0.016667
0.525526 -0.499340 0.000000
0.529770 -0.500637 -0.016667
0.532271 -0.501818 -0.033333
0.524450 -0.473910 0.033333
0.527579 -0.481884 0.016667
0.530869 -0.485172 0.000000
0.533307 -0.486127 -0.016667
0.534897 -0.487550 -0.033333
0.535371 -0.460695 0.033333
0.535940 -0.467627 0.016667
0.536973 -0.470998 0.000000
0.537995 -0.472080 -0.016667
0.538721 -0.473269 -0.033333
0.544322 -0.447884 0.033333
0.543566 -0.453884 0.016667
0.543176 -0.457115 0.000000
0.543143 -0.458255 -0.016667
0.543218 -0.459250 -0.033333
0.551915 -0.435385 0.033333
0.550404 -0.440535 0.016667
0.549107 -0.443520 0.000000
0.548334 -0.444643 -0.016667
0.547942 -0.445486 -0.033333
0.558445 -0.423123 0.033333
0.556469 -0.427496 0.016667
0.554579 -0.430176 0.000000
0.553296 -0.431232 -0.016667
0.552577 -0.431944 -0.033333
0.564062 -0.411035 0.033333
0.561777 -0.414694 0.016667
0.559483 -0.417037 0.000000
0.557849 -0.417994 -0.016667
0.556902 -0.418587 -0.033333
0.568825 -0.399084 0.033333
0.566325 -0.402067 0.016667
0.563749 -0.404056 0.000000
0.561868 -0.404894 -0.016667
0.560762 -0.405375 -0.033333
0.572759 -0.387201 0.033333
0.570100 -0.389558 0.016667
0.567321 -0.391188 0.000000
0.565267 -0.391892 -0.016667
0.564050 -0.392267 -0.033333
0.575865 -0.375377 0.033333
0.573080 -0.377121 0.016667
0.570155 -0.378383 0.000000
0.567982 -0.378947 -0.016667
0.566689 -0.379218 -0.033333
0.578107 -0.363544 0.033333
0.575236 -0.364692 0.016667
0.572212 -0.365596 0.000000
0.569964 -0.366017 -0.016667
0.568626 -0.366182 -0.033333
0.579470 -0.351657 0.033333
0.576531 -0.352245 0.016667
0.573456 -0.352779 0.000000
0.571179 -0.353053 -0.016667
0.569824 -0.353120 -0.033333
0.579887 -0.339750 0.033333
0.576924 -0.339689 0.016667
0.573852 -0.339883 0.000000
0.571601 -0.340020 -0.016667
0.570266 -0.339974 -0.033333
0.579273 -0.327572 0.033333
0.576357 -0.327035 0.016667
0.573371 -0.326855 0.000000
0.571221 -0.326853 -0.016667
0.569953 -0.326715 -0.033333
0.577580 -0.315412 0.033333
0.574753 -0.314109 0.016667
0.571989 -0.313637 0.000000
0.570054 -0.313531 -0.016667
0.568916 -0.313262 -0.033333
0.574522 -0.302796 0.033333
0.572056 -0.300979 0.016667
0.569709 -0.300171 0.000000
0.568146 -0.299971 -0.016667
0.567229 -0.299604 -0.033333
0.569954 -0.290030 0.033333
0.568129 -0.287390 0.016667
0.566603 -0.286390 0.000000
0.565624 -0.286167 -0.016667
0.565015 -0.285641 -0.033333
0.563287 -0.276728 0.033333
0.563011 -0.273376 0.016667
0.562965 -0.272234 0.000000
0.562680 -0.272046 -0.016667
0.562490 -0.271372 -0.033333
0.552530 -0.263756 0.033333
0.557850 -0.257897 0.016667
0.559238 -0.258365 0.000000
0.559696 -0.256959 -0.016667
0.559795 -0.257378 -0.033333
0.551100 -0.247690 0.033333
0.554206 -0.243171 0.016667
0.556099 -0.243054 0.000000
0.556838 -0.242431 -0.016667
0.557195 -0.242287 -0.033333
0.549670 -0.231625 0.033333
0.551917 -0.227898 0.016667
0.553502 -0.227651 0.000000
0.554316 -0.227411 -0.016667
0.554731 -0.227153 -0.033333
0.548240 -0.215559 0.033333
0.550027 -0.212416 0.016667
0.551339 -0.212145 0.000000
0.552084 -0.212082 -0.016667
0.552477 -0.211894 -0.033333
0.546811 -0.199494 0.033333
0.548305 -0.196732 0.016667
0.549448 -0.196559 0.000000
0.550075 -0.196569 -0.016667
0.550427 -0.196486 -0.033333
0.545381 -0.183428 0.033333
0.546740 -0.180967 0.016667
0.547724 -0.180953 0.000000
0.548240 -0.180887 -0.016667
0.548539 -0.181017 -0.033333
0.544389 -0.166982 0.033333
0.545303 -0.165416 0.016667
0.546105 -0.165065 0.000000
0.546532 -0.165346 -0.016667
0.546774 -0.165267 -0.033333
0.543117 -0.150861 0.033333
0.543904 -0.149665 0.016667
0.544551 -0.149333 0.000000
0.544909 -0.149601 -0.016667
0.545098 -0.149609 -0.033333
0.541803 -0.134821 0.033333
0.542480 -0.133856 0.016667
0.543032 -0.133597 0.000000
0.543333 -0.133840 -0.016667
0.543488 -0.133897 -0.033333
0.540444 -0.118805 0.033333
0.541036 -0.118055 0.016667
0.541523 -0.117850 0.000000
0.541790 -0.118068 -0.016667
0.541920 -0.118159 -0.033333
0.539052 -0.102814 0.033333
0.539584 -0.102228 0.016667
0.540022 -0.102095 0.000000
0.540264 -0.102298 -0.016667
0.540380 -0.102396 -0.033333
0.537638 -0.086825 0.033333
0.538118 -0.086407 0.016667
0.538525 -0.086334 0.000000
0.538753 -0.086523 -0.016667
0.538859 -0.086625 -0.033333
0.536209 -0.070843 0.033333
0.536655 -0.070568 0.016667
0.537035 -0.070567 0.000000
0.537253 -0.070749 -0.016667
0.537353 -0.070845 -0.033333
0.534772 -0.054856 0.033333
0.535189 -0.054728 0.016667
0.535552 -0.054795 0.000000
0.535764 -0.054971 -0.016667
0.535860 -0.055062 -0.033333
0.533337 -0.038867 0.033333
0.533732 -0.038876 0.016667
0.534079 -0.039019 0.000000
0.534286 -0.039194 -0.016667
0.534379 -0.039273 -0.033333
0.531905 -0.022870 0.033333
0.532283 -0.023023 0.016667
0.532618 -0.023239 0.000000
0.532820 -0.023413 -0.016667
0.532911 -0.023483 -0.033333
0.530486 -0.006866 0.033333
0.530849 -0.007161 0.016667
0.531172 -0.007457 0.000000
0.531368 -0.007633 -0.016667
0.531455 -0.007689 -0.033333
0.529078 0.009143 0.033333
0.529430 0.008700 0.016667
0.529741 0.008324 0.000000
0.529930 0.008149 -0.016667
0.530014 0.008106 -0.033333
0.527690 0.025159 0.033333
0.528029 0.024564 0.016667
0.528328 0.024102 0.000000
0.528508 0.023929 -0.016667
0.528587 0.023902 -0.033333
0.526317 0.041175 0.033333
0.526648 0.040419 0.016667
0.526931 0.039874 0.000000
0.527100 0.039707 -0.016667
0.527174 0.039696 -0.033333
0.524967 0.057197 0.033333
0.525286 0.056270 0.016667
0.525552 0.055636 0.000000
0.525708 0.055480 -0.016667
0.525773 0.055488 -0.033333
0.523628 0.073212 0.033333
0.523938 0.072100 0.016667
0.524185 0.071383 0.000000
0.524326 0.071247 -0.016667
0.524386 0.071274 -0.033333
0.522302 0.089228 0.033333
0.522599 0.087919 0.016667
0.522826 0.087110 0.000000
0.522954 0.087002 -0.016667
0.523007 0.087051 -0.033333
0.520961 0.105235 0.033333
0.521254 0.103702 0.016667
0.521466 0.102813 0.000000
0.521584 0.102748 -0.016667
0.521636 0.102812 -0.033333
0.519598 0.121246 0.033333
0.519889 0.119468 0.016667
0.520095 0.118486 0.000000
0.520214 0.118479 -0.016667
0.520272 0.118556 -0.033333
0.518157 0.137260 0.033333
0.518474 0.135181 0.016667
0.518701 0.134129 0.000000
0.518840 0.134202 -0.016667
0.518917 0.134267 -0.033333
0.516597 0.153311 0.033333
0.516988 0.150874 0.016667
0.517277 0.149739 0.000000
0.517465 0.149913 -0.016667
0.517581 0.149939 -0.033333
0.514823 0.169451 0.033333
0.515386 0.166464 0.016667
0.515836 0.165341 0.000000
0.516110 0.165606 -0.016667
0.516275 0.165559 -0.033333
0.512495 0.186078 0.033333
0.513839 0.181693 0.016667
0.514402 0.181233 0.000000
0.514817 0.180982 -0.016667
0.515011 0.181395 -0.033333
0.511065 0.202143 0.033333
0.512334 0.197374 0.016667
0.513082 0.196672 0.000000
0.513580 0.196681 -0.016667
0.513850 0.196829 -0.033333
0.509635 0.218209 0.033333
0.511017 0.212970 0.016667
0.511880 0.212147 0.000000
0.512458 0.212210 -0.016667
0.512795 0.212282 -0.033333
0.508206 0.234274 0.033333
0.509815 0.228346 0.016667
0.510822 0.227611 0.000000
0.511490 0.227585 -0.016667
0.511858 0.227662 -0.033333
0.506776 0.250340 0.033333
0.508806 0.243541 0.016667
0.509978 0.243049 0.000000
0.510680 0.242704 -0.016667
0.511058 0.243012 -0.033333
0.505346 0.266406 0.033333
0.508375 0.258240 0.016667
0.509327 0.258545 0.000000
0.510084 0.257368 -0.016667
0.510332 0.258463 -0.033333
0.507225 0.279912 0.033333
0.508215 0.274208 0.016667
0.509082 0.272454 0.000000
0.509474 0.272904 -0.016667
0.509765 0.272732 -0.033333
0.507930 0.293498 0.033333
0.508376 0.288617 0.016667
0.508748 0.286869 0.000000
0.508955 0.287473 -0.016667
0.509112 0.287494 -0.033333
0.508063 0.306594 0.033333
0.508183 0.302593 0.016667
0.508262 0.301043 0.000000
0.508294 0.301793 -0.016667
0.508351 0.302109 -0.033333
0.507618 0.319574 0.033333
0.507550 0.316076 0.016667
0.507438 0.314972 0.000000
0.507388 0.316023 -0.016667
0.507402 0.316548 -0.033333
0.506572 0.332267 0.033333
0.506362 0.329517 0.016667
0.506214 0.328807 0.000000
0.506181 0.330185 -0.016667
0.506209 0.330943 -0.033333
0.504844 0.345111 0.033333
0.504663 0.342854 0.016667
0.504561 0.342615 0.000000
0.504649 0.344420 -0.016667
0.504792 0.345346 -0.033333
0.502504 0.358119 0.033333
0.502373 0.356368 0.016667
0.502469 0.356558 0.000000
0.502844 0.358800 -0.016667
0.503208 0.359854 -0.033333
0.499509 0.371514 0.033333
0.499513 0.370155 0.016667
0.499956 0.370739 0.000000
0.500841 0.373448 -0.016667
0.501627 0.374505 -0.033333
0.495968 0.385537 0.033333
0.495929 0.384458 0.016667
0.496948 0.385301 0.000000
0.498803 0.388470 -0.016667
0.500366 0.389283 -0.033333
0.527445 -0.487253 0.033333
0.536515 -0.496823 0.016667
0.543403 -0.499081 0.000000
0.547757 -0.500443 -0.016667
0.550341 -0.501627 -0.033333
0.542603 -0.473707 0.033333
0.545903 -0.481528 0.016667
0.549189 -0.484853 0.000000
0.551607 -0.485843 -0.016667
0.553201 -0.487292 -0.033333
0.554393 -0.460380 0.033333
0.554864 -0.467198 0.016667
0.555746 -0.470605 0.000000
0.556661 -0.471728 -0.016667
0.557327 -0.472941 -0.033333
0.564016 -0.447459 0.033333
0.563026 -0.453381 0.016667
0.562385 -0.456649 0.000000
0.562178 -0.457838 -0.016667
0.562152 -0.458855 -0.033333
0.572130 -0.434859 0.033333
0.570318 -0.439958 0.016667
0.568710 -0.442985 0.000000
0.567716 -0.444161 -0.016667
0.567196 -0.445028 -0.033333
0.579065 -0.422500 0.033333
0.576753 -0.426846 0.016667
0.574513 -0.429573 0.000000
0.572980 -0.430686 -0.016667
0.572115 -0.431425 -0.033333
0.584976 -0.410326 0.033333
0.582339 -0.413970 0.016667
0.579677 -0.416366 0.000000
0.577776 -0.417383 -0.016667
0.576672 -0.418007 -0.033333
0.589940 -0.398268 0.033333
0.587079 -0.401268 0.016667
0.584125 -0.403317 0.000000
0.581969 -0.404216 -0.016667
0.580702 -0.404732 -0.033333
0.593980 -0.386312 0.033333
0.590956 -0.388686 0.016667
0.587799 -0.390376 0.000000
0.585469 -0.391145 -0.016667
0.584089 -0.391558 -0.033333
0.597086 -0.374375 0.033333
0.593949 -0.376163 0.016667
0.590652 -0.377500 0.000000
0.588205 -0.378130 -0.016667
0.586753 -0.378440 -0.033333
0.599255 -0.362449 0.033333
0.596027 -0.363666 0.016667
0.592643 -0.364639 0.000000
0.590131 -0.365126 -0.016667
0.588637 -0.365338 -0.033333
0.600424 -0.350502 0.033333
0.597157 -0.351125 0.016667
0.593735 -0.351753 0.000000
0.591208 -0.352097 -0.016667
0.589708 -0.352204 -0.033333
0.600566 -0.338407 0.033333
0.597283 -0.338534 0.016667
0.593896 -0.338792 0.000000
0.591416 -0.338990 -0.016667
0.589947 -0.339004 -0.033333
0.599581 -0.326353 0.033333
0.596359 -0.325763 0.016667
0.593092 -0.325708 0.000000
0.590745 -0.325781 -0.016667
0.589363 -0.325673 -0.033333
0.597322 -0.313901 0.033333
0.594305 -0.312879 0.016667
0.591307 -0.312451 0.000000
0.589215 -0.312393 -0.016667
0.587993 -0.312198 -0.033333
0.593696 -0.301446 0.033333
0.591021 -0.299638 0.016667
0.588547 -0.298958 0.000000
0.586893 -0.298821 -0.016667
0.585924 -0.298480 -0.033333
0.588279 -0.288527 0.033333
0.586465 -0.286126 0.016667
0.584903 -0.285166 0.000000
0.583916 -0.284975 -0.016667
0.583307 -0.284522 -0.033333
0.580619 -0.275286 0.033333
0.580591 -0.272090 0.016667
0.580720 -0.270993 0.000000
0.580511 -0.270877 -0.016667
0.580380 -0.270203 -0.033333
0.568596 -0.262326 0.033333
0.574724 -0.256670 0.016667
0.576466 -0.257134 0.000000
0.577130 -0.255769 -0.016667
0.577303 -0.256222 -0.033333
0.567166 -0.246260 0.033333
0.570748 -0.241894 0.016667
0.572996 -0.241816 0.000000
0.573923 -0.241253 -0.016667
0.574396 -0.241113 -0.033333
0.565736 -0.230195 0.033333
0.568320 -0.226652 0.016667
0.570160 -0.226427 0.000000
0.571160 -0.226213 -0.016667
0.571672 -0.225998 -0.033333
0.564306 -0.214129 0.033333
0.566332 -0.211126 0.016667
0.567860 -0.210919 0.000000
0.568746 -0.210897 -0.016667
0.569229 -0.210725 -0.033333
0.562876 -0.198064 0.033333
0.564567 -0.195482 0.016667
0.565871 -0.195337 0.000000
0.566620 -0.195380 -0.016667
0.567039 -0.195328 -0.033333
0.561446 -0.181998 0.033333
0.562987 -0.179688 0.016667
0.564097 -0.179730 0.000000
0.564703 -0.179713 -0.016667
0.565056 -0.179848 -0.033333
0.560561 -0.165575 0.033333
0.561552 -0.164158 0.016667
0.562447 -0.163860 0.000000
0.562946 -0.164161 -0.016667
0.563226 -0.164116 -0.033333
0.559325 -0.149495 0.033333
0.560170 -0.148390 0.016667
0.560883 -0.148135 0.000000
0.561291 -0.148427 -0.016667
0.561509 -0.148451 -0.033333
0.558028 -0.133478 0.033333
0.558751 -0.132619 0.016667
0.559357 -0.132407 0.000000
0.559698 -0.132667 -0.016667
0.559873 -0.132747 -0.033333
0.556678 -0.117502 0.033333
0.557314 -0.116816 0.016667
0.557846 -0.116667 0.000000
0.558142 -0.116904 -0.016667
0.558289 -0.117005 -0.033333
0.555288 -0.101530 0.033333
0.555859 -0.101018 0.016667
0.556341 -0.100919 0.000000
0.556611 -0.101135 -0.016667
0.556738 -0.101247 -0.033333
0.553873 -0.085569 0.033333
0.554395 -0.085197 0.016667
0.554842 -0.085163 0.000000
0.555093 -0.085366 -0.016667
0.555210 -0.085475 -0.033333
0.552438 -0.069600 0.033333
0.552925 -0.069374 0.016667
0.553347 -0.069399 0.000000
0.553589 -0.069592 -0.016667
0.553699 -0.069698 -0.033333
0.550998 -0.053627 0.033333
0.551457 -0.053533 0.016667
0.551861 -0.053628 0.000000
0.552096 -0.053817 -0.016667
0.552201 -0.053913 -0.033333
0.549553 -0.037644 0.033333
0.549993 -0.037688 0.016667
0.550384 -0.037852 0.000000
0.550614 -0.038037 -0.016667
0.550717 -0.038126 -0.033333
0.548117 -0.021651 0.033333
0.548540 -0.021829 0.016667
0.548920 -0.022069 0.000000
0.549146 -0.022256 -0.016667
0.549245 -0.022333 -0.033333
0.546688 -0.005646 0.033333
0.547101 -0.005966 0.016667
0.547471 -0.006283 0.000000
0.547691 -0.006471 -0.016667
0.547787 -0.006537 -0.033333
0.545277 0.010371 0.033333
0.545679 0.009906 0.016667
0.546039 0.009505 0.000000
0.546252 0.009316 -0.016667
0.546344 0.009263 -0.033333
0.543882 0.026397 0.033333
0.544278 0.025778 0.016667
0.544625 0.025294 0.000000
0.544829 0.025104 -0.016667
0.544916 0.025065 -0.033333
0.542514 0.042435 0.033333
0.542899 0.041654 0.016667
0.543233 0.041079 0.000000
0.543424 0.040892 -0.016667
0.543504 0.040869 -0.033333
0.541162 0.058475 0.033333
0.541541 0.057520 0.016667
0.541858 0.056856 0.000000
0.542036 0.056677 -0.016667
0.542108 0.056670 -0.033333
0.539837 0.074523 0.033333
0.540204 0.073380 0.016667
0.540502 0.072621 0.000000
0.540664 0.072457 -0.016667
0.540727 0.072468 -0.033333
0.538515 0.090564 0.033333
0.538876 0.089216 0.016667
0.539156 0.088367 0.000000
0.539303 0.088228 -0.016667
0.539360 0.088257 -0.033333
0.537196 0.106608 0.033333
0.537550 0.105034 0.016667
0.537813 0.104088 0.000000
0.537949 0.103987 -0.016667
0.538004 0.104032 -0.033333
0.535836 0.122639 0.033333
0.536197 0.120807 0.016667
0.536461 0.119779 0.000000
0.536599 0.119734 -0.016667
0.536660 0.119785 -0.033333
0.534409 0.138682 0.033333
0.534802 0.136553 0.016667
0.535087 0.135432 0.000000
0.535247 0.135465 -0.016667
0.535332 0.135508 -0.033333
0.532834 0.154735 0.033333
0.533312 0.152229 0.016667
0.533681 0.151051 0.000000
0.533904 0.151186 -0.016667
0.534028 0.151181 -0.033333
0.531023 0.170888 0.033333
0.531713 0.167849 0.016667
0.532263 0.166652 0.000000
0.532583 0.166877 -0.016667
0.532773 0.166807 -0.033333
0.528561 0.187508 0.033333
0.530148 0.183028 0.016667
0.530858 0.182551 0.000000
0.531347 0.182250 -0.016667
0.531567 0.182636 -0.033333
0.527131 0.203573 0.033333
0.528670 0.198754 0.016667
0.529595 0.197976 0.000000
0.530180 0.197937 -0.016667
0.530499 0.198065 -0.033333
0.525701 0.219639 0.033333
0.527392 0.214290 0.016667
0.528475 0.213446 0.000000
0.529172 0.213458 -0.016667
0.529557 0.213489 -0.033333
0.524271 0.235704 0.033333
0.526282 0.229724 0.016667
0.527558 0.228890 0.000000
0.528348 0.228802 -0.016667
0.528785 0.228857 -0.033333
0.522842 0.251770 0.033333
0.525424 0.244847 0.016667
0.526920 0.244313 0.000000
0.527757 0.243898 -0.016667
0.528176 0.244153 -0.033333
0.521412 0.267835 0.033333
0.525389 0.259611 0.016667
0.526589 0.259770 0.000000
0.527422 0.258493 -0.016667
0.527689 0.259576 -0.033333
0.524783 0.281407 0.033333
0.525808 0.275464 0.016667
0.526756 0.273609 0.000000
0.527121 0.273996 -0.016667
0.527375 0.273732 -0.033333
0.526312 0.294852 0.033333
0.526635 0.289926 0.016667
0.526856 0.287933 0.000000
0.526903 0.288438 -0.016667
0.526959 0.288441 -0.033333
0.527067 0.307944 0.033333
0.526924 0.303577 0.016667
0.526694 0.301962 0.000000
0.526488 0.302673 -0.016667
0.526393 0.302915 -0.033333
0.526952 0.320502 0.033333
0.526524 0.317052 0.016667
0.526082 0.315764 0.000000
0.525731 0.316735 -0.016667
0.525549 0.317261 -0.033333
0.525932 0.333154 0.033333
0.525456 0.330177 0.016667
0.524907 0.329397 0.000000
0.524541 0.330779 -0.016667
0.524379 0.331510 -0.033333
0.524113 0.345699 0.033333
0.523587 0.343377 0.016667
0.523129 0.343058 0.000000
0.522916 0.344856 -0.016667
0.522866 0.345798 -0.033333
0.521366 0.358496 0.033333
0.520982 0.356670 0.016667
0.520763 0.356831 0.000000
0.520881 0.359112 -0.016667
0.521113 0.360185 -0.033333
0.517750 0.371716 0.033333
0.517545 0.370310 0.016667
0.517790 0.370884 0.000000
0.518554 0.373646 -0.016667
0.519301 0.374737 -0.033333
0.513315 0.385596 0.033333
0.513148 0.384482 0.016667
0.514129 0.385356 0.000000
0.516131 0.388579 -0.016667
0.517833 0.389436 -0.033333
0.544480 -0.487129 0.033333
0.554073 -0.496560 0.016667
0.561186 -0.498835 0.000000
0.565630 -0.500272 -0.016667
0.568288 -0.501467 -0.033333
0.560653 -0.473505 0.033333
0.564150 -0.481169 0.016667
0.567424 -0.484537 0.000000
0.569811 -0.485571 -0.016667
0.571401 -0.487048 -0.033333
0.573310 -0.460067 0.033333
0.573705 -0.466765 0.016667
0.574436 -0.470212 0.000000
0.575240 -0.471380 -0.016667
0.575844 -0.472615 -0.033333
0.583610 -0.447039 0.033333
0.582399 -0.452879 0.016667
0.581513 -0.456182 0.000000
0.581134 -0.457420 -0.016667
0.581006 -0.458457 -0.033333
0.592252 -0.434343 0.033333
0.590145 -0.439387 0.016667
0.588229 -0.442449 0.000000
0.587019 -0.443676 -0.016667
0.586372 -0.444564 -0.033333
0.599587 -0.421898 0.033333
0.596942 -0.426206 0.016667
0.594359 -0.428971 0.000000
0.592582 -0.430135 -0.016667
0.591574 -0.430898 -0.033333
0.605794 -0.409627 0.033333
0.602802 -0.413261 0.016667
0.599776 -0.415698 0.000000
0.597614 -0.416765 -0.016667
0.596358 -0.417416 -0.033333
0.610946 -0.397500 0.033333
0.607721 -0.400487 0.016667
0.604396 -0.402577 0.000000
0.601974 -0.403529 -0.016667
0.600550 -0.404074 -0.033333
0.615074 -0.385421 0.033333
0.611690 -0.387819 0.016667
0.608161 -0.389564 0.000000
0.605563 -0.390385 -0.016667
0.604027 -0.390828 -0.033333
0.618193 -0.373402 0.033333
0.614687 -0.375219 0.016667
0.611023 -0.376606 0.000000
0.608314 -0.377290 -0.016667
0.606707 -0.377636 -0.033333
0.620259 -0.361372 0.033333
0.616686 -0.362623 0.016667
0.612943 -0.363665 0.000000
0.610176 -0.364208 -0.016667
0.608535 -0.364454 -0.033333
0.621267 -0.349287 0.033333
0.617644 -0.350013 0.016667
0.613885 -0.350696 0.000000
0.611116 -0.351094 -0.016667
0.609473 -0.351247 -0.033333
0.621112 -0.337212 0.033333
0.617527 -0.337307 0.016667
0.613813 -0.337661 0.000000
0.611109 -0.337921 -0.016667
0.609514 -0.337963 -0.033333
0.619759 -0.324855 0.033333
0.616247 -0.324541 0.016667
0.612700 -0.324515 0.000000
0.610156 -0.324629 -0.016667
0.608661 -0.324586 -0.033333
0.617056 -0.312623 0.033333
0.613751 -0.311514 0.016667
0.610523 -0.311210 0.000000
0.608278 -0.311212 -0.016667
0.606970 -0.311031 -0.033333
0.612733 -0.299921 0.033333
0.609941 -0.298358 0.016667
0.607303 -0.297688 0.000000
0.605550 -0.297579 -0.016667
0.604535 -0.297306 -0.033333
0.606589 -0.287109 0.033333
0.604720 -0.284766 0.016667
0.603140 -0.283889 0.000000
0.602140 -0.283735 -0.016667
0.601522 -0.283294 -0.033333
0.597893 -0.273806 0.033333
0.598164 -0.270823 0.016667
0.598416 -0.269710 0.000000
0.598285 -0.269617 -0.016667
0.598212 -0.268981 -0.033333
0.584661 -0.260896 0.033333
0.591524 -0.255410 0.016667
0.593665 -0.255837 0.000000
0.594512 -0.254537 -0.016667
0.594767 -0.254963 -0.033333
0.583231 -0.244830 0.033333
0.587294 -0.240630 0.016667
0.589852 -0.240546 0.000000
0.590980 -0.239993 -0.016667
0.591557 -0.239883 -0.033333
0.581801 -0.228765 0.033333
0.584705 -0.225345 0.016667
0.586812 -0.225155 0.000000
0.587976 -0.224967 -0.016667
0.588590 -0.224759 -0.033333
0.580372 -0.212699 0.033333
0.582649 -0.209853 0.016667
0.584366 -0.209655 0.000000
0.585397 -0.209647 -0.016667
0.585962 -0.209502 -0.033333
0.578942 -0.196634 0.033333
0.580828 -0.194177 0.016667
0.582297 -0.194076 0.000000
0.583153 -0.194144 -0.016667
0.583640 -0.194100 -0.033333
0.577512 -0.180568 0.033333
0.579247 -0.178421 0.016667
0.580468 -0.178472 0.000000
0.581163 -0.178484 -0.016667
0.581565 -0.178629 -0.033333
0.576751 -0.164177 0.033333
0.577817 -0.162854 0.016667
0.578800 -0.162623 0.000000
0.579357 -0.162936 -0.016667
0.579675 -0.162906 -0.033333
0.575559 -0.148114 0.033333
0.576457 -0.147121 0.016667
0.577222 -0.146908 0.000000
0.577675 -0.147208 -0.016667
0.577919 -0.147253 -0.033333
0.574283 -0.132140 0.033333
0.575045 -0.131348 0.016667
0.575694 -0.131190 0.000000
0.576065 -0.131463 -0.016667
0.576258 -0.131550 -0.033333
0.572938 -0.116187 0.033333
0.573610 -0.115581 0.016667
0.574178 -0.115463 0.000000
0.574500 -0.115707 -0.016667
0.574658 -0.115820 -0.033333
0.571549 -0.100254 0.033333
0.572153 -0.099788 0.016667
0.572670 -0.099726 0.000000
0.572960 -0.099951 -0.016667
0.573098 -0.100066 -0.033333
0.570125 -0.084312 0.033333
0.570683 -0.083992 0.016667
0.571165 -0.083980 0.000000
0.571438 -0.084188 -0.016667
0.571563 -0.084304 -0.033333
0.568684 -0.068369 0.033333
0.569207 -0.068174 0.016667
0.569666 -0.068224 0.000000
0.569929 -0.068423 -0.016667
0.570047 -0.068532 -0.033333
0.567230 -0.052410 0.033333
0.567731 -0.052350 0.016667
0.568174 -0.052461 0.000000
0.568431 -0.052654 -0.016667
0.568545 -0.052755 -0.033333
0.565778 -0.036440 0.033333
0.566260 -0.036507 0.016667
0.566692 -0.036689 0.000000
0.566945 -0.036881 -0.016667
0.567056 -0.036972 -0.033333
0.564326 -0.020454 0.033333
0.564798 -0.020655 0.016667
0.565222 -0.020909 0.000000
0.565472 -0.021102 -0.016667
0.565580 -0.021184 -0.033333
0.562890 -0.004451 0.033333
0.563351 -0.004788 0.016667
0.563768 -0.005123 0.000000
0.564013 -0.005320 -0.016667
0.564118 -0.005391 -0.033333
0.561465 0.011568 0.033333
0.561923 0.011085 0.016667
0.562332 0.010669 0.000000
0.562571 0.010468 -0.016667
0.562672 0.010408 -0.033333
0.560066 0.027606 0.033333
0.560517 0.026970 0.016667
0.560917 0.026464 0.000000
0.561147 0.026259 -0.016667
0.561242 0.026211 -0.033333
0.558686 0.043657 0.033333
0.559135 0.042856 0.016667
0.559523 0.042259 0.000000
0.559742 0.042053 -0.016667
0.559830 0.042018 -0.033333
0.557339 0.059725 0.033333
0.557780 0.058747 0.016667
0.558153 0.058050 0.000000
0.558357 0.057847 -0.016667
0.558436 0.057826 -0.033333
0.556008 0.075797 0.033333
0.556446 0.074626 0.016667
0.556803 0.073832 0.000000
0.556990 0.073639 -0.016667
0.557061 0.073632 -0.033333
0.554704 0.091879 0.033333
0.555134 0.090495 0.016667
0.555470 0.089597 0.000000
0.555641 0.089424 -0.016667
0.555704 0.089432 -0.033333
0.553391 0.107950 0.033333
0.553819 0.106332 0.016667
0.554145 0.105338 0.000000
0.554304 0.105198 -0.016667
0.554365 0.105217 -0.033333
0.552058 0.124026 0.033333
0.552496 0.122142 0.016667
0.552815 0.121046 0.000000
0.552975 0.120957 -0.016667
0.553044 0.120981 -0.033333
0.550637 0.140082 0.033333
0.551110 0.137892 0.016667
0.551465 0.136715 0.000000
0.551654 0.136700 -0.016667
0.551744 0.136709 -0.033333
0.549070 0.156168 0.033333
0.549649 0.153601 0.016667
0.550085 0.152339 0.000000
0.550342 0.152425 -0.016667
0.550484 0.152388 -0.033333
0.547224 0.172308 0.033333
0.548027 0.169189 0.016667
0.548696 0.167946 0.000000
0.549070 0.168118 -0.016667
0.549277 0.168009 -0.033333
0.544626 0.188937 0.033333
0.546484 0.184401 0.016667
0.547328 0.183839 0.000000
0.547890 0.183478 -0.016667
0.548149 0.183838 -0.033333
0.543196 0.205003 0.033333
0.544999 0.200064 0.016667
0.546124 0.199262 0.000000
0.546811 0.199158 -0.016667
0.547171 0.199244 -0.033333
0.541767 0.221068 0.033333
0.543792 0.215667 0.016667
0.545099 0.214709 0.000000
0.545915 0.214657 -0.016667
0.546368 0.214655 -0.033333
0.540337 0.237134 0.033333
0.542759 0.231019 0.016667
0.544322 0.230149 0.000000
0.545267 0.229980 -0.016667
0.545757 0.229978 -0.033333
0.538907 0.253199 0.033333
0.542074 0.246217 0.016667
0.543928 0.245541 0.000000
0.544886 0.245028 -0.016667
0.545380 0.245253 -0.033333
0.537477 0.269265 0.033333
0.542451 0.260899 0.016667
0.543910 0.260977 0.000000
0.544872 0.259588 -0.016667
0.545129 0.260595 -0.033333
0.542450 0.282875 0.033333
0.543560 0.276862 0.016667
0.544585 0.274728 0.000000
0.544881 0.275008 -0.016667
0.545110 0.274699 -0.033333
0.545024 0.296324 0.033333
0.545108 0.291037 0.016667
0.545124 0.288963 0.000000
0.545013 0.289383 -0.016667
0.544951 0.289277 -0.033333
0.546378 0.309048 0.033333
0.545903 0.304778 0.016667
0.545361 0.302873 0.000000
0.544867 0.303455 -0.016667
0.544588 0.303686 -0.033333
0.546597 0.321709 0.033333
0.545861 0.317848 0.016667
0.544961 0.316478 0.000000
0.544260 0.317423 -0.016667
0.543876 0.317878 -0.033333
0.545758 0.333897 0.033333
0.544801 0.330910 0.016667
0.543829 0.329986 0.000000
0.543105 0.331298 -0.016667
0.542703 0.332028 -0.033333
0.543692 0.346284 0.033333
0.542827 0.343839 0.016667
0.541930 0.343455 0.000000
0.541352 0.345256 -0.016667
0.541101 0.346189 -0.033333
0.540542 0.358872 0.033333
0.539813 0.356982 0.016667
0.539238 0.357089 0.000000
0.539075 0.359382 -0.016667
0.539144 0.360474 -0.033333
0.536218 0.371901 0.033333
0.535770 0.370450 0.016667
0.535768 0.371009 0.000000
0.536381 0.373817 -0.016667
0.537082 0.374935 -0.033333
0.530799 0.385666 0.033333
0.530462 0.384508 0.016667
0.531370 0.385411 0.000000
0.533540 0.388665 -0.016667
0.535380 0.389571 -0.033333
0.561464 -0.487009 0.033333
0.571535 -0.496309 0.016667
0.578857 -0.498626 0.000000
0.583366 -0.500152 -0.016667
0.586084 -0.501370 -0.033333
0.578604 -0.473313 0.033333
0.582305 -0.480831 0.016667
0.585555 -0.484253 0.000000
0.587897 -0.485344 -0.016667
0.589474 -0.486851 -0.033333
0.592120 -0.459779 0.033333
0.592452 -0.466360 0.016667
0.593028 -0.469854 0.000000
0.593714 -0.471072 -0.016667
0.594250 -0.472331 -0.033333
0.603103 -0.446659 0.033333
0.601676 -0.452418 0.016667
0.600543 -0.455757 0.000000
0.599990 -0.457045 -0.016667
0.599760 -0.458100 -0.033333
0.612273 -0.433884 0.033333
0.609870 -0.438871 0.016667
0.607647 -0.441965 0.000000
0.606224 -0.443239 -0.016667
0.605451 -0.444143 -0.033333
0.620011 -0.421361 0.033333
0.617024 -0.425636 0.016667
0.614098 -0.428428 0.000000
0.612082 -0.429635 -0.016667
0.610934 -0.430416 -0.033333
0.626495 -0.409030 0.033333
0.623143 -0.412628 0.016667
0.619757 -0.415091 0.000000
0.617342 -0.416201 -0.016667
0.615939 -0.416871 -0.033333
0.631822 -0.396786 0.033333
0.628230 -0.399778 0.016667
0.624538 -0.401902 0.000000
0.621856 -0.402893 -0.016667
0.620283 -0.403459 -0.033333
0.636036 -0.384641 0.033333
0.632275 -0.387030 0.016667
0.628381 -0.388803 0.000000
0.625526 -0.389667 -0.016667
0.623841 -0.390136 -0.033333
0.639127 -0.372484 0.033333
0.635266 -0.374320 0.016667
0.631244 -0.375755 0.000000
0.628282 -0.376484 -0.016667
0.626530 -0.376856 -0.033333
0.641119 -0.360322 0.033333
0.637177 -0.361625 0.016667
0.633088 -0.362713 0.000000
0.630077 -0.363303 -0.016667
0.628293 -0.363584 -0.033333
0.641933 -0.348144 0.033333
0.637982 -0.348889 0.016667
0.633879 -0.349644 0.000000
0.630876 -0.350095 -0.016667
0.629103 -0.350278 -0.033333
0.641568 -0.335837 0.033333
0.637608 -0.336119 0.016667
0.633586 -0.336514 0.000000
0.630666 -0.336820 -0.016667
0.628942 -0.336915 -0.033333
0.639829 -0.323645 0.033333
0.636028 -0.323195 0.016667
0.632176 -0.323288 0.000000
0.629437 -0.323463 -0.016667
0.627840 -0.323435 -0.033333
0.636641 -0.311009 0.033333
0.633104 -0.310236 0.016667
0.629635 -0.309923 0.000000
0.627229 -0.309954 -0.016667
0.625835 -0.309846 -0.033333
0.631802 -0.298543 0.033333
0.628771 -0.296926 0.016667
0.625971 -0.296373 0.000000
0.624122 -0.296303 -0.016667
0.623050 -0.296036 -0.033333
0.624815 -0.285602 0.033333
0.622956 -0.283456 0.016667
0.621314 -0.282553 0.000000
0.620285 -0.282412 -0.016667
0.619667 -0.282028 -0.033333
0.615142 -0.272354 0.033333
0.615689 -0.269488 0.016667
0.616065 -0.268376 0.000000
0.616006 -0.268314 -0.016667
0.615979 -0.267664 -0.033333
0.600727 -0.259466 0.033333
0.608289 -0.254146 0.016667
0.610814 -0.254508 0.000000
0.611850 -0.253225 -0.016667
0.612188 -0.253657 -0.033333
0.599297 -0.243400 0.033333
0.603811 -0.239312 0.016667
0.606689 -0.239225 0.000000
0.608004 -0.238689 -0.016667
0.608686 -0.238572 -0.033333
0.597867 -0.227335 0.033333
0.601102 -0.224055 0.016667
0.603441 -0.223846 0.000000
0.604776 -0.223657 -0.016667
0.605487 -0.223468 -0.033333
0.596437 -0.211269 0.033333
0.598955 -0.208523 0.016667
0.600875 -0.208354 0.000000
0.602035 -0.208352 -0.016667
0.602684 -0.208211 -0.033333
0.595007 -0.195204 0.033333
0.597108 -0.192885 0.016667
0.598718 -0.192781 0.000000
0.599686 -0.192856 -0.016667
0.600236 -0.192825 -0.033333
0.593577 -0.179138 0.033333
0.595510 -0.177109 0.016667
0.596852 -0.177183 0.000000
0.597622 -0.177217 -0.016667
0.598074 -0.177354 -0.033333
0.592961 -0.162763 0.033333
0.594106 -0.161562 0.016667
0.595158 -0.161358 0.000000
0.595775 -0.161668 -0.016667
0.596125 -0.161656 -0.033333
0.591822 -0.146741 0.033333
0.592763 -0.145819 0.016667
0.593579 -0.145656 0.000000
0.594066 -0.145958 -0.016667
0.594333 -0.146008 -0.033333
0.590567 -0.130789 0.033333
0.591366 -0.130084 0.016667
0.592044 -0.129953 0.000000
0.592442 -0.130225 -0.016667
0.592650 -0.130321 -0.033333
0.589230 -0.114882 0.033333
0.589928 -0.114324 0.016667
0.590526 -0.114240 0.000000
0.590867 -0.114487 -0.016667
0.591035 -0.114599 -0.033333
0.587832 -0.098972 0.033333
0.588469 -0.098563 0.016667
0.589012 -0.098518 0.000000
0.589321 -0.098742 -0.016667
0.589466 -0.098862 -0.033333
0.586402 -0.083067 0.033333
0.586990 -0.082778 0.016667
0.587502 -0.082786 0.000000
0.587793 -0.082995 -0.016667
0.587925 -0.083110 -0.033333
0.584945 -0.067144 0.033333
0.585505 -0.066984 0.016667
0.585997 -0.067045 0.000000
0.586279 -0.067242 -0.016667
0.586404 -0.067352 -0.033333
0.583481 -0.051209 0.033333
0.584018 -0.051168 0.016667
0.584499 -0.051292 0.000000
0.584776 -0.051486 -0.016667
0.584898 -0.051587 -0.033333
0.582009 -0.035254 0.033333
0.582536 -0.035341 0.016667
0.583009 -0.035531 0.000000
0.583285 -0.035724 -0.016667
0.583405 -0.035817 -0.033333
0.580546 -0.019281 0.033333
0.581063 -0.019495 0.016667
0.581532 -0.019760 0.000000
0.581807 -0.019956 -0.016667
0.581924 -0.020040 -0.033333
0.579089 -0.003286 0.033333
0.579604 -0.003637 0.016667
0.580070 -0.003979 0.000000
0.580342 -0.004182 -0.016667
0.580457 -0.004257 -0.033333
0.577653 0.012732 0.033333
0.578165 0.012239 0.016667
0.578627 0.011809 0.000000
0.578894 0.011600 -0.016667
0.579005 0.011534 -0.033333
0.576233 0.028772 0.033333
0.576748 0.028125 0.016667
0.577205 0.027605 0.000000
0.577465 0.027388 -0.016667
0.577571 0.027332 -0.033333
0.574847 0.044840 0.033333
0.575360 0.044025 0.016667
0.575808 0.043406 0.000000
0.576057 0.043183 -0.016667
0.576156 0.043137 -0.033333
0.573482 0.060924 0.033333
0.573999 0.059929 0.016667
0.574437 0.059208 0.000000
0.574672 0.058982 -0.016667
0.574763 0.058946 -0.033333
0.572158 0.077033 0.033333
0.572670 0.075836 0.016667
0.573092 0.075005 0.000000
0.573311 0.074782 -0.016667
0.573392 0.074756 -0.033333
0.570848 0.093145 0.033333
0.571361 0.091730 0.016667
0.571769 0.090788 0.000000
0.571971 0.090578 -0.016667
0.572045 0.090562 -0.033333
0.569560 0.109270 0.033333
0.570072 0.107605 0.016667
0.570461 0.106550 0.000000
0.570651 0.106364 -0.016667
0.570722 0.106355 -0.033333
0.568238 0.125374 0.033333
0.568762 0.123438 0.016667
0.569156 0.122278 0.000000
0.569348 0.122136 -0.016667
0.569424 0.122126 -0.033333
0.566853 0.141485 0.033333
0.567421 0.139226 0.016667
0.567837 0.137962 0.000000
0.568057 0.137888 -0.016667
0.568162 0.137860 -0.033333
0.565288 0.157572 0.033333
0.565961 0.154929 0.016667
0.566491 0.153596 0.000000
0.566790 0.153619 -0.016667
0.566943 0.153539 -0.033333
0.563426 0.173751 0.033333
0.564375 0.170552 0.016667
0.565137 0.169201 0.000000
0.565566 0.169310 -0.016667
0.565804 0.169156 -0.033333
0.560692 0.190367 0.033333
0.562802 0.185700 0.016667
0.563818 0.185102 0.000000
0.564460 0.184656 -0.016667
0.564750 0.184975 -0.033333
0.559262 0.206432 0.033333
0.561372 0.201429 0.016667
0.562676 0.200495 0.000000
0.563469 0.200321 -0.016667
0.563889 0.200363 -0.033333
0.557832 0.222498 0.033333
0.560185 0.216933 0.016667
0.561752 0.215945 0.000000
0.562708 0.215795 -0.016667
0.563216 0.215737 -0.033333
0.556402 0.238564 0.033333
0.559265 0.232386 0.016667
0.561134 0.231344 0.000000
0.562225 0.231085 -0.016667
0.562806 0.231036 -0.033333
0.554973 0.254629 0.033333
0.558749 0.247476 0.016667
0.560972 0.246737 0.000000
0.562106 0.246097 -0.016667
0.562646 0.246242 -0.033333
0.553543 0.270695 0.033333
0.559556 0.262273 0.016667
0.561348 0.262116 0.000000
0.562392 0.260585 -0.016667
0.562691 0.261557 -0.033333
0.560322 0.284376 0.033333
0.561452 0.278088 0.016667
0.562523 0.275812 0.000000
0.562789 0.275976 -0.016667
0.562961 0.275518 -0.033333
0.563951 0.297673 0.033333
0.563826 0.292400 0.016667
0.563620 0.289938 0.000000
0.563281 0.290194 -0.016667
0.563086 0.290068 -0.033333
0.566116 0.310505 0.033333
0.565243 0.305652 0.016667
0.564237 0.303687 0.000000
0.563426 0.304203 -0.016667
0.562958 0.304309 -0.033333
0.566766 0.322487 0.033333
0.565434 0.318802 0.016667
0.564086 0.317185 0.000000
0.562998 0.317986 -0.016667
0.562350 0.318431 -0.033333
0.565859 0.334732 0.033333
0.564524 0.331506 0.016667
0.563004 0.330476 0.000000
0.561843 0.331762 -0.016667
0.561202 0.332445 -0.033333
0.563682 0.346846 0.033333
0.562320 0.344319 0.016667
0.560936 0.343823 0.000000
0.559970 0.345579 -0.016667
0.559469 0.346511 -0.033333
0.560024 0.359212 0.033333
0.558914 0.357247 0.016667
0.557906 0.357304 0.000000
0.557406 0.359604 -0.016667
0.557300 0.360702 -0.033333
0.554930 0.372073 0.033333
0.554163 0.370583 0.016667
0.553873 0.371118 0.000000
0.554318 0.373947 -0.016667
0.554953 0.375091 -0.033333
0.548420 0.385720 0.033333
0.547884 0.384522 0.016667
0.548670 0.385455 0.000000
0.551016 0.388728 -0.016667
0.552989 0.389681 -0.033333
0.578404 -0.486897 0.033333
0.588892 -0.496090 0.016667
0.596397 -0.498482 0.000000
0.600942 -0.500116 -0.016667
0.603704 -0.501371 -0.033333
0.596464 -0.473145 0.033333
0.600363 -0.480540 0.016667
0.603569 -0.484035 0.000000
0.605848 -0.485199 -0.016667
0.607397 -0.486740 -0.033333
0.610831 -0.459541 0.033333
0.611100 -0.466022 0.016667
0.611507 -0.469575 0.000000
0.612067 -0.470848 -0.016667
0.612528 -0.472134 -0.033333
0.622499 -0.446359 0.033333
0.620850 -0.452047 0.016667
0.619461 -0.455427 0.000000
0.618731 -0.456763 -0.016667
0.618396 -0.457835 -0.033333
0.632201 -0.433536 0.033333
0.629485 -0.438472 0.016667
0.626949 -0.441590 0.000000
0.625313 -0.442905 -0.016667
0.624416 -0.443823 -0.033333
0.640321 -0.420978 0.033333
0.636980 -0.425199 0.016667
0.633709 -0.428008 0.000000
0.631458 -0.429250 -0.016667
0.630175 -0.430042 -0.033333
0.647070 -0.408564 0.033333
0.643341 -0.412141 0.016667
0.639594 -0.414617 0.000000
0.636934 -0.415753 -0.016667
0.635391 -0.416436 -0.033333
0.652546 -0.396282 0.033333
0.648569 -0.399221 0.016667
0.644517 -0.401350 0.000000
0.641590 -0.402371 -0.016667
0.639874 -0.402952 -0.033333
0.656793 -0.383977 0.033333
0.652671 -0.386364 0.016667
0.648423 -0.388161 0.000000
0.645325 -0.389053 -0.016667
0.643500 -0.389539 -0.033333
0.659874 -0.371692 0.033333
0.655639 -0.373538 0.016667
0.651272 -0.374997 0.000000
0.648076 -0.375761 -0.016667
0.646186 -0.376158 -0.033333
0.661743 -0.359366 0.033333
0.657462 -0.360689 0.016667
0.653035 -0.361829 0.000000
0.649796 -0.362462 -0.016667
0.647883 -0.362770 -0.033333
0.662426 -0.346975 0.033333
0.658102 -0.347818 0.016667
0.653681 -0.348626 0.000000
0.650461 -0.349126 -0.016667
0.648558 -0.349348 -0.033333
0.661773 -0.334608 0.033333
0.657532 -0.334874 0.016667
0.653178 -0.335371 0.000000
0.650048 -0.335736 -0.016667
0.648216 -0.335859 -0.033333
0.659814 -0.322004 0.033333
0.655624 -0.321918 0.016667
0.651499 -0.322033 0.000000
0.648573 -0.322253 -0.016667
0.646861 -0.322296 -0.033333
0.656212 -0.309738 0.033333
0.652361 -0.308741 0.016667
0.648612 -0.308592 0.000000
0.646051 -0.308686 -0.016667
0.644577 -0.308582 -0.033333
0.650721 -0.296889 0.033333
0.647543 -0.295587 0.016667
0.644552 -0.294984 0.000000
0.642584 -0.294941 -0.016667
0.641462 -0.294754 -0.033333
0.643071 -0.284126 0.033333
0.641125 -0.281987 0.016667
0.639416 -0.281169 0.000000
0.638363 -0.281047 -0.016667
0.637720 -0.280662 -0.033333
0.632344 -0.270869 0.033333
0.633213 -0.268171 0.016667
0.633667 -0.266977 0.000000
0.633661 -0.266930 -0.016667
0.633694 -0.266305 -0.033333
0.616792 -0.258036 0.033333
0.624995 -0.252836 0.016667
0.627923 -0.253126 0.000000
0.629150 -0.251862 -0.016667
0.629558 -0.252264 -0.033333
0.615362 -0.241971 0.033333
0.620329 -0.238006 0.016667
0.623495 -0.237860 0.000000
0.624999 -0.237316 -0.016667
0.625790 -0.237208 -0.033333
0.613933 -0.225905 0.033333
0.617481 -0.222696 0.016667
0.620069 -0.222497 0.000000
0.621559 -0.222298 -0.016667
0.622365 -0.222107 -0.033333
0.612503 -0.209840 0.033333
0.615288 -0.207212 0.016667
0.617374 -0.207012 0.000000
0.618671 -0.207003 -0.016667
0.619398 -0.206869 -0.033333
0.611073 -0.193774 0.033333
0.613380 -0.191544 0.016667
0.615155 -0.191456 0.000000
0.616216 -0.191527 -0.016667
0.616831 -0.191493 -0.033333
0.609643 -0.177708 0.033333
0.611805 -0.175809 0.016667
0.613237 -0.175866 0.000000
0.614091 -0.175905 -0.016667
0.614585 -0.176038 -0.033333
0.609190 -0.161364 0.033333
0.610404 -0.160233 0.016667
0.611537 -0.160067 0.000000
0.612200 -0.160367 -0.016667
0.612584 -0.160359 -0.033333
0.608112 -0.145353 0.033333
0.609103 -0.144528 0.016667
0.609948 -0.144381 0.000000
0.610470 -0.144673 -0.016667
0.610756 -0.144730 -0.033333
0.606887 -0.129453 0.033333
0.607708 -0.128797 0.016667
0.608416 -0.128695 0.000000
0.608831 -0.128960 -0.016667
0.609051 -0.129054 -0.033333
0.605549 -0.113568 0.033333
0.606277 -0.113073 0.016667
0.606891 -0.113000 0.000000
0.607248 -0.113238 -0.016667
0.607425 -0.113352 -0.033333
0.604150 -0.097704 0.033333
0.604805 -0.097325 0.016667
0.605373 -0.097296 0.000000
0.605696 -0.097514 -0.016667
0.605847 -0.097628 -0.033333
0.602699 -0.081822 0.033333
0.603320 -0.081569 0.016667
0.603856 -0.081583 0.000000
0.604163 -0.081783 -0.016667
0.604302 -0.081897 -0.033333
0.601232 -0.065932 0.033333
0.601821 -0.065790 0.016667
0.602345 -0.065858 0.000000
0.602645 -0.066050 -0.016667
0.602776 -0.066156 -0.033333
0.599745 -0.050020 0.033333
0.600323 -0.049998 0.016667
0.600839 -0.050124 0.000000
0.601137 -0.050311 -0.016667
0.601266 -0.050411 -0.033333
0.598261 -0.034089 0.033333
0.598827 -0.034185 0.016667
0.599342 -0.034379 0.000000
0.599641 -0.034568 -0.016667
0.599769 -0.034660 -0.033333
0.596773 -0.018134 0.033333
0.597341 -0.018357 0.016667
0.597856 -0.018623 0.000000
0.598156 -0.018818 -0.016667
0.598283 -0.018902 -0.033333
0.595301 -0.002155 0.033333
0.595868 -0.002509 0.016667
0.596384 -0.002856 0.000000
0.596685 -0.003060 -0.016667
0.596810 -0.003137 -0.033333
0.593838 0.013853 0.033333
0.594412 0.013356 0.016667
0.594931 0.012922 0.000000
0.595229 0.012708 -0.016667
0.595353 0.012638 -0.033333
0.592402 0.029893 0.033333
0.592981 0.029242 0.016667
0.593499 0.028712 0.000000
0.593793 0.028486 -0.016667
0.593912 0.028423 -0.033333
0.590986 0.045962 0.033333
0.591576 0.045143 0.016667
0.592093 0.044512 0.000000
0.592378 0.044274 -0.016667
0.592492 0.044217 -0.033333
0.589613 0.062069 0.033333
0.590207 0.061062 0.016667
0.590716 0.060318 0.000000
0.590990 0.060070 -0.016667
0.591095 0.060020 -0.033333
0.588264 0.078199 0.033333
0.588869 0.076987 0.016667
0.589370 0.076125 0.000000
0.589629 0.075872 -0.016667
0.589726 0.075827 -0.033333
0.586964 0.094362 0.033333
0.587569 0.092914 0.016667
0.588055 0.091926 0.000000
0.588297 0.091675 -0.016667
0.588386 0.091634 -0.033333
0.585670 0.110523 0.033333
0.586286 0.108822 0.016667
0.586763 0.107707 0.000000
0.586994 0.107471 -0.016667
0.587079 0.107431 -0.033333
0.584389 0.126702 0.033333
0.585017 0.124698 0.016667
0.585485 0.123457 0.000000
0.585715 0.123254 -0.016667
0.585808 0.123205 -0.033333
0.583022 0.142838 0.033333
0.583692 0.140512 0.016667
0.584202 0.139159 0.000000
0.584464 0.139015 -0.016667
0.584582 0.138943 -0.033333
0.581499 0.158994 0.033333
0.582298 0.156253 0.016667
0.582898 0.154804 0.000000
0.583243 0.154751 -0.016667
0.583421 0.154617 -0.033333
0.579624 0.175153 0.033333
0.580690 0.171849 0.016667
0.581595 0.170415 0.000000
0.582086 0.170435 -0.016667
0.582345 0.170227 -0.033333
0.576757 0.191797 0.033333
0.579187 0.187040 0.016667
0.580324 0.186299 0.000000
0.581055 0.185766 -0.016667
0.581392 0.186030 -0.033333
0.575327 0.207862 0.033333
0.577718 0.202666 0.016667
0.579269 0.201694 0.000000
0.580172 0.201401 -0.016667
0.580640 0.201389 -0.033333
0.573898 0.223928 0.033333
0.576640 0.218280 0.016667
0.578442 0.217085 0.000000
0.579543 0.216851 -0.016667
0.580136 0.216727 -0.033333
0.572468 0.239993 0.033333
0.575772 0.233575 0.016667
0.577984 0.232498 0.000000
0.579263 0.232092 -0.016667
0.579906 0.231970 -0.033333
0.571038 0.256059 0.033333
0.575451 0.248815 0.016667
0.578091 0.247824 0.000000
0.579377 0.247054 -0.016667
0.580024 0.247141 -0.033333
0.569609 0.272124 0.033333
0.576687 0.263502 0.016667
0.578829 0.263210 0.000000
0.580048 0.261492 -0.016667
0.580331 0.262347 -0.033333
0.578329 0.285871 0.033333
0.579547 0.279517 0.016667
0.580654 0.276771 0.000000
0.580806 0.276784 -0.016667
0.580952 0.276268 -0.033333
0.583379 0.299161 0.033333
0.582844 0.293330 0.016667
0.582279 0.290818 0.000000
0.581726 0.290946 -0.016667
0.581375 0.290646 -0.033333
0.586255 0.311323 0.033333
0.584812 0.306835 0.016667
0.583381 0.304441 0.000000
0.582184 0.304754 -0.016667
0.581461 0.304858 -0.033333
0.587186 0.323717 0.033333
0.585460 0.319450 0.016667
0.583459 0.317711 0.000000
0.581904 0.318474 -0.016667
0.581007 0.318821 -0.033333
0.586560 0.335392 0.033333
0.584515 0.332117 0.016667
0.582399 0.330918 0.000000
0.580779 0.332094 -0.016667
0.579827 0.332759 -0.033333
0.584039 0.347280 0.033333
0.582150 0.344659 0.016667
0.580167 0.344090 0.000000
0.578733 0.345822 -0.016667
0.577974 0.346733 -0.033333
0.579836 0.359487 0.033333
0.578226 0.357479 0.016667
0.576733 0.357474 0.000000
0.575869 0.359751 -0.016667
0.575551 0.360857 -0.033333
0.573870 0.372204 0.033333
0.572742 0.370682 0.016667
0.572101 0.371192 0.000000
0.572341 0.374032 -0.016667
0.572896 0.375194 -0.033333
0.566177 0.385768 0.033333
0.565395 0.384530 0.016667
0.566009 0.385494 0.000000
0.568546 0.388757 -0.016667
0.570642 0.389762 -0.033333
0.595311 -0.486801 0.033333
0.606139 -0.495926 0.016667
0.613793 -0.498441 0.000000
0.618336 -0.500204 -0.016667
0.621123 -0.501512 -0.033333
0.614252 -0.473019 0.033333
0.618319 -0.480333 0.016667
0.621452 -0.483927 0.000000
0.623646 -0.485181 -0.016667
0.625153 -0.486761 -0.033333
0.629457 -0.459388 0.033333
0.629647 -0.465800 0.016667
0.629866 -0.469428 0.000000
0.630283 -0.470763 -0.016667
0.630663 -0.472077 -0.033333
0.641814 -0.446198 0.033333
0.639917 -0.451832 0.016667
0.638257 -0.455254 0.000000
0.637343 -0.456636 -0.016667
0.636900 -0.457723 -0.033333
0.652033 -0.433384 0.033333
0.648978 -0.438262 0.016667
0.646118 -0.441399 0.000000
0.644268 -0.442745 -0.016667
0.643248 -0.443669 -0.033333
0.660522 -0.420812 0.033333
0.656792 -0.424985 0.016667
0.653167 -0.427790 0.000000
0.650687 -0.429048 -0.016667
0.649274 -0.429845 -0.033333
0.667483 -0.408413 0.033333
0.663357 -0.411891 0.016667
0.659254 -0.414346 0.000000
0.656362 -0.415497 -0.016667
0.654684 -0.416182 -0.033333
0.673044 -0.395986 0.033333
0.668695 -0.398885 0.016667
0.664294 -0.401004 0.000000
0.661136 -0.402031 -0.016667
0.659289 -0.402618 -0.033333
0.677312 -0.383585 0.033333
0.672817 -0.385914 0.016667
0.668237 -0.387695 0.000000
0.664919 -0.388605 -0.016667
0.662965 -0.389102 -0.033333
0.680295 -0.371076 0.033333
0.675739 -0.372910 0.016667
0.671059 -0.374390 0.000000
0.667649 -0.375179 -0.016667
0.665638 -0.375592 -0.033333
0.682078 -0.358489 0.033333
0.677456 -0.359871 0.016667
0.672733 -0.361053 0.000000
0.669292 -0.361724 -0.016667
0.667259 -0.362061 -0.033333
0.682581 -0.345871 0.033333
0.677959 -0.346776 0.016667
0.673236 -0.347673 0.000000
0.669820 -0.348227 -0.016667
0.667810 -0.348483 -0.033333
0.681823 -0.333186 0.033333
0.677171 -0.333658 0.016667
0.672541 -0.334240 0.000000
0.669229 -0.334672 -0.016667
0.667281 -0.334850 -0.033333
0.679486 -0.320675 0.033333
0.675072 -0.320461 0.016667
0.670614 -0.320753 0.000000
0.667509 -0.321059 -0.016667
0.665718 -0.321127 -0.033333
0.675635 -0.307735 0.033333
0.671424 -0.307345 0.016667
0.667439 -0.307188 0.000000
0.664719 -0.307339 -0.016667
0.663152 -0.307339 -0.033333
0.669757 -0.295439 0.033333
0.666236 -0.293916 0.016667
0.662999 -0.293531 0.000000
0.660929 -0.293553 -0.016667
0.659747 -0.293365 -0.033333
0.661249 -0.282498 0.033333
0.659288 -0.280589 0.016667
0.657457 -0.279661 0.000000
0.656334 -0.279584 -0.016667
0.655690 -0.279271 -0.033333
0.649568 -0.269377 0.033333
0.650702 -0.266705 0.016667
0.651210 -0.265523 0.000000
0.651270 -0.265475 -0.016667
0.651323 -0.264844 -0.033333
0.632858 -0.256606 0.033333
0.641652 -0.251518 0.016667
0.644996 -0.251659 0.000000
0.646393 -0.250423 -0.016667
0.646901 -0.250809 -0.033333
0.631428 -0.240541 0.033333
0.636820 -0.236607 0.016667
0.640283 -0.236445 0.000000
0.641976 -0.235875 -0.016667
0.642859 -0.235765 -0.033333
0.629998 -0.224475 0.033333
0.633890 -0.221360 0.016667
0.636682 -0.221087 0.000000
0.638333 -0.220878 -0.016667
0.639236 -0.220685 -0.033333
0.628568 -0.208410 0.033333
0.631603 -0.205828 0.016667
0.633892 -0.205637 0.000000
0.635304 -0.205601 -0.016667
0.636110 -0.205465 -0.033333
0.627138 -0.192344 0.033333
0.629700 -0.190219 0.016667
0.631589 -0.190092 0.000000
0.632758 -0.190150 -0.016667
0.633429 -0.190110 -0.033333
0.625708 -0.176279 0.033333
0.628094 -0.174471 0.016667
0.629651 -0.174522 0.000000
0.630564 -0.174555 -0.016667
0.631108 -0.174670 -0.033333
0.625444 -0.159941 0.033333
0.626745 -0.158920 0.016667
0.627926 -0.158752 0.000000
0.628641 -0.159027 -0.016667
0.629052 -0.159022 -0.033333
0.624439 -0.143990 0.033333
0.625458 -0.143211 0.016667
0.626342 -0.143086 0.000000
0.626886 -0.143356 -0.016667
0.627192 -0.143407 -0.033333
0.623235 -0.128103 0.033333
0.624089 -0.127520 0.016667
0.624804 -0.127418 0.000000
0.625237 -0.127663 -0.016667
0.625468 -0.127754 -0.033333
0.621909 -0.112276 0.033333
0.622644 -0.111807 0.016667
0.623280 -0.111743 0.000000
0.623647 -0.111964 -0.016667
0.623830 -0.112068 -0.033333
0.620487 -0.096432 0.033333
0.621172 -0.096092 0.016667
0.621754 -0.096059 0.000000
0.622089 -0.096259 -0.016667
0.622247 -0.096369 -0.033333
0.619031 -0.080591 0.033333
0.619669 -0.080353 0.016667
0.620233 -0.080366 0.000000
0.620554 -0.080553 -0.016667
0.620697 -0.080658 -0.033333
0.617536 -0.064725 0.033333
0.618162 -0.064601 0.016667
0.618714 -0.064664 0.000000
0.619031 -0.064843 -0.016667
0.619170 -0.064944 -0.033333
0.616038 -0.048845 0.033333
0.616649 -0.048829 0.016667
0.617202 -0.048952 0.000000
0.617521 -0.049130 -0.016667
0.617657 -0.049224 -0.033333
0.614528 -0.032941 0.033333
0.615141 -0.033043 0.016667
0.615697 -0.033231 0.000000
0.616020 -0.033412 -0.016667
0.616157 -0.033500 -0.033333
0.613026 -0.017015 0.033333
0.613639 -0.017236 0.016667
0.614201 -0.017499 0.000000
0.614529 -0.017688 -0.016667
0.614667 -0.017770 -0.033333
0.611523 -0.001060 0.033333
0.612149 -0.001412 0.016667
0.612719 -0.001754 0.000000
0.613050 -0.001955 -0.016667
0.613188 -0.002032 -0.033333
0.610040 0.014928 0.033333
0.610675 0.014437 0.016667
0.611252 0.014004 0.000000
0.611585 0.013789 -0.016667
0.611722 0.013717 -0.033333
0.608568 0.030952 0.033333
0.609221 0.030307 0.016667
0.609807 0.029778 0.000000
0.610138 0.029546 -0.016667
0.610273 0.029478 -0.033333
0.607131 0.047020 0.033333
0.607797 0.046205 0.016667
0.608387 0.045566 0.000000
0.608714 0.045317 -0.016667
0.608844 0.045252 -0.033333
0.605715 0.063129 0.033333
0.606404 0.062125 0.016667
0.606998 0.061368 0.000000
0.607318 0.061102 -0.016667
0.607442 0.061038 -0.033333
0.604355 0.079289 0.033333
0.605055 0.078067 0.016667
0.605646 0.077179 0.000000
0.605954 0.076898 -0.016667
0.606070 0.076834 -0.033333
0.603019 0.095480 0.033333
0.603744 0.094019 0.016667
0.604331 0.092990 0.000000
0.604625 0.092700 -0.016667
0.604735 0.092633 -0.033333
0.601745 0.111716 0.033333
0.602477 0.109968 0.016667
0.603053 0.108791 0.000000
0.603336 0.108501 -0.016667
0.603442 0.108426 -0.033333
0.600461 0.127940 0.033333
0.601221 0.125891 0.016667
0.601800 0.124562 0.000000
0.602085 0.124289 -0.016667
0.602199 0.124200 -0.033333
0.599160 0.144183 0.033333
0.599962 0.141753 0.016667
0.600559 0.140288 0.000000
0.600873 0.140059 -0.016667
0.601017 0.139931 -0.033333
0.597666 0.160354 0.033333
0.598586 0.157523 0.016667
0.599309 0.155947 0.000000
0.599713 0.155795 -0.016667
0.599911 0.155603 -0.033333
0.595819 0.176600 0.033333
0.597072 0.173152 0.016667
0.598065 0.171557 0.000000
0.598626 0.171476 -0.016667
0.598923 0.171192 -0.033333
0.592823 0.193226 0.033333
0.595519 0.188268 0.016667
0.596880 0.187447 0.000000
0.597691 0.186771 -0.016667
0.598068 0.186983 -0.033333
0.591393 0.209292 0.033333
0.594187 0.203977 0.016667
0.595889 0.202779 0.000000
0.596925 0.202391 -0.016667
0.597459 0.202292 -0.033333
0.589963 0.225358 0.033333
0.593058 0.219395 0.016667
0.595201 0.218180 0.000000
0.596450 0.217773 -0.016667
0.597107 0.217588 -0.033333
0.588533 0.241423 0.033333
0.592350 0.234885 0.016667
0.594892 0.233482 0.000000
0.596356 0.232980 -0.016667
0.597115 0.232769 -0.033333
0.587104 0.257489 0.033333
0.592172 0.249892 0.016667
0.595245 0.248847 0.000000
0.596766 0.247856 -0.016667
0.597464 0.247856 -0.033333
0.585674 0.273554 0.033333
0.593795 0.264802 0.016667
0.596452 0.264099 0.000000
0.597753 0.262225 -0.016667
0.598131 0.263016 -0.033333
0.596632 0.287317 0.033333
0.597850 0.280538 0.016667
0.598876 0.277651 0.000000
0.599004 0.277468 -0.016667
0.599055 0.276748 -0.033333
0.603082 0.300318 0.033333
0.602144 0.294695 0.016667
0.601229 0.291512 0.000000
0.600330 0.291427 -0.016667
0.599793 0.291140 -0.033333
0.606955 0.312927 0.033333
0.604919 0.307365 0.016667
0.602732 0.304944 0.000000
0.601099 0.305208 -0.016667
0.600150 0.305151 -0.033333
0.608476 0.324075 0.033333
0.605724 0.320113 0.016667
0.603066 0.318153 0.000000
0.601015 0.318740 -0.016667
0.599770 0.319076 -0.033333
0.607571 0.335797 0.033333
0.604880 0.332432 0.016667
0.602026 0.331154 0.000000
0.599852 0.332294 -0.016667
0.598598 0.332919 -0.033333
0.604780 0.347590 0.033333
0.602196 0.344948 0.016667
0.599564 0.344272 0.000000
0.597639 0.345930 -0.016667
0.596570 0.346836 -0.033333
0.599934 0.359649 0.033333
0.597780 0.357608 0.016667
0.595715 0.357553 0.000000
0.594426 0.359814 -0.016667
0.593881 0.360919 -0.033333
0.593033 0.372272 0.033333
0.591458 0.370740 0.016667
0.590415 0.371229 0.000000
0.590434 0.374052 -0.016667
0.590883 0.375236 -0.033333
0.584048 0.385789 0.033333
0.582996 0.384520 0.016667
0.583381 0.385515 0.000000
0.586105 0.388753 -0.016667
0.588309 0.389807 -0.033333
0.612204 -0.486728 0.033333
0.623276 -0.495849 0.016667
0.631028 -0.498544 0.000000
0.635526 -0.500461 -0.016667
0.638316 -0.501841 -0.033333
0.631992 -0.472959 0.033333
0.636174 -0.480254 0.016667
0.639195 -0.483983 0.000000
0.641276 -0.485343 -0.016667
0.642724 -0.486969 -0.033333
0.648029 -0.459374 0.033333
0.648097 -0.465757 0.016667
0.648092 -0.469478 0.000000
0.648352 -0.470879 -0.016667
0.648640 -0.472223 -0.033333
0.661068 -0.446259 0.033333
0.658876 -0.451850 0.016667
0.656917 -0.455319 0.000000
0.655810 -0.456738 -0.016667
0.655256 -0.457837 -0.033333
0.671791 -0.433532 0.033333
0.668338 -0.438345 0.016667
0.665131 -0.441477 0.000000
0.663068 -0.442836 -0.016667
0.661926 -0.443762 -0.033333
0.680579 -0.421061 0.033333
0.676426 -0.425095 0.016667
0.672442 -0.427860 0.000000
0.669740 -0.429119 -0.016667
0.668199 -0.429906 -0.033333
0.687683 -0.408594 0.033333
0.683151 -0.411976 0.016667
0.678694 -0.414376 0.000000
0.675583 -0.415510 -0.016667
0.673782 -0.416186 -0.033333
0.693272 -0.396159 0.033333
0.688538 -0.398893 0.016667
0.683813 -0.400933 0.000000
0.680451 -0.401952 -0.016667
0.678483 -0.402530 -0.033333
0.697425 -0.383513 0.033333
0.692633 -0.385746 0.016667
0.687767 -0.387487 0.000000
0.684255 -0.388389 -0.016667
0.682191 -0.388884 -0.033333
0.700308 -0.370727 0.033333
0.695468 -0.372525 0.016667
0.690535 -0.373989 0.000000
0.686950 -0.374790 -0.016667
0.684834 -0.375214 -0.033333
0.701906 -0.357787 0.033333
0.697070 -0.359201 0.016667
0.692110 -0.360431 0.000000
0.688503 -0.361138 -0.016667
0.686377 -0.361497 -0.033333
0.702318 -0.344725 0.033333
0.697416 -0.345813 0.016667
0.692474 -0.346813 0.000000
0.688905 -0.347426 -0.016667
0.686799 -0.347724 -0.033333
0.701372 -0.331715 0.033333
0.696495 -0.332379 0.016667
0.691603 -0.333146 0.000000
0.688138 -0.333661 -0.016667
0.686115 -0.333892 -0.033333
0.699095 -0.318717 0.033333
0.694148 -0.318992 0.016667
0.689467 -0.319435 0.000000
0.686228 -0.319844 -0.016667
0.684330 -0.320002 -0.033333
0.694829 -0.306303 0.033333
0.690369 -0.305540 0.016667
0.686030 -0.305707 0.000000
0.683175 -0.305994 -0.016667
0.681560 -0.306017 -0.033333
0.688561 -0.293127 0.033333
0.684761 -0.292369 0.016667
0.681321 -0.291917 0.000000
0.679113 -0.292040 -0.016667
0.677872 -0.291995 -0.033333
0.679603 -0.280817 0.033333
0.677400 -0.278743 0.016667
0.675374 -0.278076 0.000000
0.674223 -0.278048 -0.016667
0.673531 -0.277748 -0.033333
0.666791 -0.267820 0.033333
0.668215 -0.265264 0.016667
0.668719 -0.263883 0.000000
0.668783 -0.263922 -0.016667
0.668904 -0.263325 -0.033333
0.648923 -0.255176 0.033333
0.658260 -0.250070 0.016667
0.662019 -0.250140 0.000000
0.663618 -0.248870 -0.016667
0.664171 -0.249264 -0.033333
0.647494 -0.239111 0.033333
0.653331 -0.235228 0.016667
0.657051 -0.234920 0.000000
0.658926 -0.234362 -0.016667
0.659921 -0.234237 -0.033333
0.646064 -0.223045 0.033333
0.650275 -0.219896 0.016667
0.653320 -0.219637 0.000000
0.655106 -0.219373 -0.016667
0.656094 -0.219190 -0.033333
0.644634 -0.206980 0.033333
0.648000 -0.204470 0.016667
0.650404 -0.204197 0.000000
0.651952 -0.204143 -0.016667
0.652826 -0.203990 -0.033333
0.643204 -0.190914 0.033333
0.646001 -0.188841 0.016667
0.648062 -0.188696 0.000000
0.649306 -0.188718 -0.016667
0.650041 -0.188667 -0.033333
0.641774 -0.174849 0.033333
0.644450 -0.173146 0.016667
0.646067 -0.173145 0.000000
0.647063 -0.173157 -0.016667
0.647638 -0.173249 -0.033333
0.641727 -0.158557 0.033333
0.643091 -0.157577 0.016667
0.644347 -0.157413 0.000000
0.645094 -0.157647 -0.016667
0.645537 -0.157632 -0.033333
0.640797 -0.142599 0.033333
0.641864 -0.141912 0.016667
0.642750 -0.141765 0.000000
0.643324 -0.142000 -0.016667
0.643644 -0.142043 -0.033333
0.639634 -0.126790 0.033333
0.640483 -0.126224 0.016667
0.641219 -0.126119 0.000000
0.641662 -0.126332 -0.016667
0.641902 -0.126408 -0.033333
0.638286 -0.110972 0.033333
0.639051 -0.110548 0.016667
0.639687 -0.110464 0.000000
0.640066 -0.110655 -0.016667
0.640256 -0.110749 -0.033333
0.636867 -0.095179 0.033333
0.637556 -0.094845 0.016667
0.638160 -0.094802 0.000000
0.638507 -0.094977 -0.016667
0.638668 -0.095073 -0.033333
0.635376 -0.079357 0.033333
0.636050 -0.079135 0.016667
0.636634 -0.079133 0.000000
0.636969 -0.079297 -0.016667
0.637120 -0.079392 -0.033333
0.633876 -0.063528 0.033333
0.634527 -0.063405 0.016667
0.635112 -0.063456 0.000000
0.635447 -0.063618 -0.016667
0.635592 -0.063708 -0.033333
0.632352 -0.047677 0.033333
0.633006 -0.047664 0.016667
0.633594 -0.047774 0.000000
0.633935 -0.047936 -0.016667
0.634081 -0.048023 -0.033333
0.630831 -0.031810 0.033333
0.631484 -0.031907 0.016667
0.632083 -0.032084 0.000000
0.632432 -0.032253 -0.016667
0.632579 -0.032335 -0.033333
0.629301 -0.015920 0.033333
0.629969 -0.016135 0.016667
0.630580 -0.016385 0.000000
0.630936 -0.016564 -0.016667
0.631086 -0.016642 -0.033333
0.627781 -0.000001 0.033333
0.628460 -0.000342 0.016667
0.629085 -0.000673 0.000000
0.629449 -0.000867 -0.016667
0.629600 -0.000942 -0.033333
0.626260 0.015952 0.033333
0.626963 0.015474 0.016667
0.627604 0.015053 0.000000
0.627974 0.014842 -0.016667
0.628126 0.014769 -0.033333
0.624761 0.031948 0.033333
0.625485 0.031320 0.016667
0.626141 0.030798 0.000000
0.626515 0.030566 -0.016667
0.626667 0.030495 -0.033333
0.623273 0.047992 0.033333
0.624030 0.047196 0.016667
0.624703 0.046563 0.000000
0.625077 0.046308 -0.016667
0.625228 0.046235 -0.033333
0.621828 0.064097 0.033333
0.622611 0.063107 0.016667
0.623296 0.062347 0.000000
0.623669 0.062068 -0.016667
0.623815 0.061993 -0.033333
0.620406 0.080258 0.033333
0.621231 0.079050 0.016667
0.621929 0.078149 0.000000
0.622296 0.077845 -0.016667
0.622438 0.077764 -0.033333
0.619058 0.096491 0.033333
0.619905 0.095022 0.016667
0.620607 0.093963 0.000000
0.620966 0.093635 -0.016667
0.621103 0.093544 -0.033333
0.617730 0.112766 0.033333
0.618626 0.111008 0.016667
0.619333 0.109773 0.000000
0.619685 0.109431 -0.016667
0.619824 0.109324 -0.033333
0.616486 0.129108 0.033333
0.617395 0.126980 0.016667
0.618105 0.125567 0.000000
0.618460 0.125221 -0.016667
0.618606 0.125084 -0.033333
0.615193 0.145410 0.033333
0.616164 0.142916 0.016667
0.616905 0.141313 0.000000
0.617294 0.140990 -0.016667
0.617469 0.140810 -0.033333
0.613803 0.161736 0.033333
0.614897 0.158733 0.016667
0.615721 0.156996 0.000000
0.616196 0.156730 -0.016667
0.616435 0.156458 -0.033333
0.611995 0.177964 0.033333
0.613391 0.174384 0.016667
0.614564 0.172613 0.000000
0.615203 0.172392 -0.016667
0.615531 0.172035 -0.033333
0.608888 0.194656 0.033333
0.612006 0.189514 0.016667
0.613460 0.188483 0.000000
0.614377 0.187665 -0.016667
0.614806 0.187784 -0.033333
0.607459 0.210722 0.033333
0.610564 0.205086 0.016667
0.612613 0.203798 0.000000
0.613745 0.203218 -0.016667
0.614337 0.203060 -0.033333
0.606029 0.226787 0.033333
0.609695 0.220658 0.016667
0.611999 0.219067 0.000000
0.613441 0.218573 -0.016667
0.614184 0.218264 -0.033333
0.604599 0.242853 0.033333
0.608893 0.235761 0.016667
0.611905 0.234410 0.000000
0.613557 0.233645 -0.016667
0.614391 0.233392 -0.033333
0.603169 0.258918 0.033333
0.608927 0.251108 0.016667
0.612484 0.249565 0.000000
0.614216 0.248488 -0.016667
0.615062 0.248382 -0.033333
0.601740 0.274984 0.033333
0.610889 0.265777 0.016667
0.614083 0.264913 0.000000
0.615645 0.262720 -0.016667
0.615993 0.263411 -0.033333
0.615241 0.288796 0.033333
0.616439 0.281942 0.016667
0.617375 0.278146 0.000000
0.617291 0.277855 -0.016667
0.617311 0.277108 -0.033333
0.623742 0.301719 0.033333
0.622011 0.294948 0.016667
0.620309 0.291951 0.000000
0.619101 0.291766 -0.016667
0.618377 0.291266 -0.033333
0.628346 0.312601 0.033333
0.625129 0.308094 0.016667
0.622346 0.305259 0.000000
0.620220 0.305310 -0.016667
0.618909 0.305296 -0.033333
0.629758 0.324711 0.033333
0.626421 0.320326 0.016667
0.622893 0.318227 0.000000
0.620237 0.318809 -0.016667
0.618685 0.319106 -0.033333
0.629125 0.336108 0.033333
0.625498 0.332670 0.016667
0.621821 0.331220 0.000000
0.619063 0.332276 -0.016667
0.617438 0.332909 -0.033333
0.625913 0.347597 0.033333
0.622548 0.344923 0.016667
0.619118 0.344224 0.000000
0.616625 0.345896 -0.016667
0.615242 0.346803 -0.033333
0.620327 0.359584 0.033333
0.617484 0.357593 0.016667
0.614778 0.357527 0.000000
0.613051 0.359754 -0.016667
0.612248 0.360880 -0.033333
0.612360 0.372210 0.033333
0.610300 0.370704 0.016667
0.608792 0.371197 0.000000
0.608555 0.374004 -0.016667
0.608882 0.375207 -0.033333
0.602005 0.385770 0.033333
0.600644 0.384486 0.016667
0.600753 0.385521 0.000000
0.603673 0.388704 -0.016667
0.605959 0.389819 -0.033333
0.629106 -0.486688 0.033333
0.640301 -0.495898 0.016667
0.648090 -0.498847 0.000000
0.652490 -0.500944 -0.016667
0.655260 -0.502417 -0.033333
0.649725 -0.473002 0.033333
0.653933 -0.480364 0.016667
0.656788 -0.484271 0.000000
0.658724 -0.485753 -0.016667
0.660095 -0.487433 -0.033333
0.666586 -0.459573 0.033333
0.666455 -0.465973 0.016667
0.666178 -0.469812 0.000000
0.666258 -0.471277 -0.016667
0.666444 -0.472652 -0.033333
0.680301 -0.446669 0.033333
0.677725 -0.452214 0.016667
0.675420 -0.455716 0.000000
0.674114 -0.457159 -0.016667
0.673443 -0.458266 -0.033333
0.691458 -0.434179 0.033333
0.687542 -0.438834 0.016667
0.683958 -0.441929 0.000000
0.681682 -0.443282 -0.016667
0.680418 -0.444193 -0.033333
0.700475 -0.421801 0.033333
0.695847 -0.425664 0.016667
0.691484 -0.428331 0.000000
0.688572 -0.429550 -0.016667
0.686913 -0.430317 -0.033333
0.707606 -0.409475 0.033333
0.702647 -0.412546 0.016667
0.697854 -0.414790 0.000000
0.694549 -0.415885 -0.016667
0.692633 -0.416531 -0.033333
0.713047 -0.396814 0.033333
0.708014 -0.399329 0.016667
0.703011 -0.401239 0.000000
0.699471 -0.402206 -0.016667
0.697403 -0.402758 -0.033333
0.717059 -0.383933 0.033333
0.712018 -0.385979 0.016667
0.706931 -0.387600 0.000000
0.703271 -0.388469 -0.016667
0.701116 -0.388948 -0.033333
0.719700 -0.370738 0.033333
0.714724 -0.372442 0.016667
0.709624 -0.373859 0.000000
0.705909 -0.374649 -0.016667
0.703716 -0.375071 -0.033333
0.721145 -0.357304 0.033333
0.716170 -0.358756 0.016667
0.711085 -0.360011 0.000000
0.707371 -0.360741 -0.016667
0.705173 -0.361119 -0.033333
0.721317 -0.343728 0.033333
0.716380 -0.344950 0.016667
0.711315 -0.346078 0.000000
0.707643 -0.346758 -0.016667
0.705482 -0.347097 -0.033333
0.720344 -0.330044 0.033333
0.715284 -0.331109 0.016667
0.710289 -0.332097 0.000000
0.706731 -0.332719 -0.016667
0.704639 -0.333018 -0.033333
0.717880 -0.316577 0.033333
0.712868 -0.317294 0.016667
0.707970 -0.318110 0.000000
0.704631 -0.318645 -0.016667
0.702701 -0.318895 -0.033333
0.714025 -0.303269 0.033333
0.708831 -0.303699 0.016667
0.704336 -0.304115 0.000000
0.701409 -0.304566 -0.016667
0.699695 -0.304735 -0.033333
0.707536 -0.291488 0.033333
0.703230 -0.290061 0.016667
0.699363 -0.290178 0.000000
0.697095 -0.290502 -0.016667
0.695835 -0.290484 -0.033333
0.697855 -0.278475 0.033333
0.695441 -0.277070 0.016667
0.693219 -0.276167 0.000000
0.691935 -0.276371 -0.016667
0.691247 -0.276217 -0.033333
0.684163 -0.266127 0.033333
0.685717 -0.263298 0.016667
0.686124 -0.262180 0.000000
0.686270 -0.262202 -0.016667
0.686347 -0.261684 -0.033333
0.664989 -0.253746 0.033333
0.674799 -0.248594 0.016667
0.679030 -0.248355 0.000000
0.680764 -0.247246 -0.016667
0.681442 -0.247596 -0.033333
0.663559 -0.237681 0.033333
0.669812 -0.233592 0.016667
0.673843 -0.233346 0.000000
0.675882 -0.232695 -0.016667
0.676937 -0.232635 -0.033333
0.662129 -0.221615 0.033333
0.666804 -0.218480 0.016667
0.669944 -0.218059 0.000000
0.671898 -0.217803 -0.016667
0.672959 -0.217587 -0.033333
0.660699 -0.205550 0.033333
0.664355 -0.203013 0.016667
0.666980 -0.202716 0.000000
0.668610 -0.202594 -0.016667
0.669553 -0.202448 -0.033333
0.659269 -0.189484 0.033333
0.662415 -0.187474 0.016667
0.664534 -0.187248 0.000000
0.665891 -0.187228 -0.016667
0.666659 -0.187145 -0.033333
0.657839 -0.173419 0.033333
0.660795 -0.171803 0.016667
0.662531 -0.171734 0.000000
0.663567 -0.171705 -0.016667
0.664196 -0.171762 -0.033333
0.658046 -0.157117 0.033333
0.659504 -0.156263 0.016667
0.660775 -0.156040 0.000000
0.661576 -0.156214 -0.016667
0.662035 -0.156186 -0.033333
0.657217 -0.141274 0.033333
0.658273 -0.140586 0.016667
0.659191 -0.140420 0.000000
0.659776 -0.140597 -0.016667
0.660117 -0.140618 -0.033333
0.656044 -0.125450 0.033333
0.656927 -0.124944 0.016667
0.657646 -0.124789 0.000000
0.658109 -0.124955 -0.016667
0.658358 -0.125013 -0.033333
0.654717 -0.109702 0.033333
0.655461 -0.109268 0.016667
0.656120 -0.109155 0.000000
0.656509 -0.109307 -0.016667
0.656704 -0.109379 -0.033333
0.653247 -0.093913 0.033333
0.653973 -0.093591 0.016667
0.654589 -0.093515 0.000000
0.654949 -0.093656 -0.016667
0.655119 -0.093736 -0.033333
0.651761 -0.078126 0.033333
0.652449 -0.077898 0.016667
0.653064 -0.077873 0.000000
0.653416 -0.078009 -0.016667
0.653571 -0.078089 -0.033333
0.650233 -0.062322 0.033333
0.650926 -0.062199 0.016667
0.651542 -0.062228 0.000000
0.651897 -0.062365 -0.016667
0.652051 -0.062443 -0.033333
0.648708 -0.046512 0.033333
0.649396 -0.046491 0.016667
0.650024 -0.046582 0.000000
0.650389 -0.046724 -0.016667
0.650543 -0.046800 -0.033333
0.647165 -0.030687 0.033333
0.647868 -0.030775 0.016667
0.648511 -0.030932 0.000000
0.648886 -0.031084 -0.016667
0.649044 -0.031157 -0.033333
0.645624 -0.014845 0.033333
0.646339 -0.015045 0.016667
0.647001 -0.015276 0.000000
0.647388 -0.015441 -0.016667
0.647549 -0.015513 -0.033333
0.644073 0.001022 0.033333
0.644814 0.000701 0.016667
0.645496 0.000390 0.000000
0.645894 0.000208 -0.016667
0.646060 0.000138 -0.033333
0.642528 0.016924 0.033333
0.643294 0.016472 0.016667
0.644000 0.016071 0.000000
0.644409 0.015868 -0.016667
0.644578 0.015798 -0.033333
0.640980 0.032871 0.033333
0.641785 0.032272 0.016667
0.642518 0.031771 0.000000
0.642936 0.031545 -0.016667
0.643108 0.031473 -0.033333
0.639456 0.048875 0.033333
0.640298 0.048111 0.016667
0.641056 0.047495 0.000000
0.641483 0.047242 -0.016667
0.641655 0.047166 -0.033333
0.637940 0.064944 0.033333
0.638837 0.063991 0.016667
0.639625 0.063245 0.000000
0.640057 0.062961 -0.016667
0.640231 0.062879 -0.033333
0.636480 0.081094 0.033333
0.637420 0.079917 0.016667
0.638235 0.079022 0.000000
0.638671 0.078703 -0.016667
0.638843 0.078610 -0.033333
0.635039 0.097327 0.033333
0.636052 0.095889 0.016667
0.636896 0.094819 0.000000
0.637333 0.094465 -0.016667
0.637507 0.094355 -0.033333
0.633699 0.113661 0.033333
0.634753 0.111898 0.016667
0.635618 0.110630 0.000000
0.636057 0.110240 -0.016667
0.636234 0.110104 -0.033333
0.632363 0.130059 0.033333
0.633514 0.127928 0.016667
0.634402 0.126430 0.000000
0.634851 0.126018 -0.016667
0.635045 0.125841 -0.033333
0.631157 0.146566 0.033333
0.632324 0.143920 0.016667
0.633247 0.142201 0.000000
0.633731 0.141782 -0.016667
0.633951 0.141536 -0.033333
0.629810 0.162958 0.033333
0.631116 0.159862 0.016667
0.632127 0.157898 0.000000
0.632710 0.157506 -0.016667
0.632989 0.157171 -0.033333
0.628144 0.179414 0.033333
0.629785 0.175548 0.016667
0.631078 0.173537 0.000000
0.631812 0.173158 -0.016667
0.632198 0.172700 -0.033333
0.624954 0.196086 0.033333
0.628413 0.190664 0.016667
0.630118 0.189402 0.000000
0.631122 0.188375 -0.016667
0.631602 0.188428 -0.033333
0.623524 0.212151 0.033333
0.627267 0.206220 0.016667
0.629381 0.204634 0.000000
0.630661 0.203899 -0.016667
0.631307 0.203607 -0.033333
0.622094 0.228217 0.033333
0.626136 0.221510 0.016667
0.629000 0.219865 0.000000
0.630529 0.219111 -0.016667
0.631347 0.218777 -0.033333
0.620665 0.244282 0.033333
0.625813 0.236959 0.016667
0.628951 0.234936 0.000000
0.630882 0.234166 -0.016667
0.631819 0.233738 -0.033333
0.619235 0.260348 0.033333
0.625697 0.251536 0.016667
0.629853 0.250234 0.000000
0.631829 0.248744 -0.016667
0.632719 0.248685 -0.033333
0.617805 0.276414 0.033333
0.627739 0.266749 0.016667
0.631900 0.265099 0.000000
0.633558 0.262989 -0.016667
0.634074 0.263567 -0.033333
0.634347 0.289932 0.033333
0.635437 0.281923 0.016667
0.635891 0.278514 0.000000
0.635803 0.277941 -0.016667
0.635666 0.277054 -0.033333
0.644840 0.301611 0.033333
0.641933 0.295937 0.016667
0.639709 0.291924 0.000000
0.638041 0.291623 -0.016667
0.637007 0.291254 -0.033333
0.650058 0.314236 0.033333
0.646046 0.307962 0.016667
0.642155 0.304989 0.000000
0.639401 0.305156 -0.016667
0.637828 0.305132 -0.033333
0.652499 0.324466 0.033333
0.647509 0.320099 0.016667
0.642863 0.317941 0.000000
0.639581 0.318573 -0.016667
0.637619 0.318926 -0.033333
0.651349 0.335265 0.033333
0.646464 0.332034 0.016667
0.641707 0.330836 0.000000
0.638323 0.332048 -0.016667
0.636336 0.332732 -0.033333
0.647409 0.346883 0.033333
0.643013 0.344524 0.016667
0.638701 0.343989 0.000000
0.635653 0.345667 -0.016667
0.633926 0.346637 -0.033333
0.640864 0.359083 0.033333
0.637293 0.357258 0.016667
0.633882 0.357314 0.000000
0.631675 0.359591 -0.016667
0.630613 0.360744 -0.033333
0.631754 0.371942 0.033333
0.629154 0.370536 0.016667
0.627149 0.371090 0.000000
0.626670 0.373875 -0.016667
0.626853 0.375124 -0.033333
0.619970 0.385688 0.033333
0.618305 0.384411 0.016667
0.618106 0.385495 0.000000
0.621206 0.388625 -0.016667
0.623552 0.389799 -0.033333
0.646057 -0.486698 0.033333
0.657222 -0.496126 0.016667
0.664966 -0.499418 0.000000
0.669204 -0.501725 -0.016667
0.671931 -0.503311 -0.033333
0.667505 -0.473204 0.033333
0.671602 -0.480739 0.016667
0.674220 -0.484885 0.000000
0.675976 -0.486495 -0.016667
0.677252 -0.488239 -0.033333
0.685197 -0.460112 0.033333
0.684730 -0.466567 0.016667
0.684103 -0.470536 0.000000
0.683987 -0.472059 -0.016667
0.684058 -0.473467 -0.033333
0.699538 -0.447634 0.033333
0.696457 -0.453054 0.016667
0.693742 -0.456571 0.000000
0.692224 -0.458016 -0.016667
0.691431 -0.459116 -0.033333
0.711055 -0.435505 0.033333
0.706563 -0.439912 0.016667
0.702550 -0.442884 0.000000
0.700066 -0.444187 -0.016667
0.698683 -0.445070 -0.033333
0.720102 -0.423495 0.033333
0.714972 -0.426872 0.016667
0.710234 -0.429304 0.000000
0.707130 -0.430456 -0.016667
0.705356 -0.431171 -0.033333
0.727053 -0.411014 0.033333
0.721754 -0.413710 0.016667
0.716664 -0.415714 0.000000
0.713187 -0.416706 -0.016667
0.711176 -0.417298 -0.033333
0.732295 -0.398211 0.033333
0.727012 -0.400338 0.016667
0.721799 -0.401991 0.000000
0.718128 -0.402869 -0.016667
0.715978 -0.403372 -0.033333
0.735995 -0.384883 0.033333
0.730863 -0.386666 0.016667
0.725655 -0.388110 0.000000
0.721892 -0.388903 -0.016667
0.719674 -0.389344 -0.033333
0.738429 -0.371184 0.033333
0.733399 -0.372742 0.016667
0.728239 -0.374050 0.000000
0.724460 -0.374799 -0.016667
0.722219 -0.375204 -0.033333
0.739577 -0.357169 0.033333
0.734678 -0.358589 0.016667
0.729580 -0.359836 0.000000
0.725821 -0.360572 -0.016667
0.723593 -0.360958 -0.033333
0.739614 -0.342918 0.033333
0.734700 -0.344284 0.016667
0.729672 -0.345510 0.000000
0.725980 -0.346251 -0.016667
0.723788 -0.346629 -0.033333
0.738310 -0.328573 0.033333
0.733482 -0.329897 0.016667
0.728509 -0.331129 0.000000
0.724927 -0.331874 -0.016667
0.722829 -0.332248 -0.033333
0.735914 -0.314150 0.033333
0.730878 -0.315549 0.016667
0.726057 -0.316755 0.000000
0.722694 -0.317489 -0.016667
0.720731 -0.317836 -0.033333
0.731719 -0.300148 0.033333
0.726897 -0.301351 0.016667
0.722260 -0.302481 0.000000
0.719294 -0.303106 -0.016667
0.717605 -0.303438 -0.033333
0.726174 -0.286430 0.033333
0.721035 -0.287704 0.016667
0.717127 -0.288230 0.000000
0.714871 -0.288817 -0.016667
0.713507 -0.289014 -0.033333
0.716884 -0.276241 0.033333
0.713528 -0.274035 0.016667
0.710715 -0.274155 0.000000
0.709512 -0.274600 -0.016667
0.708802 -0.274509 -0.033333
0.701743 -0.264106 0.033333
0.703316 -0.261586 0.016667
0.703552 -0.259875 0.000000
0.703571 -0.260423 -0.016667
0.703752 -0.259944 -0.033333
0.681054 -0.252317 0.033333
0.691324 -0.246622 0.016667
0.696025 -0.246609 0.000000
0.697959 -0.245296 -0.016667
0.698568 -0.245906 -0.033333
0.679624 -0.236251 0.033333
0.686546 -0.232072 0.016667
0.690611 -0.231482 0.000000
0.692845 -0.230978 -0.016667
0.693972 -0.230856 -0.033333
0.678195 -0.220186 0.033333
0.683227 -0.216827 0.016667
0.686682 -0.216426 0.000000
0.688711 -0.216062 -0.016667
0.689813 -0.215926 -0.033333
0.676765 -0.204120 0.033333
0.680951 -0.201542 0.016667
0.683549 -0.201134 0.000000
0.685328 -0.200974 -0.016667
0.686283 -0.200779 -0.033333
0.675335 -0.188054 0.033333
0.678824 -0.186096 0.016667
0.681074 -0.185746 0.000000
0.682490 -0.185646 -0.016667
0.683306 -0.185548 -0.033333
0.673905 -0.171989 0.033333
0.677245 -0.170479 0.016667
0.678988 -0.170269 0.000000
0.680126 -0.170184 -0.016667
0.680751 -0.170188 -0.033333
0.674430 -0.155793 0.033333
0.675907 -0.154911 0.016667
0.677249 -0.154637 0.000000
0.678065 -0.154713 -0.016667
0.678562 -0.154662 -0.033333
0.673649 -0.139884 0.033333
0.674754 -0.139299 0.016667
0.675628 -0.139024 0.000000
0.676261 -0.139131 -0.016667
0.676604 -0.139126 -0.033333
0.672536 -0.124188 0.033333
0.673348 -0.123632 0.016667
0.674103 -0.123417 0.000000
0.674577 -0.123520 -0.016667
0.674834 -0.123548 -0.033333
0.671114 -0.108412 0.033333
0.671906 -0.107975 0.016667
0.672568 -0.107801 0.000000
0.672977 -0.107901 -0.016667
0.673183 -0.107949 -0.033333
0.669667 -0.092645 0.033333
0.670393 -0.092304 0.016667
0.671045 -0.092186 0.000000
0.671424 -0.092285 -0.016667
0.671600 -0.092343 -0.033333
0.668147 -0.076870 0.033333
0.668882 -0.076634 0.016667
0.669525 -0.076574 0.000000
0.669898 -0.076675 -0.016667
0.670065 -0.076738 -0.033333
0.666634 -0.061101 0.033333
0.667355 -0.060966 0.016667
0.668011 -0.060967 0.000000
0.668391 -0.061075 -0.016667
0.668552 -0.061139 -0.033333
0.665095 -0.045333 0.033333
0.665831 -0.045300 0.016667
0.666500 -0.045366 0.000000
0.666890 -0.045483 -0.016667
0.667055 -0.045547 -0.033333
0.663555 -0.029563 0.033333
0.664300 -0.029633 0.016667
0.664990 -0.029766 0.000000
0.665393 -0.029897 -0.016667
0.665562 -0.029961 -0.033333
0.661995 -0.013783 0.033333
0.662765 -0.013961 0.016667
0.663478 -0.014166 0.000000
0.663896 -0.014313 -0.016667
0.664071 -0.014376 -0.033333
0.660430 0.002018 0.033333
0.661226 0.001725 0.016667
0.661966 0.001441 0.000000
0.662400 0.001276 -0.016667
0.662580 0.001212 -0.033333
0.658848 0.017850 0.033333
0.659684 0.017432 0.016667
0.660456 0.017061 0.000000
0.660906 0.016874 -0.016667
0.661092 0.016808 -0.033333
0.657268 0.033725 0.033333
0.658146 0.033169 0.016667
0.658954 0.032700 0.000000
0.659420 0.032487 -0.016667
0.659611 0.032418 -0.033333
0.655680 0.049659 0.033333
0.656618 0.048945 0.016667
0.657468 0.048364 0.000000
0.657949 0.048120 -0.016667
0.658146 0.048046 -0.033333
0.654116 0.065666 0.033333
0.655114 0.064769 0.016667
0.656008 0.064058 0.000000
0.656504 0.063779 -0.016667
0.656706 0.063695 -0.033333
0.652557 0.081764 0.033333
0.653642 0.080650 0.016667
0.654587 0.079784 0.000000
0.655099 0.079465 -0.016667
0.655306 0.079366 -0.033333
0.651065 0.097967 0.033333
0.652224 0.096590 0.016667
0.653221 0.095543 0.000000
0.653748 0.095176 -0.016667
0.653962 0.095056 -0.033333
0.649584 0.114295 0.033333
0.650869 0.112594 0.016667
0.651924 0.111325 0.000000
0.652469 0.110910 -0.016667
0.652696 0.110753 -0.033333
0.648239 0.130766 0.033333
0.649598 0.128646 0.016667
0.650714 0.127120 0.000000
0.651279 0.126649 -0.016667
0.651525 0.126447 -0.033333
0.646851 0.147360 0.033333
0.648416 0.144733 0.016667
0.649587 0.142883 0.000000
0.650196 0.142390 -0.016667
0.650488 0.142100 -0.033333
0.645710 0.164156 0.033333
0.647267 0.160723 0.016667
0.648547 0.158607 0.000000
0.649257 0.158096 -0.016667
0.649595 0.157678 -0.033333
0.644201 0.180631 0.033333
0.646057 0.176620 0.016667
0.647600 0.174239 0.000000
0.648488 0.173702 -0.016667
0.648912 0.173184 -0.033333
0.641019 0.197516 0.033333
0.645003 0.191740 0.016667
0.646823 0.190119 0.000000
0.647932 0.188874 -0.016667
0.648492 0.188834 -0.033333
0.639589 0.213581 0.033333
0.643891 0.207255 0.016667
0.646316 0.205277 0.000000
0.647670 0.204312 -0.016667
0.648369 0.203957 -0.033333
0.638160 0.229647 0.033333
0.643310 0.222339 0.016667
0.646049 0.220353 0.000000
0.647796 0.219469 -0.016667
0.648626 0.218962 -0.033333
0.636730 0.245712 0.033333
0.642215 0.237200 0.016667
0.646375 0.235389 0.000000
0.648345 0.234228 -0.016667
0.649339 0.233939 -0.033333
0.635300 0.261778 0.033333
0.643010 0.252761 0.016667
0.647222 0.250079 0.000000
0.649580 0.248900 -0.016667
0.650605 0.248574 -0.033333
0.633871 0.277843 0.033333
0.644593 0.266735 0.016667
0.649751 0.265502 0.000000
0.651773 0.262576 -0.016667
0.652149 0.263492 -0.033333
0.654588 0.290769 0.033333
0.654876 0.283487 0.016667
0.654849 0.277745 0.000000
0.654386 0.277627 -0.016667
0.654125 0.276793 -0.033333
0.668223 0.302895 0.033333
0.663046 0.294802 0.016667
0.659161 0.291085 0.000000
0.657016 0.291194 -0.016667
0.655791 0.290856 -0.033333
0.673961 0.310338 0.033333
0.667392 0.306558 0.016667
0.661956 0.304108 0.000000
0.658695 0.304630 -0.016667
0.656681 0.304755 -0.033333
0.675346 0.320837 0.033333
0.668714 0.318246 0.016667
0.662763 0.317105 0.000000
0.658907 0.318051 -0.016667
0.656586 0.318592 -0.033333
0.673455 0.332738 0.033333
0.667316 0.330801 0.016667
0.661548 0.330250 0.000000
0.657551 0.331584 -0.016667
0.655202 0.332418 -0.033333
0.668656 0.345161 0.033333
0.663371 0.343448 0.016667
0.658234 0.343409 0.000000
0.654625 0.345337 -0.016667
0.652578 0.346380 -0.033333
0.661205 0.358079 0.033333
0.656922 0.356670 0.016667
0.652869 0.356988 0.000000
0.650252 0.359315 -0.016667
0.648925 0.360559 -0.033333
0.650987 0.371448 0.033333
0.647908 0.370212 0.016667
0.645433 0.370898 0.000000
0.644712 0.373711 -0.016667
0.644752 0.375004 -0.033333
0.637842 0.385538 0.033333
0.635888 0.384301 0.016667
0.635383 0.385451 0.000000
0.638676 0.388522 -0.016667
0.641047 0.389786 -0.033333
0.663116 -0.486782 0.033333
0.674047 -0.496594 0.016667
0.681643 -0.500354 0.000000
0.685641 -0.502890 -0.016667
0.688311 -0.504616 -0.033333
0.685423 -0.473666 0.033333
0.689204 -0.481485 0.016667
0.691473 -0.485940 0.000000
0.693019 -0.487682 -0.016667
0.694175 -0.489502 -0.033333
0.703936 -0.461210 0.033333
0.702934 -0.467680 0.016667
0.701845 -0.471799 0.000000
0.701510 -0.473358 -0.016667
0.701451 -0.474787 -0.033333
0.718829 -0.449475 0.033333
0.715056 -0.454614 0.016667
0.711825 -0.458031 0.000000
0.710095 -0.459438 -0.016667
0.709174 -0.460517 -0.033333
0.730418 -0.438061 0.033333
0.725309 -0.441802 0.016667
0.720841 -0.444472 0.000000
0.718156 -0.445690 -0.016667
0.716651 -0.446502 -0.033333
0.739254 -0.426071 0.033333
0.733693 -0.428877 0.016667
0.728604 -0.430932 0.000000
0.725325 -0.431929 -0.016667
0.723457 -0.432563 -0.033333
0.745900 -0.413600 0.033333
0.740327 -0.415639 0.016667
0.735021 -0.417214 0.000000
0.731420 -0.418056 -0.016667
0.729329 -0.418561 -0.033333
0.750742 -0.400280 0.033333
0.745403 -0.401944 0.016667
0.740096 -0.403273 0.000000
0.736335 -0.403996 -0.016667
0.734133 -0.404417 -0.033333
0.754209 -0.386425 0.033333
0.749070 -0.387870 0.016667
0.743842 -0.389056 0.000000
0.740043 -0.389728 -0.016667
0.737794 -0.390108 -0.033333
0.756330 -0.372089 0.033333
0.751423 -0.373443 0.016667
0.746313 -0.374597 0.000000
0.742529 -0.375269 -0.016667
0.740279 -0.375637 -0.033333
0.757311 -0.357420 0.033333
0.752515 -0.358756 0.016667
0.747521 -0.359941 0.000000
0.743798 -0.360653 -0.016667
0.741571 -0.361033 -0.033333
0.756991 -0.342483 0.033333
0.752373 -0.343880 0.016667
0.747489 -0.345151 0.000000
0.743846 -0.345929 -0.016667
0.741680 -0.346337 -0.033333
0.755601 -0.327359 0.033333
0.750948 -0.328895 0.016667
0.746196 -0.330298 0.000000
0.742694 -0.331156 -0.016667
0.740610 -0.331593 -0.033333
0.752650 -0.312160 0.033333
0.748242 -0.313900 0.016667
0.743632 -0.315465 0.000000
0.740337 -0.316384 -0.016667
0.738423 -0.316858 -0.033333
0.748645 -0.296910 0.033333
0.744027 -0.299039 0.016667
0.739753 -0.300728 0.000000
0.736845 -0.301695 -0.016667
0.735162 -0.302138 -0.033333
0.742092 -0.282209 0.033333
0.738367 -0.284466 0.016667
0.734515 -0.286268 0.000000
0.732285 -0.287039 -0.016667
0.731008 -0.287530 -0.033333
0.734418 -0.267812 0.033333
0.730631 -0.271011 0.016667
0.727999 -0.271785 0.000000
0.726921 -0.272675 -0.016667
0.726078 -0.272834 -0.033333
0.720132 -0.261097 0.033333
0.721100 -0.257441 0.016667
0.720552 -0.257729 0.000000
0.720916 -0.258343 -0.016667
0.720934 -0.258119 -0.033333
0.697120 -0.250887 0.033333
0.708070 -0.244988 0.016667
0.713138 -0.243827 0.000000
0.715001 -0.243552 -0.016667
0.715770 -0.243890 -0.033333
0.695690 -0.234821 0.033333
0.702954 -0.229805 0.016667
0.707563 -0.229616 0.000000
0.709888 -0.228877 -0.016667
0.710888 -0.229126 -0.033333
0.694260 -0.218756 0.033333
0.700229 -0.215027 0.016667
0.703387 -0.214577 0.000000
0.705632 -0.214256 -0.016667
0.706646 -0.214051 -0.033333
0.692830 -0.202690 0.033333
0.697601 -0.200079 0.016667
0.700210 -0.199437 0.000000
0.702095 -0.199193 -0.016667
0.703017 -0.199035 -0.033333
0.691400 -0.186625 0.033333
0.695400 -0.184721 0.016667
0.697608 -0.184128 0.000000
0.699174 -0.183978 -0.016667
0.699938 -0.183806 -0.033333
0.689971 -0.170559 0.033333
0.693678 -0.169148 0.016667
0.695524 -0.168738 0.000000
0.696686 -0.168552 -0.016667
0.697351 -0.168516 -0.033333
0.690870 -0.154295 0.033333
0.692433 -0.153646 0.016667
0.693685 -0.153135 0.000000
0.694622 -0.153126 -0.016667
0.695081 -0.153036 -0.033333
0.690250 -0.138704 0.033333
0.691155 -0.137952 0.016667
0.692114 -0.137568 0.000000
0.692756 -0.137580 -0.016667
0.693122 -0.137537 -0.033333
0.688914 -0.122900 0.033333
0.689812 -0.122299 0.016667
0.690562 -0.121972 0.000000
0.691072 -0.122006 -0.016667
0.691344 -0.121997 -0.033333
0.687548 -0.107108 0.033333
0.688326 -0.106627 0.016667
0.689044 -0.106381 0.000000
0.689476 -0.106421 -0.016667
0.689692 -0.106442 -0.033333
0.686053 -0.091328 0.033333
0.686844 -0.090964 0.016667
0.687529 -0.090795 0.000000
0.687935 -0.090846 -0.016667
0.688125 -0.090880 -0.033333
0.684574 -0.075570 0.033333
0.685335 -0.075319 0.016667
0.686027 -0.075220 0.000000
0.686428 -0.075284 -0.016667
0.686603 -0.075327 -0.033333
0.683057 -0.059840 0.033333
0.683832 -0.059690 0.016667
0.684530 -0.059660 0.000000
0.684935 -0.059737 -0.016667
0.685110 -0.059785 -0.033333
0.681542 -0.044126 0.033333
0.682317 -0.044077 0.016667
0.683033 -0.044113 0.000000
0.683451 -0.044205 -0.016667
0.683627 -0.044256 -0.033333
0.679998 -0.028423 0.033333
0.680796 -0.028472 0.016667
0.681532 -0.028576 0.000000
0.681965 -0.028684 -0.016667
0.682147 -0.028736 -0.033333
0.678442 -0.012719 0.033333
0.679260 -0.012869 0.016667
0.680025 -0.013044 0.000000
0.680475 -0.013168 -0.016667
0.680663 -0.013222 -0.033333
0.676857 0.002997 0.033333
0.677713 0.002740 0.016667
0.678510 0.002491 0.000000
0.678979 0.002346 -0.016667
0.679175 0.002291 -0.033333
0.675257 0.018738 0.033333
0.676154 0.018366 0.016667
0.676991 0.018034 0.000000
0.677480 0.017867 -0.016667
0.677684 0.017809 -0.033333
0.673631 0.034518 0.033333
0.674588 0.034018 0.016667
0.675472 0.033593 0.000000
0.675983 0.033400 -0.016667
0.676195 0.033337 -0.033333
0.672002 0.050352 0.033333
0.673024 0.049707 0.016667
0.673961 0.049176 0.000000
0.674496 0.048951 -0.016667
0.674718 0.048883 -0.033333
0.670357 0.066262 0.033333
0.671469 0.065444 0.016667
0.672470 0.064788 0.000000
0.673032 0.064528 -0.016667
0.673264 0.064448 -0.033333
0.668736 0.082259 0.033333
0.669941 0.081240 0.016667
0.671016 0.080436 0.000000
0.671606 0.080132 -0.016667
0.671850 0.080036 -0.033333
0.667113 0.098379 0.033333
0.668453 0.097107 0.016667
0.669615 0.096121 0.000000
0.670238 0.095766 -0.016667
0.670498 0.095644 -0.033333
0.665561 0.114628 0.033333
0.667032 0.113050 0.016667
0.668292 0.111841 0.000000
0.668951 0.111424 -0.016667
0.669231 0.111268 -0.033333
0.664002 0.131072 0.033333
0.665691 0.129074 0.016667
0.667065 0.127582 0.000000
0.667771 0.127103 -0.016667
0.668083 0.126884 -0.033333
0.662605 0.147709 0.033333
0.664449 0.145166 0.016667
0.665970 0.143329 0.000000
0.666725 0.142768 -0.016667
0.667086 0.142482 -0.033333
0.661047 0.164650 0.033333
0.663359 0.161319 0.016667
0.664991 0.158988 0.000000
0.665849 0.158439 -0.016667
0.666294 0.157984 -0.033333
0.660091 0.182052 0.033333
0.662227 0.177194 0.016667
0.664186 0.174638 0.000000
0.665221 0.173997 -0.016667
0.665713 0.173394 -0.033333
0.657085 0.198945 0.033333
0.661438 0.192631 0.016667
0.663571 0.190461 0.000000
0.664871 0.189063 -0.016667
0.665435 0.189023 -0.033333
0.655655 0.215011 0.033333
0.660873 0.208158 0.016667
0.663331 0.205570 0.000000
0.664809 0.204421 -0.016667
0.665549 0.204014 -0.033333
0.654225 0.231076 0.033333
0.660513 0.223182 0.016667
0.663404 0.220466 0.000000
0.665183 0.219440 -0.016667
0.666040 0.218942 -0.033333
0.652796 0.247142 0.033333
0.660370 0.237230 0.016667
0.663781 0.235252 0.000000
0.666105 0.234159 -0.016667
0.666991 0.233621 -0.033333
0.651366 0.263207 0.033333
0.658816 0.251403 0.016667
0.665150 0.250176 0.000000
0.667646 0.248080 -0.016667
0.668445 0.248537 -0.033333
0.649936 0.279273 0.033333
0.661677 0.268194 0.016667
0.668015 0.263521 0.000000
0.670007 0.262313 -0.016667
0.670477 0.262899 -0.033333
0.676502 0.288845 0.033333
0.675332 0.279630 0.016667
0.673496 0.276399 0.000000
0.673167 0.276827 -0.016667
0.672632 0.276217 -0.033333
0.689138 0.290759 0.033333
0.683476 0.290965 0.016667
0.678427 0.289564 0.000000
0.676113 0.290310 -0.016667
0.674410 0.290324 -0.033333
0.694354 0.302426 0.033333
0.687858 0.302674 0.016667
0.681520 0.302820 0.000000
0.677844 0.303736 -0.016667
0.675554 0.304327 -0.033333
0.695922 0.315543 0.033333
0.689077 0.315727 0.016667
0.682500 0.316007 0.000000
0.678081 0.317372 -0.016667
0.675458 0.318153 -0.033333
0.693856 0.329154 0.033333
0.687430 0.328747 0.016667
0.681100 0.329249 0.000000
0.676645 0.331089 -0.016667
0.673985 0.332083 -0.033333
0.688866 0.343007 0.033333
0.683146 0.342364 0.016667
0.677500 0.342900 0.000000
0.673466 0.344917 -0.016667
0.671135 0.346135 -0.033333
0.680871 0.356798 0.033333
0.676197 0.355871 0.016667
0.671690 0.356561 0.000000
0.668692 0.359083 -0.016667
0.667138 0.360379 -0.033333
0.669812 0.370822 0.033333
0.666367 0.369840 0.016667
0.663528 0.370703 0.000000
0.662653 0.373537 -0.016667
0.662540 0.374934 -0.033333
0.655500 0.385350 0.033333
0.653334 0.384166 0.016667
0.652567 0.385390 0.000000
0.656031 0.388457 -0.016667
0.658400 0.389809 -0.033333
0.680378 -0.486991 0.033333
0.690804 -0.497387 0.016667
0.698101 -0.501776 0.000000
0.701779 -0.504560 -0.016667
0.704372 -0.506453 -0.033333
0.703598 -0.474594 0.033333
0.706769 -0.482744 0.016667
0.708522 -0.487610 0.000000
0.709823 -0.489461 -0.016667
0.710837 -0.491363 -0.033333
0.722892 -0.463315 0.033333
0.721076 -0.469621 0.016667
0.719339 -0.473770 0.000000
0.718783 -0.475336 -0.016667
0.718572 -0.476771 -0.033333
0.737992 -0.452849 0.033333
0.733427 -0.457187 0.016667
0.729596 -0.460275 0.000000
0.727649 -0.461600 -0.016667
0.726589 -0.462595 -0.033333
0.749328 -0.441865 0.033333
0.743626 -0.444761 0.016667
0.738711 -0.446879 0.000000
0.735845 -0.447898 -0.016667
0.734238 -0.448606 -0.033333
0.757640 -0.430120 0.033333
0.751783 -0.431876 0.016667
0.746472 -0.433282 0.000000
0.743067 -0.434072 -0.016667
0.741111 -0.434574 -0.033333
0.763764 -0.416969 0.033333
0.758198 -0.418307 0.016667
0.752829 -0.419392 0.000000
0.749138 -0.419991 -0.016667
0.747000 -0.420362 -0.033333
0.768370 -0.403053 0.033333
0.763078 -0.404187 0.016667
0.757786 -0.405099 0.000000
0.754008 -0.405614 -0.016667
0.751785 -0.405926 -0.033333
0.771538 -0.388466 0.033333
0.766561 -0.389553 0.016667
0.761426 -0.390449 0.000000
0.757648 -0.390959 -0.016667
0.755405 -0.391252 -0.033333
0.773518 -0.373451 0.033333
0.768751 -0.374549 0.016667
0.763776 -0.375499 0.000000
0.760059 -0.376062 -0.016667
0.757833 -0.376374 -0.033333
0.774200 -0.358060 0.033333
0.769686 -0.359259 0.016667
0.764879 -0.360330 0.000000
0.761243 -0.360986 -0.016667
0.759064 -0.361344 -0.033333
0.773778 -0.342441 0.033333
0.769371 -0.343778 0.016667
0.764729 -0.345023 0.000000
0.761216 -0.345802 -0.016667
0.759099 -0.346218 -0.033333
0.771938 -0.326599 0.033333
0.767798 -0.328193 0.016667
0.763340 -0.329660 0.000000
0.759974 -0.330577 -0.016667
0.757971 -0.331069 -0.033333
0.768975 -0.310671 0.033333
0.764875 -0.312572 0.016667
0.760674 -0.314322 0.000000
0.757561 -0.315393 -0.016667
0.755704 -0.315941 -0.033333
0.764101 -0.294621 0.033333
0.760572 -0.297037 0.016667
0.756740 -0.299120 0.000000
0.753994 -0.300289 -0.016667
0.752408 -0.300921 -0.033333
0.757938 -0.278672 0.033333
0.754625 -0.281747 0.016667
0.751510 -0.284101 0.000000
0.749410 -0.285408 -0.016667
0.748182 -0.285956 -0.033333
0.748164 -0.263167 0.033333
0.747115 -0.266781 0.016667
0.745033 -0.269639 0.000000
0.744005 -0.270554 -0.016667
0.743261 -0.271246 -0.033333
0.735793 -0.248716 0.033333
0.737631 -0.253875 0.016667
0.737702 -0.254931 0.000000
0.738088 -0.256382 -0.016667
0.737961 -0.256175 -0.033333
0.713185 -0.249457 0.033333
0.725297 -0.239067 0.016667
0.729950 -0.242583 0.000000
0.732468 -0.240624 -0.016667
0.732439 -0.242535 -0.033333
0.711755 -0.233391 0.033333
0.720794 -0.227279 0.016667
0.724468 -0.227086 0.000000
0.727068 -0.226920 -0.016667
0.727711 -0.227067 -0.033333
0.710326 -0.217326 0.033333
0.717461 -0.213322 0.016667
0.720181 -0.212498 0.000000
0.722694 -0.212131 -0.016667
0.723374 -0.212239 -0.033333
0.708896 -0.201260 0.033333
0.714513 -0.198422 0.016667
0.716852 -0.197527 0.000000
0.719016 -0.197271 -0.016667
0.719667 -0.197130 -0.033333
0.707466 -0.185195 0.033333
0.712076 -0.183235 0.016667
0.714161 -0.182366 0.000000
0.715956 -0.182098 -0.016667
0.716523 -0.182002 -0.033333
0.706036 -0.169129 0.033333
0.710390 -0.167919 0.016667
0.711947 -0.166931 0.000000
0.713403 -0.166862 -0.016667
0.713867 -0.166646 -0.033333
0.707725 -0.153434 0.033333
0.708736 -0.152231 0.016667
0.710253 -0.151522 0.000000
0.711151 -0.151400 -0.016667
0.711663 -0.151289 -0.033333
0.706509 -0.137486 0.033333
0.707633 -0.136562 0.016667
0.708579 -0.135977 0.000000
0.709294 -0.135919 -0.016667
0.709667 -0.135824 -0.033333
0.705321 -0.121550 0.033333
0.706198 -0.120866 0.016667
0.707057 -0.120426 0.000000
0.707596 -0.120379 -0.016667
0.707888 -0.120346 -0.033333
0.703886 -0.105712 0.033333
0.704771 -0.105181 0.016667
0.705541 -0.104865 0.000000
0.706015 -0.104848 -0.016667
0.706250 -0.104839 -0.033333
0.702474 -0.089919 0.033333
0.703299 -0.089538 0.016667
0.704054 -0.089319 0.000000
0.704496 -0.089324 -0.016667
0.704699 -0.089338 -0.033333
0.701007 -0.074198 0.033333
0.701836 -0.073928 0.016667
0.702578 -0.073794 0.000000
0.703011 -0.073822 -0.016667
0.703203 -0.073846 -0.033333
0.699543 -0.058515 0.033333
0.700357 -0.058354 0.016667
0.701108 -0.058293 0.000000
0.701545 -0.058340 -0.016667
0.701732 -0.058373 -0.033333
0.698042 -0.042873 0.033333
0.698871 -0.042805 0.016667
0.699635 -0.042813 0.000000
0.700082 -0.042878 -0.016667
0.700272 -0.042915 -0.033333
0.696524 -0.027250 0.033333
0.697365 -0.027276 0.016667
0.698151 -0.027349 0.000000
0.698614 -0.027432 -0.016667
0.698808 -0.027473 -0.033333
0.694968 -0.011638 0.033333
0.695840 -0.011756 0.016667
0.696655 -0.011896 0.000000
0.697136 -0.011997 -0.016667
0.697338 -0.012041 -0.033333
0.693384 0.003977 0.033333
0.694292 0.003762 0.016667
0.695144 0.003553 0.000000
0.695647 0.003432 -0.016667
0.695857 0.003386 -0.033333
0.691762 0.019608 0.033333
0.692723 0.019290 0.016667
0.693620 0.019005 0.000000
0.694148 0.018862 -0.016667
0.694368 0.018813 -0.033333
0.690113 0.035268 0.033333
0.691136 0.034836 0.016667
0.692090 0.034467 0.000000
0.692645 0.034299 -0.016667
0.692876 0.034246 -0.033333
0.688431 0.050976 0.033333
0.689539 0.050412 0.016667
0.690559 0.049947 0.000000
0.691146 0.049751 -0.016667
0.691391 0.049691 -0.033333
0.686737 0.066743 0.033333
0.687942 0.066030 0.016667
0.689042 0.065452 0.000000
0.689666 0.065222 -0.016667
0.689926 0.065153 -0.033333
0.685022 0.082601 0.033333
0.686356 0.081703 0.016667
0.687555 0.080990 0.000000
0.688222 0.080719 -0.016667
0.688500 0.080634 -0.033333
0.683324 0.098554 0.033333
0.684806 0.097441 0.016667
0.686121 0.096563 0.000000
0.686836 0.096243 -0.016667
0.687139 0.096136 -0.033333
0.681619 0.114657 0.033333
0.683304 0.113256 0.016667
0.684763 0.112170 0.000000
0.685540 0.111794 -0.016667
0.685873 0.111650 -0.033333
0.679966 0.130897 0.033333
0.681885 0.129153 0.016667
0.683521 0.127808 0.000000
0.684365 0.127358 -0.016667
0.684741 0.127171 -0.033333
0.678286 0.147411 0.033333
0.680566 0.145135 0.016667
0.682424 0.143444 0.000000
0.683356 0.142935 -0.016667
0.683789 0.142653 -0.033333
0.676667 0.164150 0.033333
0.679379 0.161190 0.016667
0.681542 0.159073 0.000000
0.682550 0.158448 -0.016667
0.683072 0.158106 -0.033333
0.674803 0.181640 0.033333
0.678426 0.177344 0.016667
0.680875 0.174470 0.000000
0.682019 0.173991 -0.016667
0.682651 0.173370 -0.033333
0.673150 0.200375 0.033333
0.677777 0.192504 0.016667
0.680504 0.190231 0.000000
0.681872 0.188985 -0.016667
0.682514 0.188848 -0.033333
0.671721 0.216440 0.033333
0.677813 0.208353 0.016667
0.680337 0.205150 0.000000
0.682227 0.204225 -0.016667
0.682701 0.203772 -0.033333
0.670291 0.232506 0.033333
0.678115 0.223414 0.016667
0.680807 0.220004 0.000000
0.682892 0.219016 -0.016667
0.683447 0.218623 -0.033333
0.668861 0.248572 0.033333
0.678488 0.238192 0.016667
0.681721 0.234339 0.000000
0.684066 0.233453 -0.016667
0.684723 0.233347 -0.033333
0.667431 0.264637 0.033333
0.678194 0.251006 0.016667
0.683437 0.248170 0.000000
0.685868 0.247751 -0.016667
0.686514 0.247700 -0.033333
0.666002 0.280703 0.033333
0.678693 0.260829 0.016667
0.686461 0.263352 0.000000
0.688708 0.260618 -0.016667
0.688556 0.262747 -0.033333
0.689734 0.270051 0.033333
0.693657 0.273807 0.016667
0.692461 0.274186 0.000000
0.692019 0.276010 -0.016667
0.691028 0.275427 -0.033333
0.703238 0.281688 0.033333
0.701802 0.285158 0.016667
0.697460 0.287860 0.000000
0.694951 0.289134 -0.016667
0.693108 0.289943 -0.033333
0.711377 0.296284 0.033333
0.706306 0.299172 0.016667
0.700704 0.301197 0.000000
0.696748 0.302961 -0.016667
0.694281 0.303825 -0.033333
0.713551 0.311475 0.033333
0.707890 0.313135 0.016667
0.701615 0.314861 0.000000
0.697017 0.316759 -0.016667
0.694183 0.317844 -0.033333
0.712424 0.326562 0.033333
0.706573 0.327425 0.016667
0.700276 0.328710 0.000000
0.695465 0.330653 -0.016667
0.692605 0.331879 -0.033333
0.707688 0.341099 0.033333
0.702204 0.341123 0.016667
0.696448 0.342285 0.000000
0.692098 0.344751 -0.016667
0.689536 0.346016 -0.033333
0.699604 0.355696 0.033333
0.694874 0.355352 0.016667
0.690188 0.356363 0.000000
0.686972 0.358915 -0.016667
0.685213 0.360374 -0.033333
0.688058 0.370254 0.033333
0.684501 0.369488 0.016667
0.681455 0.370553 0.000000
0.680428 0.373519 -0.016667
0.680180 0.374965 -0.033333
0.672882 0.385165 0.033333
0.670582 0.384053 0.016667
0.669616 0.385360 0.000000
0.673261 0.388468 -0.016667
0.675576 0.389980 -0.033333
0.697982 -0.487457 0.033333
0.707543 -0.498599 0.016667
0.714318 -0.503883 0.000000
0.717569 -0.506891 -0.016667
0.720095 -0.508980 -0.033333
0.722181 -0.476491 0.033333
0.724365 -0.484858 0.016667
0.725299 -0.490104 0.000000
0.726352 -0.492035 -0.016667
0.727182 -0.494013 -0.033333
0.741945 -0.467272 0.033333
0.739086 -0.472818 0.016667
0.736496 -0.476711 0.000000
0.735707 -0.478216 -0.016667
0.735328 -0.479569 -0.033333
0.756731 -0.458121 0.033333
0.751324 -0.461238 0.016667
0.746878 -0.463533 0.000000
0.744755 -0.464626 -0.016667
0.743578 -0.465501 -0.033333
0.767102 -0.447767 0.033333
0.761133 -0.449012 0.016667
0.756014 -0.450182 0.000000
0.753020 -0.450945 -0.016667
0.751310 -0.451464 -0.033333
0.774724 -0.434996 0.033333
0.769023 -0.435766 0.016667
0.763710 -0.436492 0.000000
0.760210 -0.436932 -0.016667
0.758215 -0.437237 -0.033333
0.780653 -0.421122 0.033333
0.775231 -0.421733 0.016667
0.769929 -0.422228 0.000000
0.766245 -0.422519 -0.016667
0.764098 -0.422727 -0.033333
0.784994 -0.406320 0.033333
0.779934 -0.406956 0.016667
0.774791 -0.407453 0.000000
0.771058 -0.407720 -0.016667
0.768855 -0.407890 -0.033333
0.788094 -0.390970 0.033333
0.783297 -0.391672 0.016667
0.778327 -0.392247 0.000000
0.774643 -0.392570 -0.016667
0.772440 -0.392760 -0.033333
0.789863 -0.375149 0.033333
0.785367 -0.375993 0.016667
0.780602 -0.376720 0.000000
0.776996 -0.377152 -0.016667
0.774831 -0.377395 -0.033333
0.790497 -0.359063 0.033333
0.786194 -0.360057 0.016667
0.781619 -0.360973 0.000000
0.778132 -0.361549 -0.016667
0.776021 -0.361865 -0.033333
0.789790 -0.342721 0.033333
0.785765 -0.343958 0.016667
0.781406 -0.345107 0.000000
0.778049 -0.345847 -0.016667
0.776026 -0.346257 -0.033333
0.787911 -0.326298 0.033333
0.784059 -0.327781 0.016667
0.779939 -0.329213 0.000000
0.776778 -0.330140 -0.016667
0.774860 -0.330642 -0.033333
0.784487 -0.309716 0.033333
0.781027 -0.311629 0.016667
0.777239 -0.313388 0.000000
0.774326 -0.314497 -0.016667
0.772589 -0.315110 -0.033333
0.779674 -0.293241 0.033333
0.776580 -0.295572 0.016667
0.773277 -0.297711 0.000000
0.770777 -0.299022 -0.016667
0.769274 -0.299691 -0.033333
0.772794 -0.276703 0.033333
0.770661 -0.279767 0.016667
0.768129 -0.282347 0.000000
0.766212 -0.283710 -0.016667
0.765082 -0.284503 -0.033333
0.763747 -0.260709 0.033333
0.763157 -0.264549 0.016667
0.761913 -0.267231 0.000000
0.760852 -0.268808 -0.016667
0.760198 -0.269358 -0.033333
0.751563 -0.246120 0.033333
0.754891 -0.249747 0.016667
0.754810 -0.253080 0.000000
0.755050 -0.253774 -0.016667
0.754907 -0.254699 -0.033333
0.735094 -0.234595 0.033333
0.742917 -0.238197 0.016667
0.747759 -0.238398 0.000000
0.749022 -0.239549 -0.016667
0.749836 -0.239627 -0.033333
0.730277 -0.226247 0.033333
0.738491 -0.223926 0.016667
0.742055 -0.224767 0.000000
0.743779 -0.224677 -0.016667
0.744917 -0.225005 -0.033333
0.728183 -0.212847 0.033333
0.734043 -0.210599 0.016667
0.737764 -0.209929 0.000000
0.739295 -0.210231 -0.016667
0.740485 -0.209926 -0.033333
0.726193 -0.198320 0.033333
0.730931 -0.196205 0.016667
0.734074 -0.195273 0.000000
0.735592 -0.195230 -0.016667
0.736646 -0.195038 -0.033333
0.724542 -0.183183 0.033333
0.728483 -0.181329 0.016667
0.731150 -0.180238 0.000000
0.732469 -0.180169 -0.016667
0.733394 -0.179897 -0.033333
0.723680 -0.168271 0.033333
0.726553 -0.166024 0.016667
0.728811 -0.165034 0.000000
0.729873 -0.164914 -0.016667
0.730642 -0.164674 -0.033333
0.723617 -0.152286 0.033333
0.725311 -0.150580 0.016667
0.726769 -0.149655 0.000000
0.727764 -0.149547 -0.016667
0.728251 -0.149357 -0.033333
0.722806 -0.135944 0.033333
0.723954 -0.134952 0.016667
0.725130 -0.134222 0.000000
0.725853 -0.134086 -0.016667
0.726263 -0.133995 -0.033333
0.721546 -0.120004 0.033333
0.722617 -0.119233 0.016667
0.723569 -0.118728 0.000000
0.724173 -0.118627 -0.016667
0.724484 -0.118565 -0.033333
0.720260 -0.104123 0.033333
0.721207 -0.103591 0.016667
0.722087 -0.103222 0.000000
0.722608 -0.103158 -0.016667
0.722864 -0.103134 -0.033333
0.718886 -0.088387 0.033333
0.719807 -0.087988 0.016667
0.720632 -0.087739 0.000000
0.721118 -0.087708 -0.016667
0.721342 -0.087702 -0.033333
0.717507 -0.072714 0.033333
0.718386 -0.072445 0.016667
0.719196 -0.072282 0.000000
0.719667 -0.072279 -0.016667
0.719874 -0.072289 -0.033333
0.716081 -0.057115 0.033333
0.716957 -0.056941 0.016667
0.717761 -0.056856 0.000000
0.718230 -0.056876 -0.016667
0.718433 -0.056894 -0.033333
0.714631 -0.041555 0.033333
0.715503 -0.041474 0.016667
0.716318 -0.041454 0.000000
0.716796 -0.041494 -0.016667
0.716998 -0.041520 -0.033333
0.713133 -0.026031 0.033333
0.714025 -0.026032 0.016667
0.714858 -0.026074 0.000000
0.715350 -0.026133 -0.016667
0.715558 -0.026163 -0.033333
0.711600 -0.010522 0.033333
0.712516 -0.010607 0.016667
0.713379 -0.010710 0.000000
0.713890 -0.010787 -0.016667
0.714105 -0.010821 -0.033333
0.710017 0.004979 0.033333
0.710976 0.004810 0.016667
0.711879 0.004644 0.000000
0.712413 0.004548 -0.016667
0.712638 0.004512 -0.033333
0.708394 0.020484 0.033333
0.709407 0.020226 0.016667
0.710360 0.019994 0.000000
0.710922 0.019878 -0.016667
0.711157 0.019839 -0.033333
0.706723 0.036008 0.033333
0.707810 0.035651 0.016667
0.708826 0.035346 0.000000
0.709420 0.035208 -0.016667
0.709669 0.035165 -0.033333
0.705018 0.051559 0.033333
0.706193 0.051093 0.016667
0.707286 0.050706 0.000000
0.707919 0.050544 -0.016667
0.708183 0.050496 -0.033333
0.703272 0.067160 0.033333
0.704564 0.066564 0.016667
0.705753 0.066081 0.000000
0.706431 0.065891 -0.016667
0.706714 0.065836 -0.033333
0.701509 0.082816 0.033333
0.702940 0.082073 0.016667
0.704243 0.081477 0.000000
0.704975 0.081255 -0.016667
0.705283 0.081189 -0.033333
0.699722 0.098564 0.033333
0.701334 0.097633 0.016667
0.702782 0.096900 0.000000
0.703579 0.096639 -0.016667
0.703918 0.096556 -0.033333
0.697943 0.114393 0.033333
0.699779 0.113248 0.016667
0.701402 0.112348 0.000000
0.702276 0.112041 -0.016667
0.702654 0.111936 -0.033333
0.696169 0.130363 0.033333
0.698293 0.128919 0.016667
0.700145 0.127813 0.000000
0.701110 0.127460 -0.016667
0.701538 0.127312 -0.033333
0.694397 0.146403 0.033333
0.696937 0.144629 0.016667
0.699065 0.143278 0.000000
0.700133 0.142866 -0.016667
0.700624 0.142681 -0.033333
0.692684 0.162591 0.033333
0.695715 0.160333 0.016667
0.698245 0.158673 0.000000
0.699401 0.158275 -0.016667
0.699979 0.157968 -0.033333
0.690736 0.178649 0.033333
0.694902 0.175777 0.016667
0.697735 0.174096 0.000000
0.698985 0.173509 -0.016667
0.699670 0.173250 -0.033333
0.689781 0.193725 0.033333
0.694422 0.191344 0.016667
0.697612 0.189163 0.000000
0.698984 0.188718 -0.016667
0.699735 0.188325 -0.033333
0.689619 0.209385 0.033333
0.694496 0.206006 0.016667
0.697999 0.204202 0.000000
0.699419 0.203598 -0.016667
0.700256 0.203324 -0.033333
0.688839 0.224031 0.033333
0.695217 0.220484 0.016667
0.698837 0.218736 0.000000
0.700417 0.218302 -0.016667
0.701236 0.218088 -0.033333
0.688546 0.237469 0.033333
0.696347 0.233885 0.016667
0.700437 0.232973 0.000000
0.701873 0.232702 -0.016667
0.702759 0.232616 -0.033333
0.688201 0.249565 0.033333
0.698740 0.246315 0.016667
0.702198 0.247255 0.000000
0.704164 0.246353 -0.016667
0.704686 0.247347 -0.033333
0.689828 0.257518 0.033333
0.699753 0.260169 0.016667
0.705521 0.259392 0.000000
0.707051 0.260964 -0.016667
0.707081 0.261036 -0.033333
0.709235 0.266747 0.033333
0.713812 0.269554 0.016667
0.711678 0.273363 0.000000
0.710588 0.274189 -0.016667
0.709485 0.275602 -0.033333
0.720274 0.279393 0.033333
0.719378 0.283439 0.016667
0.716306 0.286310 0.000000
0.713581 0.288532 -0.016667
0.711602 0.289331 -0.033333
0.727214 0.294448 0.033333
0.723930 0.297533 0.016667
0.719287 0.300357 0.000000
0.715356 0.302385 -0.016667
0.712815 0.303633 -0.033333
0.730382 0.310115 0.033333
0.725856 0.312179 0.016667
0.720277 0.314400 0.000000
0.715588 0.316531 -0.016667
0.712664 0.317767 -0.033333
0.729569 0.325333 0.033333
0.724605 0.326496 0.016667
0.718818 0.328338 0.000000
0.714015 0.330704 -0.016667
0.710982 0.331974 -0.033333
0.725430 0.340583 0.033333
0.720563 0.341207 0.016667
0.715008 0.342593 0.000000
0.710440 0.344803 -0.016667
0.707740 0.346269 -0.033333
0.717546 0.355141 0.033333
0.713168 0.354967 0.016667
0.708523 0.356293 0.000000
0.705042 0.359213 -0.016667
0.703100 0.360623 -0.033333
0.705746 0.369933 0.033333
0.702255 0.369396 0.016667
0.699158 0.370632 0.000000
0.698074 0.373666 -0.016667
0.697660 0.375321 -0.033333
0.689996 0.385049 0.033333
0.687695 0.383974 0.016667
0.686610 0.385369 0.000000
0.690323 0.388696 -0.016667
0.692539 0.390339 -0.033333
0.716119 -0.488597 0.033333
0.724403 -0.500536 0.016667
0.730209 -0.506968 0.000000
0.732978 -0.510115 -0.016667
0.735418 -0.512425 -0.033333
0.741165 -0.480455 0.033333
0.741989 -0.488488 0.016667
0.741667 -0.493821 0.000000
0.742482 -0.495686 -0.016667
0.743112 -0.497621 -0.033333
0.760570 -0.474188 0.033333
0.756545 -0.478128 0.016667
0.753031 -0.480886 0.000000
0.752130 -0.482155 -0.016667
0.751605 -0.483374 -0.033333
0.773607 -0.466415 0.033333
0.768069 -0.466979 0.016667
0.763503 -0.467885 0.000000
0.761272 -0.468713 -0.016667
0.759962 -0.469309 -0.033333
0.783055 -0.454383 0.033333
0.777559 -0.454309 0.016667
0.772578 -0.454585 0.000000
0.769477 -0.454862 -0.016667
0.767749 -0.455097 -0.033333
0.790618 -0.440696 0.033333
0.785244 -0.440551 0.016667
0.780096 -0.440484 0.000000
0.776642 -0.440493 -0.016667
0.774661 -0.440569 -0.033333
0.796347 -0.425713 0.033333
0.791293 -0.425708 0.016667
0.786238 -0.425667 0.000000
0.782635 -0.425615 -0.016667
0.780528 -0.425619 -0.033333
0.800752 -0.410014 0.033333
0.795945 -0.410174 0.016667
0.791019 -0.410249 0.000000
0.787416 -0.410254 -0.016667
0.785276 -0.410275 -0.033333
0.803741 -0.393726 0.033333
0.799243 -0.394101 0.016667
0.794521 -0.394378 0.000000
0.790974 -0.394510 -0.016667
0.788848 -0.394590 -0.033333
0.805560 -0.377122 0.033333
0.801286 -0.377689 0.016667
0.796754 -0.378187 0.000000
0.793310 -0.378483 -0.016667
0.791229 -0.378651 -0.033333
0.806051 -0.360244 0.033333
0.802060 -0.361056 0.016667
0.797753 -0.361802 0.000000
0.794429 -0.362282 -0.016667
0.792417 -0.362555 -0.033333
0.805361 -0.343279 0.033333
0.801588 -0.344319 0.016667
0.797508 -0.345335 0.000000
0.794347 -0.346016 -0.016667
0.792421 -0.346398 -0.033333
0.803281 -0.326217 0.033333
0.799830 -0.327584 0.016667
0.796043 -0.328898 0.000000
0.793075 -0.329780 -0.016667
0.791278 -0.330284 -0.033333
0.799876 -0.309265 0.033333
0.796765 -0.310939 0.016667
0.793343 -0.312584 0.000000
0.790664 -0.313680 -0.016667
0.789028 -0.314285 -0.033333
0.794891 -0.292355 0.033333
0.792339 -0.294514 0.016667
0.789463 -0.296512 0.000000
0.787159 -0.297772 -0.016667
0.785778 -0.298499 -0.033333
0.788241 -0.275842 0.033333
0.786555 -0.278429 0.016667
0.784449 -0.280739 0.000000
0.782707 -0.282174 -0.016667
0.781650 -0.282913 -0.033333
0.779724 -0.259779 0.033333
0.779534 -0.262905 0.016667
0.778490 -0.265442 0.000000
0.777482 -0.266812 -0.016667
0.776865 -0.267662 -0.033333
0.769576 -0.244994 0.033333
0.771550 -0.248072 0.016667
0.771898 -0.250451 0.000000
0.771731 -0.251942 -0.016667
0.771768 -0.252490 -0.033333
0.757625 -0.232647 0.033333
0.761943 -0.234252 0.016667
0.764897 -0.236382 0.000000
0.766110 -0.237056 -0.016667
0.766501 -0.237642 -0.033333
0.751396 -0.219648 0.033333
0.756103 -0.221639 0.016667
0.759482 -0.221916 0.000000
0.760790 -0.222477 -0.016667
0.761652 -0.222754 -0.033333
0.746737 -0.208110 0.033333
0.751748 -0.207465 0.016667
0.754831 -0.207672 0.000000
0.756247 -0.207725 -0.016667
0.757269 -0.207840 -0.033333
0.743984 -0.194580 0.033333
0.748032 -0.193447 0.016667
0.751083 -0.192853 0.000000
0.752422 -0.192951 -0.016667
0.753371 -0.192806 -0.033333
0.742003 -0.180354 0.033333
0.745333 -0.178783 0.016667
0.747958 -0.177989 0.000000
0.749235 -0.177891 -0.016667
0.750069 -0.177751 -0.033333
0.740733 -0.165209 0.033333
0.743300 -0.163820 0.016667
0.745457 -0.162865 0.000000
0.746598 -0.162722 -0.016667
0.747268 -0.162573 -0.033333
0.739780 -0.149773 0.033333
0.741772 -0.148459 0.016667
0.743448 -0.147612 0.000000
0.744364 -0.147444 -0.016667
0.744938 -0.147312 -0.033333
0.738951 -0.133971 0.033333
0.740391 -0.132925 0.016667
0.741708 -0.132253 0.000000
0.742496 -0.132104 -0.016667
0.742908 -0.131997 -0.033333
0.737854 -0.118062 0.033333
0.739049 -0.117370 0.016667
0.740164 -0.116849 0.000000
0.740817 -0.116725 -0.016667
0.741153 -0.116667 -0.033333
0.736644 -0.102339 0.033333
0.737725 -0.101806 0.016667
0.738704 -0.101441 0.000000
0.739282 -0.101354 -0.016667
0.739559 -0.101317 -0.033333
0.735390 -0.086680 0.033333
0.736381 -0.086310 0.016667
0.737295 -0.086048 0.000000
0.737825 -0.085994 -0.016667
0.738068 -0.085979 -0.033333
0.734074 -0.071125 0.033333
0.735027 -0.070856 0.016667
0.735900 -0.070683 0.000000
0.736409 -0.070658 -0.016667
0.736634 -0.070655 -0.033333
0.732719 -0.055620 0.033333
0.733644 -0.055449 0.016667
0.734504 -0.055346 0.000000
0.735007 -0.055343 -0.016667
0.735223 -0.055352 -0.033333
0.731308 -0.040170 0.033333
0.732232 -0.040075 0.016667
0.733094 -0.040034 0.000000
0.733601 -0.040052 -0.016667
0.733818 -0.040067 -0.033333
0.729850 -0.024749 0.033333
0.730783 -0.024730 0.016667
0.731662 -0.024744 0.000000
0.732183 -0.024781 -0.016667
0.732403 -0.024801 -0.033333
0.728336 -0.009354 0.033333
0.729298 -0.009404 0.016667
0.730206 -0.009472 0.000000
0.730745 -0.009527 -0.016667
0.730972 -0.009551 -0.033333
0.726774 0.006027 0.033333
0.727775 0.005905 0.016667
0.728724 0.005784 0.000000
0.729287 0.005712 -0.016667
0.729524 0.005684 -0.033333
0.725155 0.021402 0.033333
0.726217 0.021205 0.016667
0.727218 0.021027 0.000000
0.727811 0.020938 -0.016667
0.728059 0.020907 -0.033333
0.723489 0.036775 0.033333
0.724625 0.036500 0.016667
0.725694 0.036262 0.000000
0.726322 0.036154 -0.016667
0.726584 0.036120 -0.033333
0.721770 0.052161 0.033333
0.723005 0.051796 0.016667
0.724159 0.051492 0.000000
0.724828 0.051365 -0.016667
0.725109 0.051328 -0.033333
0.720013 0.067562 0.033333
0.721368 0.067099 0.016667
0.722625 0.066721 0.000000
0.723345 0.066575 -0.016667
0.723647 0.066534 -0.033333
0.718215 0.083000 0.033333
0.719725 0.082419 0.016667
0.721111 0.081954 0.000000
0.721893 0.081787 -0.016667
0.722222 0.081741 -0.033333
0.716399 0.098471 0.033333
0.718099 0.097758 0.016667
0.719643 0.097194 0.000000
0.720499 0.097004 -0.016667
0.720862 0.096952 -0.033333
0.714579 0.114004 0.033333
0.716515 0.113123 0.016667
0.718258 0.112442 0.000000
0.719201 0.112229 -0.016667
0.719607 0.112164 -0.033333
0.712777 0.129561 0.033333
0.715028 0.128500 0.016667
0.717005 0.127691 0.000000
0.718051 0.127454 -0.016667
0.718509 0.127378 -0.033333
0.711068 0.145142 0.033333
0.713670 0.143869 0.016667
0.715960 0.142914 0.000000
0.717107 0.142680 -0.016667
0.717629 0.142566 -0.033333
0.709419 0.160617 0.033333
0.712610 0.159122 0.016667
0.715189 0.158117 0.000000
0.716445 0.157849 -0.016667
0.717043 0.157739 -0.033333
0.708252 0.175730 0.033333
0.711836 0.174318 0.016667
0.714819 0.173171 0.000000
0.716151 0.172975 -0.016667
0.716812 0.172826 -0.033333
0.707598 0.190725 0.033333
0.711669 0.189053 0.016667
0.714927 0.188139 0.000000
0.716291 0.187948 -0.016667
0.717024 0.187827 -0.033333
0.707574 0.204862 0.033333
0.712194 0.203630 0.016667
0.715570 0.202797 0.000000
0.716962 0.202769 -0.016667
0.717715 0.202693 -0.033333
0.708354 0.218643 0.033333
0.713278 0.217498 0.016667
0.716908 0.217217 0.000000
0.718157 0.217372 -0.016667
0.718931 0.217376 -0.033333
0.709438 0.231464 0.033333
0.715448 0.230900 0.016667
0.718662 0.231443 0.000000
0.720038 0.231577 -0.016667
0.720631 0.232024 -0.033333
0.712023 0.242612 0.033333
0.717801 0.244280 0.016667
0.721415 0.244778 0.000000
0.722428 0.245864 -0.016667
0.722779 0.246326 -0.033333
0.715285 0.254388 0.033333
0.721200 0.255595 0.016667
0.724667 0.258548 0.000000
0.725552 0.259699 -0.016667
0.725259 0.260677 -0.033333
0.729022 0.265104 0.033333
0.731721 0.268631 0.016667
0.730497 0.271636 0.000000
0.728913 0.273936 -0.016667
0.727862 0.274849 -0.033333
0.737825 0.279488 0.033333
0.737328 0.282954 0.016667
0.734710 0.285967 0.000000
0.731837 0.287966 -0.016667
0.729907 0.289304 -0.033333
0.743924 0.294952 0.033333
0.741444 0.297665 0.016667
0.737450 0.300302 0.000000
0.733593 0.302434 -0.016667
0.731016 0.303630 -0.033333
0.746729 0.310674 0.033333
0.743169 0.312607 0.016667
0.738338 0.314818 0.000000
0.733780 0.316871 -0.016667
0.730814 0.318112 -0.033333
0.746520 0.326336 0.033333
0.742495 0.327479 0.016667
0.737136 0.329214 0.000000
0.732125 0.331280 -0.016667
0.729045 0.332577 -0.033333
0.742554 0.340952 0.033333
0.738297 0.341311 0.016667
0.733161 0.342953 0.000000
0.728562 0.345683 -0.016667
0.725634 0.346974 -0.033333
0.734859 0.355805 0.033333
0.730997 0.355986 0.016667
0.726544 0.357289 0.000000
0.722880 0.359797 -0.016667
0.720790 0.361491 -0.033333
0.723089 0.370135 0.033333
0.719937 0.369553 0.016667
0.716894 0.370967 0.000000
0.715534 0.374433 -0.016667
0.714926 0.376029 -0.033333
0.706953 0.385061 0.033333
0.704723 0.384016 0.016667
0.703561 0.385524 0.000000
0.707267 0.389173 -0.016667
0.709273 0.391185 -0.033333
0.734962 -0.491561 0.033333
0.741499 -0.504096 0.016667
0.745506 -0.511721 0.000000
0.747854 -0.514506 -0.016667
0.750302 -0.516963 -0.033333
0.759731 -0.488671 0.033333
0.759012 -0.495205 0.016667
0.757127 -0.499010 0.000000
0.758078 -0.500614 -0.016667
0.758504 -0.502436 -0.033333
0.776161 -0.485494 0.033333
0.772240 -0.485706 0.016667
0.768783 -0.486354 0.000000
0.767875 -0.487466 -0.016667
0.767170 -0.488229 -0.033333
0.787879 -0.475018 0.033333
0.783353 -0.473886 0.016667
0.779250 -0.473692 0.000000
0.776893 -0.473842 -0.016667
0.775626 -0.474020 -0.033333
0.797569 -0.461780 0.033333
0.792711 -0.460678 0.016667
0.788065 -0.459916 0.000000
0.785099 -0.459589 -0.016667
0.783439 -0.459507 -0.033333
0.805058 -0.446707 0.033333
0.800274 -0.445872 0.016667
0.795546 -0.445149 0.000000
0.792248 -0.444706 -0.016667
0.790344 -0.444495 -0.033333
0.811081 -0.430645 0.033333
0.806395 -0.430116 0.016667
0.801646 -0.429573 0.000000
0.798236 -0.429177 -0.016667
0.796231 -0.428981 -0.033333
0.815501 -0.413843 0.033333
0.811063 -0.413636 0.016667
0.806454 -0.413367 0.000000
0.803034 -0.413134 -0.016667
0.800993 -0.413007 -0.033333
0.818682 -0.396651 0.033333
0.814438 -0.396718 0.016667
0.809974 -0.396725 0.000000
0.806613 -0.396687 -0.016667
0.804592 -0.396667 -0.033333
0.820479 -0.379152 0.033333
0.816501 -0.379502 0.016667
0.812242 -0.379798 0.000000
0.808976 -0.379972 -0.016667
0.807002 -0.380075 -0.033333
0.821078 -0.361538 0.033333
0.817318 -0.362139 0.016667
0.813263 -0.362720 0.000000
0.810129 -0.363114 -0.016667
0.808224 -0.363342 -0.033333
0.820332 -0.343856 0.033333
0.816857 -0.344744 0.016667
0.813060 -0.345617 0.000000
0.810085 -0.346227 -0.016667
0.808275 -0.346588 -0.033333
0.818323 -0.326278 0.033333
0.815139 -0.327429 0.016667
0.811635 -0.328600 0.000000
0.808875 -0.329431 -0.016667
0.807185 -0.329912 -0.033333
0.814909 -0.308833 0.033333
0.812129 -0.310320 0.016667
0.809026 -0.311791 0.000000
0.806536 -0.312817 -0.016667
0.805021 -0.313424 -0.033333
0.810086 -0.291749 0.033333
0.807847 -0.293525 0.016667
0.805267 -0.295285 0.000000
0.803159 -0.296497 -0.016667
0.801868 -0.297185 -0.033333
0.803765 -0.275055 0.033333
0.802323 -0.277200 0.016667
0.800473 -0.279198 0.000000
0.798854 -0.280505 -0.016667
0.797876 -0.281284 -0.033333
0.796011 -0.259141 0.033333
0.795726 -0.261422 0.016667
0.794805 -0.263541 0.000000
0.793821 -0.264938 -0.016667
0.793255 -0.265663 -0.033333
0.787162 -0.244038 0.033333
0.788203 -0.246283 0.016667
0.788569 -0.248460 0.000000
0.788369 -0.249680 -0.016667
0.788219 -0.250386 -0.033333
0.777628 -0.230415 0.033333
0.780294 -0.232325 0.016667
0.782172 -0.233756 0.000000
0.782805 -0.234809 -0.016667
0.783195 -0.235283 -0.033333
0.771061 -0.218009 0.033333
0.774193 -0.218411 0.016667
0.776598 -0.219467 0.000000
0.777720 -0.220016 -0.016667
0.778310 -0.220305 -0.033333
0.766065 -0.204227 0.033333
0.769222 -0.204838 0.016667
0.771923 -0.204912 0.000000
0.773173 -0.205233 -0.016667
0.773908 -0.205417 -0.033333
0.762084 -0.190996 0.033333
0.765430 -0.190454 0.016667
0.767986 -0.190337 0.000000
0.769270 -0.190380 -0.016667
0.770078 -0.190414 -0.033333
0.759516 -0.176742 0.033333
0.762379 -0.175978 0.016667
0.764807 -0.175447 0.000000
0.766029 -0.175426 -0.016667
0.766754 -0.175371 -0.033333
0.757686 -0.162091 0.033333
0.760146 -0.161074 0.016667
0.762226 -0.160457 0.000000
0.763336 -0.160337 -0.016667
0.763983 -0.160257 -0.033333
0.756446 -0.146851 0.033333
0.758399 -0.145949 0.016667
0.760151 -0.145311 0.000000
0.761114 -0.145168 -0.016667
0.761635 -0.145089 -0.033333
0.755337 -0.131403 0.033333
0.756967 -0.130633 0.016667
0.758408 -0.130085 0.000000
0.759220 -0.129947 -0.016667
0.759658 -0.129877 -0.033333
0.754301 -0.115868 0.033333
0.755642 -0.115248 0.016667
0.756868 -0.114816 0.000000
0.757572 -0.114701 -0.016667
0.757919 -0.114644 -0.033333
0.753186 -0.100317 0.033333
0.754362 -0.099873 0.016667
0.755443 -0.099538 0.000000
0.756064 -0.099446 -0.016667
0.756358 -0.099412 -0.033333
0.752006 -0.084853 0.033333
0.753083 -0.084510 0.016667
0.754069 -0.084267 0.000000
0.754640 -0.084202 -0.016667
0.754899 -0.084179 -0.033333
0.750768 -0.069425 0.033333
0.751777 -0.069185 0.016667
0.752713 -0.069012 0.000000
0.753256 -0.068970 -0.016667
0.753495 -0.068960 -0.033333
0.749460 -0.054055 0.033333
0.750440 -0.053885 0.016667
0.751350 -0.053774 0.000000
0.751883 -0.053754 -0.016667
0.752114 -0.053752 -0.033333
0.748097 -0.038712 0.033333
0.749062 -0.038614 0.016667
0.749970 -0.038555 0.000000
0.750506 -0.038554 -0.016667
0.750734 -0.038560 -0.033333
0.746669 -0.023403 0.033333
0.747645 -0.023364 0.016667
0.748566 -0.023354 0.000000
0.749113 -0.023372 -0.016667
0.749345 -0.023384 -0.033333
0.745188 -0.008115 0.033333
0.746187 -0.008135 0.016667
0.747135 -0.008172 0.000000
0.747700 -0.008207 -0.016667
0.747939 -0.008225 -0.033333
0.743647 0.007151 0.033333
0.744689 0.007074 0.016667
0.745677 0.006992 0.000000
0.746266 0.006940 -0.016667
0.746515 0.006917 -0.033333
0.742053 0.022398 0.033333
0.743153 0.022262 0.016667
0.744196 0.022134 0.000000
0.744815 0.022066 -0.016667
0.745075 0.022039 -0.033333
0.740404 0.037629 0.033333
0.741583 0.037431 0.016667
0.742695 0.037256 0.000000
0.743350 0.037172 -0.016667
0.743625 0.037143 -0.033333
0.738706 0.052843 0.033333
0.739984 0.052580 0.016667
0.741183 0.052356 0.000000
0.741881 0.052259 -0.016667
0.742173 0.052228 -0.033333
0.736961 0.068050 0.033333
0.738364 0.067712 0.016667
0.739671 0.067435 0.000000
0.740422 0.067326 -0.016667
0.740735 0.067295 -0.033333
0.735180 0.083243 0.033333
0.736739 0.082828 0.016667
0.738178 0.082494 0.000000
0.738992 0.082376 -0.016667
0.739332 0.082346 -0.033333
0.733377 0.098438 0.033333
0.735127 0.097932 0.016667
0.736731 0.097536 0.000000
0.737620 0.097412 -0.016667
0.737994 0.097384 -0.033333
0.731578 0.113619 0.033333
0.733570 0.113016 0.016667
0.735367 0.112559 0.000000
0.736346 0.112434 -0.016667
0.736761 0.112411 -0.033333
0.729841 0.128790 0.033333
0.732107 0.128084 0.016667
0.734147 0.127559 0.000000
0.735222 0.127446 -0.016667
0.735688 0.127424 -0.033333
0.728214 0.143902 0.033333
0.730849 0.143089 0.016667
0.733138 0.142535 0.000000
0.734319 0.142434 -0.016667
0.734841 0.142425 -0.033333
0.726898 0.158867 0.033333
0.729855 0.158046 0.016667
0.732449 0.157444 0.000000
0.733720 0.157395 -0.016667
0.734292 0.157396 -0.033333
0.725981 0.173675 0.033333
0.729335 0.172781 0.016667
0.732177 0.172289 0.000000
0.733511 0.172296 -0.016667
0.734133 0.172319 -0.033333
0.725766 0.188028 0.033333
0.729416 0.187384 0.016667
0.732435 0.186985 0.000000
0.733792 0.187105 -0.016667
0.734425 0.187185 -0.033333
0.726381 0.202170 0.033333
0.730215 0.201587 0.016667
0.733350 0.201514 0.000000
0.734611 0.201805 -0.016667
0.735237 0.201934 -0.033333
0.727747 0.215636 0.033333
0.731903 0.215543 0.016667
0.734852 0.215867 0.000000
0.736056 0.216293 -0.016667
0.736591 0.216621 -0.033333
0.730343 0.228467 0.033333
0.734206 0.229161 0.016667
0.737187 0.229809 0.000000
0.738083 0.230708 -0.016667
0.738428 0.231158 -0.033333
0.733690 0.241243 0.033333
0.737698 0.241962 0.016667
0.740088 0.243802 0.000000
0.740681 0.244921 -0.016667
0.740745 0.245594 -0.033333
0.738554 0.252597 0.033333
0.741978 0.255111 0.016667
0.743819 0.257299 0.000000
0.743705 0.259164 -0.016667
0.743342 0.260076 -0.033333
0.748240 0.265980 0.033333
0.749475 0.268590 0.016667
0.748729 0.271521 0.000000
0.747047 0.273428 -0.016667
0.745800 0.274615 -0.033333
0.755505 0.280808 0.033333
0.754960 0.283429 0.016667
0.752563 0.286008 0.000000
0.749741 0.288103 -0.016667
0.747816 0.289226 -0.033333
0.760593 0.296493 0.033333
0.758547 0.298702 0.016667
0.755076 0.301005 0.000000
0.751339 0.302863 -0.016667
0.748822 0.304054 -0.033333
0.763203 0.312588 0.033333
0.760315 0.314164 0.016667
0.755920 0.316036 0.000000
0.751437 0.317810 -0.016667
0.748513 0.318890 -0.033333
0.762742 0.328446 0.033333
0.759374 0.329435 0.016667
0.754614 0.330930 0.000000
0.749806 0.332668 -0.016667
0.746635 0.333711 -0.033333
0.759540 0.343874 0.033333
0.756197 0.344268 0.016667
0.751255 0.345437 0.000000
0.746129 0.347203 -0.016667
0.743153 0.348474 -0.033333
0.752187 0.357215 0.033333
0.748855 0.356741 0.016667
0.744622 0.358281 0.000000
0.740562 0.361661 -0.016667
0.738087 0.362964 -0.033333
0.740293 0.371199 0.033333
0.737531 0.370830 0.016667
0.734550 0.372243 0.000000
0.732873 0.375510 -0.016667
0.731988 0.377692 -0.033333
0.723960 0.385371 0.033333
0.721972 0.384218 0.016667
0.720773 0.385855 0.000000
0.724005 0.390379 -0.016667
0.725711 0.392470 -0.033333
0.753763 -0.499616 0.033333
0.758010 -0.512034 0.016667
0.759172 -0.518261 0.000000
0.762372 -0.520200 -0.016667
0.764558 -0.522983 -0.033333
0.773867 -0.503471 0.033333
0.773239 -0.505226 0.016667
0.771636 -0.505553 0.000000
0.772898 -0.507416 -0.016667
0.773119 -0.508380 -0.033333
0.787889 -0.496554 0.033333
0.785733 -0.494443 0.016667
0.783502 -0.493887 0.000000
0.782456 -0.493985 -0.016667
0.781948 -0.494118 -0.033333
0.800363 -0.484230 0.033333
0.796982 -0.482134 0.016667
0.793547 -0.480618 0.000000
0.791516 -0.479873 -0.016667
0.790467 -0.479594 -0.033333
0.810301 -0.469307 0.033333
0.806334 -0.467502 0.016667
0.802419 -0.465952 0.000000
0.799767 -0.465036 -0.016667
0.798266 -0.464548 -0.033333
0.818458 -0.452913 0.033333
0.814222 -0.451557 0.016667
0.809951 -0.450268 0.000000
0.806954 -0.449377 -0.016667
0.805232 -0.448907 -0.033333
0.824686 -0.435569 0.033333
0.820483 -0.434671 0.016667
0.816173 -0.433745 0.000000
0.813027 -0.433072 -0.016667
0.811166 -0.432687 -0.033333
0.829510 -0.417720 0.033333
0.825381 -0.417214 0.016667
0.821083 -0.416660 0.000000
0.817894 -0.416230 -0.016667
0.815995 -0.415983 -0.033333
0.832794 -0.399518 0.033333
0.828866 -0.399371 0.016667
0.824708 -0.399176 0.000000
0.821555 -0.399008 -0.016667
0.819658 -0.398912 -0.033333
0.834815 -0.381152 0.033333
0.831069 -0.381313 0.016667
0.827061 -0.381454 0.000000
0.823993 -0.381542 -0.016667
0.822138 -0.381596 -0.033333
0.835455 -0.362714 0.033333
0.831957 -0.363173 0.016667
0.828168 -0.363630 0.000000
0.825222 -0.363962 -0.016667
0.823433 -0.364168 -0.033333
0.834843 -0.344345 0.033333
0.831593 -0.345071 0.016667
0.828041 -0.345832 0.000000
0.825260 -0.346403 -0.016667
0.823563 -0.346748 -0.033333
0.832883 -0.326130 0.033333
0.829955 -0.327140 0.016667
0.826718 -0.328192 0.000000
0.824143 -0.328980 -0.016667
0.822571 -0.329464 -0.033333
0.829628 -0.308243 0.033333
0.827086 -0.309499 0.016667
0.824231 -0.310824 0.000000
0.821933 -0.311818 -0.016667
0.820522 -0.312415 -0.033333
0.825026 -0.290779 0.033333
0.823002 -0.292300 0.016667
0.820663 -0.293859 0.000000
0.818713 -0.295004 -0.016667
0.817520 -0.295704 -0.033333
0.819140 -0.273987 0.033333
0.817814 -0.275654 0.016667
0.816117 -0.277374 0.000000
0.814621 -0.278634 -0.016667
0.813709 -0.279370 -0.033333
0.812119 -0.257920 0.033333
0.811632 -0.259677 0.016667
0.810792 -0.261466 0.000000
0.809849 -0.262714 -0.016667
0.809268 -0.263464 -0.033333
0.804218 -0.242840 0.033333
0.804816 -0.244452 0.016667
0.804937 -0.246066 0.000000
0.804649 -0.247267 -0.016667
0.804475 -0.247918 -0.033333
0.796347 -0.228715 0.033333
0.797828 -0.229888 0.016667
0.798993 -0.231250 0.000000
0.799401 -0.232149 -0.016667
0.799554 -0.232675 -0.033333
0.789571 -0.214900 0.033333
0.791798 -0.215903 0.016667
0.793595 -0.216615 0.000000
0.794403 -0.217257 -0.016667
0.794873 -0.217650 -0.033333
0.784204 -0.201682 0.033333
0.786750 -0.201647 0.016667
0.788873 -0.202097 0.000000
0.789953 -0.202464 -0.016667
0.790554 -0.202645 -0.033333
0.780124 -0.187472 0.033333
0.782648 -0.187506 0.016667
0.784926 -0.187426 0.000000
0.786102 -0.187605 -0.016667
0.786747 -0.187746 -0.033333
0.776982 -0.173394 0.033333
0.779530 -0.172901 0.016667
0.781690 -0.172696 0.000000
0.782855 -0.172722 -0.016667
0.783512 -0.172750 -0.033333
0.774864 -0.158712 0.033333
0.777106 -0.158184 0.016667
0.779106 -0.157799 0.000000
0.780183 -0.157760 -0.016667
0.780765 -0.157754 -0.033333
0.773304 -0.143838 0.033333
0.775276 -0.143231 0.016667
0.777010 -0.142829 0.000000
0.777968 -0.142741 -0.016667
0.778476 -0.142706 -0.033333
0.772117 -0.128705 0.033333
0.773771 -0.128171 0.016667
0.775269 -0.127780 0.000000
0.776103 -0.127678 -0.016667
0.776522 -0.127639 -0.033333
0.771020 -0.113480 0.033333
0.772452 -0.113030 0.016667
0.773743 -0.112690 0.000000
0.774469 -0.112588 -0.016667
0.774825 -0.112550 -0.033333
0.769940 -0.098223 0.033333
0.771191 -0.097850 0.016667
0.772336 -0.097573 0.000000
0.772986 -0.097483 -0.016667
0.773287 -0.097447 -0.033333
0.768802 -0.082945 0.033333
0.769938 -0.082664 0.016667
0.770983 -0.082442 0.000000
0.771582 -0.082366 -0.016667
0.771852 -0.082340 -0.033333
0.767597 -0.067690 0.033333
0.768661 -0.067469 0.016667
0.769647 -0.067304 0.000000
0.770218 -0.067248 -0.016667
0.770468 -0.067228 -0.033333
0.766326 -0.052437 0.033333
0.767347 -0.052283 0.016667
0.768304 -0.052165 0.000000
0.768864 -0.052128 -0.016667
0.769107 -0.052118 -0.033333
0.764987 -0.037206 0.033333
0.765995 -0.037102 0.016667
0.766944 -0.037031 0.000000
0.767506 -0.037014 -0.016667
0.767747 -0.037012 -0.033333
0.763590 -0.021987 0.033333
0.764602 -0.021936 0.016667
0.765562 -0.021907 0.000000
0.766135 -0.021909 -0.016667
0.766380 -0.021917 -0.033333
0.762135 -0.006792 0.033333
0.763170 -0.006787 0.016667
0.764156 -0.006799 0.000000
0.764747 -0.006821 -0.016667
0.764999 -0.006836 -0.033333
0.760627 0.008380 0.033333
0.761702 0.008338 0.016667
0.762728 0.008287 0.000000
0.763342 0.008247 -0.016667
0.763604 0.008225 -0.033333
0.759067 0.023522 0.033333
0.760201 0.023434 0.016667
0.761281 0.023345 0.000000
0.761924 0.023288 -0.016667
0.762197 0.023260 -0.033333
0.757459 0.038628 0.033333
0.758671 0.038496 0.016667
0.759819 0.038369 0.000000
0.760498 0.038298 -0.016667
0.760783 0.038266 -0.033333
0.755805 0.053698 0.033333
0.757116 0.053517 0.016667
0.758351 0.053354 0.000000
0.759072 0.053272 -0.016667
0.759373 0.053238 -0.033333
0.754113 0.068719 0.033333
0.755548 0.068492 0.016667
0.756889 0.068295 0.000000
0.757659 0.068206 -0.016667
0.757979 0.068174 -0.033333
0.752391 0.083695 0.033333
0.753978 0.083419 0.016667
0.755449 0.083188 0.000000
0.756278 0.083099 -0.016667
0.756621 0.083072 -0.033333
0.750657 0.098611 0.033333
0.752431 0.098287 0.016667
0.754057 0.098031 0.000000
0.754957 0.097950 -0.016667
0.755329 0.097933 -0.033333
0.748947 0.113470 0.033333
0.750939 0.113101 0.016667
0.752753 0.112822 0.000000
0.753733 0.112760 -0.016667
0.754140 0.112759 -0.033333
0.747309 0.128254 0.033333
0.749569 0.127843 0.016667
0.751590 0.127564 0.000000
0.752660 0.127532 -0.016667
0.753108 0.127555 -0.033333
0.745855 0.142946 0.033333
0.748388 0.142529 0.016667
0.750650 0.142249 0.000000
0.751808 0.142269 -0.016667
0.752297 0.142323 -0.033333
0.744700 0.157540 0.033333
0.747542 0.157097 0.016667
0.750025 0.156884 0.000000
0.751259 0.156971 -0.016667
0.751788 0.157060 -0.033333
0.744073 0.171931 0.033333
0.747161 0.171595 0.016667
0.749834 0.171447 0.000000
0.751116 0.171624 -0.016667
0.751661 0.171779 -0.033333
0.744143 0.186199 0.033333
0.747422 0.185891 0.016667
0.750211 0.185922 0.000000
0.751461 0.186241 -0.016667
0.752002 0.186444 -0.033333
0.745086 0.200076 0.033333
0.748481 0.200066 0.016667
0.751213 0.200315 0.000000
0.752388 0.200761 -0.016667
0.752867 0.201090 -0.033333
0.747120 0.213716 0.033333
0.750335 0.213993 0.016667
0.752974 0.214519 0.000000
0.753917 0.215243 -0.016667
0.754257 0.215679 -0.033333
0.750056 0.227122 0.033333
0.753221 0.227605 0.016667
0.755399 0.228714 0.000000
0.756032 0.229646 -0.016667
0.756192 0.230208 -0.033333
0.754326 0.239857 0.033333
0.756909 0.241325 0.016667
0.758559 0.242695 0.000000
0.758668 0.244008 -0.016667
0.758498 0.244843 -0.033333
0.759564 0.253254 0.033333
0.761433 0.254803 0.016667
0.762226 0.256915 0.000000
0.761684 0.258484 -0.016667
0.760994 0.259446 -0.033333
0.766722 0.267053 0.033333
0.767315 0.269065 0.016667
0.766450 0.271303 0.000000
0.764689 0.273222 -0.016667
0.763410 0.274288 -0.033333
0.772778 0.282276 0.033333
0.771986 0.284244 0.016667
0.769878 0.286473 0.000000
0.767143 0.288229 -0.016667
0.765214 0.289362 -0.033333
0.777100 0.298285 0.033333
0.775346 0.299974 0.016667
0.772107 0.301917 0.000000
0.768500 0.303621 -0.016667
0.766071 0.304633 -0.033333
0.779002 0.314882 0.033333
0.776497 0.316177 0.016667
0.772625 0.317733 0.000000
0.768456 0.319146 -0.016667
0.765600 0.320062 -0.033333
0.778685 0.331579 0.033333
0.775902 0.332361 0.016667
0.771467 0.333460 0.000000
0.766672 0.334670 -0.016667
0.763630 0.335470 -0.033333
0.775111 0.347562 0.033333
0.772232 0.347885 0.016667
0.767862 0.348695 0.000000
0.763133 0.349915 -0.016667
0.759993 0.350640 -0.033333
0.768992 0.362525 0.033333
0.766641 0.362474 0.016667
0.762439 0.363162 0.000000
0.757454 0.364368 -0.016667
0.754902 0.365668 -0.033333
0.758096 0.373502 0.033333
0.755996 0.372244 0.016667
0.753028 0.373951 0.000000
0.750050 0.378673 -0.016667
0.748518 0.380135 -0.033333
0.741388 0.386175 0.033333
0.739684 0.385059 0.016667
0.738295 0.386855 0.000000
0.740716 0.391919 -0.016667
0.741841 0.395283 -0.033333
0.766871 -0.518905 0.033333
0.769651 -0.525300 0.016667
0.771548 -0.525716 0.000000
0.775966 -0.528769 -0.016667
0.778180 -0.529910 -0.033333
0.779194 -0.518371 0.033333
0.783799 -0.516338 0.016667
0.784764 -0.515247 0.000000
0.786208 -0.515574 -0.016667
0.786955 -0.515443 -0.033333
0.796651 -0.507873 0.033333
0.796728 -0.504961 0.016667
0.796187 -0.502847 0.000000
0.795795 -0.501393 -0.016667
0.795957 -0.500869 -0.033333
0.810482 -0.493474 0.033333
0.808543 -0.490693 0.016667
0.806406 -0.488149 0.000000
0.805111 -0.486632 -0.016667
0.804374 -0.485763 -0.033333
0.821844 -0.476847 0.033333
0.818727 -0.474543 0.016667
0.815581 -0.472385 0.000000
0.813428 -0.470862 -0.016667
0.812275 -0.470036 -0.033333
0.830601 -0.458936 0.033333
0.827010 -0.457253 0.016667
0.823371 -0.455549 0.000000
0.820804 -0.454339 -0.016667
0.819304 -0.453632 -0.033333
0.837555 -0.440360 0.033333
0.833748 -0.439214 0.016667
0.829841 -0.438031 0.000000
0.827005 -0.437143 -0.016667
0.825349 -0.436622 -0.033333
0.842655 -0.421395 0.033333
0.838886 -0.420718 0.016667
0.834954 -0.419992 0.000000
0.832027 -0.419442 -0.016667
0.830283 -0.419117 -0.033333
0.846313 -0.402199 0.033333
0.842635 -0.401921 0.016667
0.838746 -0.401619 0.000000
0.835813 -0.401384 -0.016667
0.834056 -0.401247 -0.033333
0.848471 -0.382920 0.033333
0.844980 -0.382987 0.016667
0.841241 -0.383053 0.000000
0.838371 -0.383108 -0.016667
0.836640 -0.383151 -0.033333
0.849311 -0.363646 0.033333
0.846021 -0.364020 0.016667
0.842464 -0.364430 0.000000
0.839709 -0.364757 -0.016667
0.838038 -0.364964 -0.033333
0.848783 -0.344501 0.033333
0.845759 -0.345161 0.016667
0.842453 -0.345882 0.000000
0.839857 -0.346458 -0.016667
0.838277 -0.346824 -0.033333
0.846972 -0.325608 0.033333
0.844253 -0.326523 0.016667
0.841248 -0.327538 0.000000
0.838864 -0.328350 -0.016667
0.837407 -0.328856 -0.033333
0.843859 -0.307099 0.033333
0.841531 -0.308261 0.016667
0.838918 -0.309535 0.000000
0.836801 -0.310547 -0.016667
0.835504 -0.311184 -0.033333
0.839521 -0.289169 0.033333
0.837684 -0.290511 0.016667
0.835551 -0.291995 0.000000
0.833774 -0.293177 -0.016667
0.832681 -0.293905 -0.033333
0.834051 -0.271957 0.033333
0.832808 -0.273428 0.016667
0.831290 -0.275045 0.000000
0.829926 -0.276313 -0.016667
0.829082 -0.277103 -0.033333
0.827630 -0.255683 0.033333
0.827132 -0.257130 0.016667
0.826316 -0.258731 0.000000
0.825450 -0.260023 -0.016667
0.824907 -0.260802 -0.033333
0.820635 -0.240354 0.033333
0.820892 -0.241637 0.016667
0.820906 -0.243115 0.000000
0.820594 -0.244274 -0.016667
0.820363 -0.244989 -0.033333
0.813568 -0.225887 0.033333
0.814644 -0.226919 0.016667
0.815420 -0.228018 0.000000
0.815642 -0.228993 -0.016667
0.815746 -0.229594 -0.033333
0.807293 -0.212012 0.033333
0.808884 -0.212499 0.016667
0.810282 -0.213328 0.000000
0.810937 -0.214036 -0.016667
0.811257 -0.214459 -0.033333
0.801902 -0.197903 0.033333
0.803955 -0.198381 0.016667
0.805744 -0.198750 0.000000
0.806655 -0.199216 -0.016667
0.807150 -0.199566 -0.033333
0.797667 -0.184192 0.033333
0.799918 -0.184027 0.016667
0.801891 -0.184229 0.000000
0.802942 -0.184513 -0.016667
0.803504 -0.184680 -0.033333
0.794507 -0.169833 0.033333
0.796736 -0.169723 0.016667
0.798739 -0.169635 0.000000
0.799806 -0.169767 -0.016667
0.800368 -0.169898 -0.033333
0.792206 -0.155509 0.033333
0.794322 -0.155163 0.016667
0.796184 -0.154998 0.000000
0.797198 -0.155021 -0.016667
0.797726 -0.155061 -0.033333
0.790545 -0.140874 0.033333
0.792426 -0.140524 0.016667
0.794113 -0.140262 0.000000
0.795028 -0.140219 -0.016667
0.795490 -0.140227 -0.033333
0.789223 -0.126119 0.033333
0.790886 -0.125740 0.016667
0.792367 -0.125460 0.000000
0.793181 -0.125372 -0.016667
0.793581 -0.125349 -0.033333
0.788069 -0.111209 0.033333
0.789519 -0.110859 0.016667
0.790831 -0.110580 0.000000
0.791557 -0.110475 -0.016667
0.791899 -0.110439 -0.033333
0.786936 -0.096193 0.033333
0.788232 -0.095891 0.016667
0.789410 -0.095639 0.000000
0.790070 -0.095531 -0.016667
0.790372 -0.095492 -0.033333
0.785778 -0.081115 0.033333
0.786958 -0.080857 0.016667
0.788044 -0.080644 0.000000
0.788662 -0.080549 -0.016667
0.788937 -0.080511 -0.033333
0.784564 -0.065982 0.033333
0.785670 -0.065782 0.016667
0.786698 -0.065611 0.000000
0.787293 -0.065533 -0.016667
0.787554 -0.065505 -0.033333
0.783291 -0.050832 0.033333
0.784355 -0.050678 0.016667
0.785353 -0.050552 0.000000
0.785940 -0.050497 -0.016667
0.786195 -0.050478 -0.033333
0.781962 -0.035667 0.033333
0.783008 -0.035564 0.016667
0.783998 -0.035481 0.000000
0.784588 -0.035450 -0.016667
0.784844 -0.035444 -0.033333
0.780580 -0.020512 0.033333
0.781630 -0.020450 0.016667
0.782630 -0.020410 0.000000
0.783231 -0.020404 -0.016667
0.783491 -0.020409 -0.033333
0.779150 -0.005369 0.033333
0.780222 -0.005352 0.016667
0.781247 -0.005351 0.000000
0.781866 -0.005369 -0.016667
0.782133 -0.005386 -0.033333
0.777676 0.009745 0.033333
0.778788 0.009723 0.016667
0.779852 0.009685 0.000000
0.780494 0.009645 -0.016667
0.780769 0.009617 -0.033333
0.776161 0.024822 0.033333
0.777330 0.024761 0.016667
0.778448 0.024687 0.000000
0.779117 0.024626 -0.016667
0.779402 0.024589 -0.033333
0.774610 0.039851 0.033333
0.775856 0.039752 0.016667
0.777040 0.039643 0.000000
0.777743 0.039565 -0.016667
0.778039 0.039521 -0.033333
0.773027 0.054816 0.033333
0.774370 0.054682 0.016667
0.775638 0.054543 0.000000
0.776379 0.054452 -0.016667
0.776688 0.054404 -0.033333
0.771421 0.069710 0.033333
0.772884 0.069542 0.016667
0.774253 0.069376 0.000000
0.775039 0.069277 -0.016667
0.775361 0.069231 -0.033333
0.769805 0.084510 0.033333
0.771413 0.084314 0.016667
0.772903 0.084131 0.000000
0.773739 0.084034 -0.016667
0.774078 0.083994 -0.033333
0.768199 0.099208 0.033333
0.769979 0.098990 0.016667
0.771612 0.098798 0.000000
0.772505 0.098715 -0.016667
0.772865 0.098691 -0.033333
0.766635 0.113781 0.033333
0.768620 0.113551 0.016667
0.770414 0.113372 0.000000
0.771373 0.113318 -0.016667
0.771756 0.113319 -0.033333
0.765175 0.128221 0.033333
0.767383 0.128003 0.016667
0.769363 0.127847 0.000000
0.770389 0.127844 -0.016667
0.770798 0.127882 -0.033333
0.763899 0.142521 0.033333
0.766356 0.142317 0.016667
0.768525 0.142229 0.000000
0.769617 0.142299 -0.016667
0.770052 0.142385 -0.033333
0.762946 0.156665 0.033333
0.765640 0.156538 0.016667
0.767992 0.156524 0.000000
0.769137 0.156688 -0.016667
0.769587 0.156847 -0.033333
0.762486 0.170706 0.033333
0.765383 0.170616 0.016667
0.767877 0.170740 0.000000
0.769034 0.171040 -0.016667
0.769488 0.171265 -0.033333
0.762714 0.184552 0.033333
0.765749 0.184636 0.016667
0.768286 0.184909 0.000000
0.769409 0.185339 -0.016667
0.769828 0.185683 -0.033333
0.763866 0.198347 0.033333
0.766861 0.198522 0.016667
0.769343 0.198995 0.000000
0.770325 0.199647 -0.016667
0.770661 0.200091 -0.033333
0.766006 0.211948 0.033333
0.768879 0.212324 0.016667
0.771068 0.213116 0.000000
0.771820 0.213951 -0.016667
0.772023 0.214514 -0.033333
0.769289 0.225302 0.033333
0.771720 0.226165 0.016667
0.773502 0.227179 0.000000
0.773876 0.228286 -0.016667
0.773840 0.229071 -0.033333
0.773486 0.239045 0.033333
0.775397 0.239934 0.016667
0.776516 0.241440 0.000000
0.776387 0.242801 -0.016667
0.776020 0.243655 -0.033333
0.778504 0.252629 0.033333
0.779735 0.254078 0.016667
0.779991 0.255828 0.000000
0.779130 0.257512 -0.016667
0.778354 0.258574 -0.033333
0.784258 0.267188 0.033333
0.784434 0.268793 0.016667
0.783557 0.270860 0.000000
0.781821 0.272602 -0.016667
0.780473 0.273747 -0.033333
0.789301 0.282721 0.033333
0.788550 0.284368 0.016667
0.786522 0.286389 0.000000
0.783887 0.288216 -0.016667
0.782039 0.289325 -0.033333
0.792712 0.299482 0.033333
0.791100 0.300950 0.016667
0.788256 0.302720 0.000000
0.784945 0.304241 -0.016667
0.782610 0.305270 -0.033333
0.794329 0.316884 0.033333
0.792204 0.317973 0.016667
0.788598 0.319350 0.000000
0.784585 0.320651 -0.016667
0.781933 0.321451 -0.033333
0.793266 0.334713 0.033333
0.790767 0.335416 0.016667
0.786911 0.336292 0.000000
0.782685 0.337098 -0.016667
0.779737 0.337675 -0.033333
0.790053 0.352185 0.033333
0.787741 0.352463 0.016667
0.783638 0.352836 0.000000
0.778879 0.353306 -0.016667
0.776034 0.353710 -0.033333
0.783029 0.368333 0.033333
0.780859 0.368321 0.016667
0.777405 0.368508 0.000000
0.773452 0.368936 -0.016667
0.770737 0.369189 -0.033333
0.774106 0.382341 0.033333
0.772982 0.382397 0.016667
0.770034 0.382867 0.000000
0.765936 0.383074 -0.016667
0.764381 0.384489 -0.033333
0.759699 0.389257 0.033333
0.758928 0.387239 0.016667
0.757691 0.389440 0.000000
0.757090 0.397063 -0.016667
0.757326 0.398871 -0.033333
CELLS 34596 311364
8 5534 15419 15424 5535 5473 15724 15729 5474
8 5537 15434 15439 5538 5476 15739 15744 5477
8 5531 15404 15409 5532 5470 15709 15714 5471
8 5532 15409 15414 5533 5471 15714 15719 5472
8 5536 15429 15434 5537 5475 15734 15739 5476
8 5533 15414 15419 5534 5472 15719 15724 5473
8 5538 15439 15444 5539 5477 15744 15749 5478
8 5535 15424 15429 5536 5474 15729 15734 5475
8 5541 15454 15459 5542 5480 15759 15764 5481
8 5539 15444 15449 5540 5478 15749 15754 5479
8 5543 15464 15469 5544 5482 15769 15774 5483
8 5540 15449 15454 5541 5479 15754 15759 5480
8 5542 15459 15464 5543 5481 15764 15769 5482
8 5544 15469 15474 5545 5483 15774 15779 5484
8 5515 15324 15329 5516 5454 15629 15634 5455
8 5516 15329 15334 5517 5455 15634 15639 5456
8 5517 15334 15339 5518 5456 15639 15644 5457
8 5518 15339 15344 5519 5457 15644 15649 5458
8 5529 15394 15399 5530 5468 15699 15704 5469
8 5519 15344 15349 5520 5458 15649 15654 5459
8 5527 15384 15389 5528 5466 15689 15694 5467
8 5528 15389 15394 5529 5467 15694 15699 5468
8 5530 15399 15404 5531 5469 15704 15709 5470
8 5454 15629 15634 5455 5393 15934 15939 5394
8 5455 15634 15639 5456 5394 15939 15944 5395
8 5456 15639 15644 5457 5395 15944 15949 5396
8 5457 15644 15649 5458 5396 15949 15954 5397
8 5458 15649 15654 5459 5397 15954 15959 5398
8 5469 15704 15709 5470 5408 16009 16014 5409
8 5467 15694 15699 5468 5406 15999 16004 5407
8 5468 15699 15704 5469 5407 16004 16009 5408
8 5466 15689 15694 5467 5405 15994 15999 5406
8 5473 15724 15729 5474 5412 16029 16034 5413
8 5474 15729 15734 5475 5413 16034 16039 5414
8 5471 15714 15719 5472 5410 16019 16024 5411
8 5470 15709 15714 5471 5409 16014 16019 5410
8 5472 15719 15724 5473 5411 16024 16029 5412
8 5475 15734 15739 5476 5414 16039 16044 5415
8 5477 15744 15749 5478 5416 16049 16054 5417
8 5476 15739 15744 5477 5415 16044 16049 5416
8 5478 15749 15754 5479 5417 16054 16059 5418
8 5479 15754 15759 5480 5418 16059 16064 5419
8 5481 15764 15769 5482 5420 16069 16074 5421
8 5480 15759 15764 5481 5419 16064 16069 5420
8 5483 15774 15779 5484 5422 16079 16084 5423
8 5482 15769 15774 5483 5421 16074 16079 5422
8 5393 15934 15939 5394 5332 16239 16244 5333
8 5394 15939 15944 5395 5333 16244 16249 5334
8 5396 15949 15954 5397 5335 16254 16259 5336
8 5395 15944 15949 5396 5334 16249 16254 5335
8 5397 15954 15959 5398 5336 16259 16264 5337
8 5407 16004 16009 5408 5346 16309 16314 5347
8 5408 16009 16014 5409 5347 16314 16319 5348
8 5409 16014 16019 5410 5348 16319 16324 5349
8 5406 15999 16004 5407 5345 16304 16309 5346
8 5405 15994 15999 5406 5344 16299 16304 5345
8 5413 16034 16039 5414 5352 16339 16344 5353
8 5419 16064 16069 5420 5358 16369 16374 5359
8 5414 16039 16044 5415 5353 16344 16349 5354
8 5416 16049 16054 5417 5355 16354 16359 5356
8 5420 16069 16074 5421 5359 16374 16379 5360
8 5411 16024 16029 5412 5350 16329 16334 5351
8 5412 16029 16034 5413 5351 16334 16339 5352
8 5417 16054 16059 5418 5356 16359 16364 5357
8 5418 16059 16064 5419 5357 16364 16369 5358
8 5415 16044 16049 5416 5354 16349 16354 5355
8 5410 16019 16024 5411 5349 16324 16329 5350
8 5421 16074 16079 5422 5360 16379 16384 5361
8 5422 16079 16084 5423 5361 16384 16389 5362
8 5336 16259 16264 5337 5275 16564 16569 5276
8 5332 16239 16244 5333 5271 16544 16549 5272
8 5334 16249 16254 5335 5273 16554 16559 5274
8 5333 16244 16249 5334 5272 16549 16554 5273
8 5335 16254 16259 5336 5274 16559 16564 5275
8 5347 16314 16319 5348 5286 16619 16624 5287
8 5346 16309 16314 5347 5285 16614 16619 5286
8 5348 16319 16324 5349 5287 16624 16629 5288
8 5349 16324 16329 5350 5288 16629 16634 5289
8 5344 16299 16304 5345 5283 16604 16609 5284
8 5345 16304 16309 5346 5284 16609 16614 5285
8 5350 16329 16334 5351 5289 16634 16639 5290
8 5351 16334 16339 5352 5290 16639 16644 5291
8 5359 16374 16379 5360 5298 16679 16684 5299
8 5358 16369 16374 5359 5297 16674 16679 5298
8 5355 16354 16359 5356 5294 16659 16664 5295
8 5360 16379 16384 5361 5299 16684 16689 5300
8 5361 16384 16389 5362 5300 16689 16694 5301
8 5352 16339 16344 5353 5291 16644 16649 5292
8 5353 16344 16349 5354 5292 16649 16654 5293
8 5357 16364 16369 5358 5296 16669 16674 5297
8 5356 16359 16364 5357 5295 16664 16669 5296
8 5354 16349 16354 5355 5293 16654 16659 5294
8 5275 16564 16569 5276 5214 16869 16874 5215
8 5271 16544 16549 5272 5210 16849 16854 5211
8 5274 16559 16564 5275 5213 16864 16869 5214
8 5272 16549 16554 5273 5211 16854 16859 5212
8 5273 16554 16559 5274 5212 16859 16864 5213
8 5285 16614 16619 5286 5224 16919 16924 5225
8 5284 16609 16614 5285 5223 16914 16919 5224
8 5286 16619 16624 5287 5225 16924 16929 5226
8 5283 16604 16609 5284 5222 16909 16914 5223
8 5287 16624 16629 5288 5226 16929 16934 5227
8 5296 16669 16674 5297 5235 16974 16979 5236
8 5300 16689 16694 5301 5239 16994 16999 5240
8 5299 16684 16689 5300 5238 16989 16994 5239
8 5297 16674 16679 5298 5236 16979 16984 5237
8 5298 16679 16684 5299 5237 16984 16989 5238
8 5211 16854 16859 5212 5150 17159 17164 5151
8 5210 16849 16854 5211 5149 17154 17159 5150
8 5213 16864 16869 5214 5152 17169 17174 5153
8 5212 16859 16864 5213 5151 17164 17169 5152
8 5041 17834 17839 5042 4980 18139 18144 4981
8 5040 17829 17834 5041 4979 18134 18139 4980
8 5042 17839 17844 5043 4981 18144 18149 4982
8 5043 17844 17849 5044 4982 18149 18154 4983
8 5039 17824 17829 5040 4978 18129 18134 4979
8 5222 16909 16914 5223 5161 17214 17219 5162
8 5223 16914 16919 5224 5162 17219 17224 5163
8 5224 16919 16924 5225 5163 17224 17229 5164
8 5214 16869 16874 5215 5153 17174 17179 5154
8 5225 16924 16929 5226 5164 17229 17234 5165
8 5226 16929 16934 5227 5165 17234 17239 5166
8 5235 16974 16979 5236 5174 17279 17284 5175
8 5239 16994 16999 5240 5178 17299 17304 5179
8 5236 16979 16984 5237 5175 17284 17289 5176
8 5237 16984 16989 5238 5176 17289 17294 5177
8 5238 16989 16994 5239 5177 17294 17299 5178
8 5153 17174 17179 5154 5092 17479 17484 5093
8 5151 17164 17169 5152 5090 17469 17474 5091
8 5152 17169 17174 5153 5091 17474 17479 5092
8 5150 17159 17164 5151 5089 17464 17469 5090
8 5149 17154 17159 5150 5088 17459 17464 5089
8 5164 17229 17234 5165 5103 17534 17539 5104
8 5161 17214 17219 5162 5100 17519 17524 5101
8 5163 17224 17229 5164 5102 17529 17534 5103
8 5162 17219 17224 5163 5101 17524 17529 5102
8 5165 17234 17239 5166 5104 17539 17544 5105
8 5174 17279 17284 5175 5113 17584 17589 5114
8 5175 17284 17289 5176 5114 17589 17594 5115
8 5176 17289 17294 5177 5115 17594 17599 5116
8 5177 17294 17299 5178 5116 17599 17604 5117
8 5178 17299 17304 5179 5117 17604 17609 5118
8 5091 17474 17479 5092 5030 17779 17784 5031
8 5088 17459 17464 5089 5027 17764 17769 5028
8 5092 17479 17484 5093 5031 17784 17789 5032
8 5089 17464 17469 5090 5028 17769 17774 5029
8 5090 17469 17474 5091 5029 17774 17779 5030
8 5100 17519 17524 5101 5039 17824 17829 5040
8 5102 17529 17534 5103 5041 17834 17839 5042
8 5104 17539 17544 5105 5043 17844 17849 5044
8 5101 17524 17529 5102 5040 17829 17834 5041
8 5103 17534 17539 5104 5042 17839 17844 5043
8 5115 17594 17599 5116 5054 17899 17904 5055
8 5116 17599 17604 5117 5055 17904 17909 5056
8 5117 17604 17609 5118 5056 17909 17914 5057
8 5113 17584 17589 5114 5052 17889 17894 5053
8 5114 17589 17594 5115 5053 17894 17899 5054
8 5030 17779 17784 5031 4969 18084 18089 4970
8 5031 17784 17789 5032 4970 18089 18094 4971
8 5029 17774 17779 5030 4968 18079 18084 4969
8 5028 17769 17774 5029 4967 18074 18079 4968
8 5027 17764 17769 5028 4966 18069 18074 4967
8 5055 17904 17909 5056 4994 18209 18214 4995
8 5053 17894 17899 5054 4992 18199 18204 4993
8 5056 17909 17914 5057 4995 18214 18219 4996
8 5052 17889 17894 5053 4991 18194 18199 4992
8 5054 17899 17904 5055 4993 18204 18209 4994
8 4967 18074 18079 4968 4906 18379 18384 4907
8 4969 18084 18089 4970 4908 18389 18394 4909
8 4970 18089 18094 4971 4909 18394 18399 4910
8 4966 18069 18074 4967 4905 18374 18379 4906
8 4968 18079 18084 4969 4907 18384 18389 4908
8 4978 18129 18134 4979 4917 18434 18439 4918
8 4979 18134 18139 4980 4918 18439 18444 4919
8 4980 18139 18144 4981 4919 18444 18449 4920
8 4981 18144 18149 4982 4920 18449 18454 4921
8 4982 18149 18154 4983 4921 18454 18459 4922
8 4992 18199 18204 4993 4931 18504 18509 4932
8 4995 18214 18219 4996 4934 18519 18524 4935
8 4994 18209 18214 4995 4933 18514 18519 4934
8 4991 18194 18199 4992 4930 18499 18504 4931
8 4993 18204 18209 4994 4932 18509 18514 4933
8 4905 18374 18379 4906 4844 18679 18684 4845
8 4906 18379 18384 4907 4845 18684 18689 4846
8 4908 18389 18394 4909 4847 18694 18699 4848
8 4909 18394 18399 4910 4848 18699 18704 4849
8 4907 18384 18389 4908 4846 18689 18694 4847
8 4921 18454 18459 4922 4860 18759 18764 4861
8 4920 18449 18454 4921 4859 18754 18759 4860
8 4919 18444 18449 4920 4858 18749 18754 4859
8 4918 18439 18444 4919 4857 18744 18749 4858
8 4917 18434 18439 4918 4856 18739 18744 4857
8 4934 18519 18524 4935 4873 18824 18829 4874
8 4932 18509 18514 4933 4871 18814 18819 4872
8 4931 18504 18509 4932 4870 18809 18814 4871
8 4933 18514 18519 4934 4872 18819 18824 4873
8 4930 18499 18504 4931 4869 18804 18809 4870
8 4846 18689 18694 4847 4785 18994 18999 4786
8 4847 18694 18699 4848 4786 18999 19004 4787
8 4844 18679 18684 4845 4783 18984 18989 4784
8 4845 18684 18689 4846 4784 18989 18994 4785
8 4857 18744 18749 4858 4796 19049 19054 4797
8 4848 18699 18704 4849 4787 19004 19009 4788
8 4856 18739 18744 4857 4795 19044 19049 4796
8 4859 18754 18759 4860 4798 19059 19064 4799
8 4860 18759 18764 4861 4799 19064 19069 4800
8 4858 18749 18754 4859 4797 19054 19059 4798
8 4873 18824 18829 4874 4812 19129 19134 4813
8 4870 18809 18814 4871 4809 19114 19119 4810
8 4869 18804 18809 4870 4808 19109 19114 4809
8 4871 18814 18819 4872 4810 19119 19124 4811
8 4872 18819 18824 4873 4811 19124 19129 4812
8 4785 18994 18999 4786 4724 19299 19304 4725
8 4784 18989 18994 4785 4723 19294 19299 4724
8 4786 18999 19004 4787 4725 19304 19309 4726
8 4783 18984 18989 4784 4722 19289 19294 4723
8 4796 19049 19054 4797 4735 19354 19359 4736
8 4787 19004 19009 4788 4726 19309 19314 4727
8 4795 19044 19049 4796 4734 19349 19354 4735
8 4798 19059 19064 4799 4737 19364 19369 4738
8 4799 19064 19069 4800 4738 19369 19374 4739
8 4797 19054 19059 4798 4736 19359 19364 4737
8 4809 19114 19119 4810 4748 19419 19424 4749
8 4808 19109 19114 4809 4747 19414 19419 4748
8 4812 19129 19134 4813 4751 19434 19439 4752
8 4811 19124 19129 4812 4750 19429 19434 4751
8 4810 19119 19124 4811 4749 19424 19429 4750
8 4722 19289 19294 4723 4661 19594 19599 4662
8 4724 19299 19304 4725 4663 19604 19609 4664
8 4726 19309 19314 4727 4665 19614 19619 4666
8 4725 19304 19309 4726 4664 19609 19614 4665
8 4723 19294 19299 4724 4662 19599 19604 4663
8 4737 19364 19369 4738 4676 19669 19674 4677
8 4734 19349 19354 4735 4673 19654 19659 4674
8 4735 19354 19359 4736 4674 19659 19664 4675
8 4736 19359 19364 4737 4675 19664 19669 4676
8 4747 19414 19419 4748 4686 19719 19724 4687
8 4748 19419 19424 4749 4687 19724 19729 4688
8 4738 19369 19374 4739 4677 19674 19679 4678
8 4751 19434 19439 4752 4690 19739 19744 4691
8 4749 19424 19429 4750 4688 19729 19734 4689
8 4750 19429 19434 4751 4689 19734 19739 4690
8 4664 19609 19614 4665 4603 19914 19919 4604
8 4661 19594 19599 4662 4600 19899 19904 4601
8 4662 19599 19604 4663 4601 19904 19909 4602
8 4665 19614 19619 4666 4604 19919 19924 4605
8 4663 19604 19609 4664 4602 19909 19914 4603
8 4677 19674 19679 4678 4616 19979 19984 4617
8 4675 19664 19669 4676 4614 19969 19974 4615
8 4676 19669 19674 4677 4615 19974 19979 4616
8 4673 19654 19659 4674 4612 19959 19964 4613
8 4674 19659 19664 4675 4613 19964 19969 4614
8 4688 19729 19734 4689 4627 20034 20039 4628
8 4689 19734 19739 4690 4628 20039 20044 4629
8 4686 19719 19724 4687 4625 20024 20029 4626
8 4687 19724 19729 4688 4626 20029 20034 4627
8 4690 19739 19744 4691 4629 20044 20049 4630
8 4604 19919 19924 4605 4543 20224 20229 4544
8 4600 19899 19904 4601 4539 20204 20209 4540
8 4602 19909 19914 4603 4541 20214 20219 4542
8 4601 19904 19909 4602 4540 20209 20214 4541
8 4603 19914 19919 4604 4542 20219 20224 4543
8 4616 19979 19984 4617 4555 20284 20289 4556
8 4614 19969 19974 4615 4553 20274 20279 4554
8 4615 19974 19979 4616 4554 20279 20284 4555
8 4612 19959 19964 4613 4551 20264 20269 4552
8 4613 19964 19969 4614 4552 20269 20274 4553
8 4625 20024 20029 4626 4564 20329 20334 4565
8 4628 20039 20044 4629 4567 20344 20349 4568
8 4627 20034 20039 4628 4566 20339 20344 4567
8 4626 20029 20034 4627 4565 20334 20339 4566
8 4629 20044 20049 4630 4568 20349 20354 4569
8 4543 20224 20229 4544 4482 20529 20534 4483
8 4545 20234 20239 4546 4484 20539 20544 4485
8 4541 20214 20219 4542 4480 20519 20524 4481
8 4546 20239 20244 4547 4485 20544 20549 4486
8 4547 20244 20249 4548 4486 20549 20554 4487
8 4539 20204 20209 4540 4478 20509 20514 4479
8 4540 20209 20214 4541 4479 20514 20519 4480
8 4544 20229 20234 4545 4483 20534 20539 4484
8 4548 20249 20254 4549 4487 20554 20559 4488
8 4542 20219 20224 4543 4481 20524 20529 4482
8 4553 20274 20279 4554 4492 20579 20584 4493
8 4554 20279 20284 4555 4493 20584 20589 4494
8 4549 20254 20259 4550 4488 20559 20564 4489
8 4551 20264 20269 4552 4490 20569 20574 4491
8 4550 20259 20264 4551 4489 20564 20569 4490
8 4552 20269 20274 4553 4491 20574 20579 4492
8 4555 20284 20289 4556 4494 20589 20594 4495
8 4566 20339 20344 4567 4505 20644 20649 4506
8 4565 20334 20339 4566 4504 20639 20644 4505
8 4567 20344 20349 4568 4506 20649 20654 4507
8 4568 20349 20354 4569 4507 20654 20659 4508
8 4564 20329 20334 4565 4503 20634 20639 4504
8 4478 20509 20514 4479 4417 20814 20819 4418
8 4487 20554 20559 4488 4426 20859 20864 4427
8 4486 20549 20554 4487 4425 20854 20859 4426
8 4483 20534 20539 4484 4422 20839 20844 4423
8 4479 20514 20519 4480 4418 20819 20824 4419
8 4480 20519 20524 4481 4419 20824 20829 4420
8 4484 20539 20544 4485 4423 20844 20849 4424
8 4485 20544 20549 4486 4424 20849 20854 4425
8 4488 20559 20564 4489 4427 20864 20869 4428
8 4489 20564 20569 4490 4428 20869 20874 4429
8 4481 20524 20529 4482 4420 20829 20834 4421
8 4482 20529 20534 4483 4421 20834 20839 4422
8 4490 20569 20574 4491 4429 20874 20879 4430
8 4492 20579 20584 4493 4431 20884 20889 4432
8 4491 20574 20579 4492 4430 20879 20884 4431
8 4493 20584 20589 4494 4432 20889 20894 4433
8 4494 20589 20594 4495 4433 20894 20899 4434
8 4506 20649 20654 4507 4445 20954 20959 4446
8 4503 20634 20639 4504 4442 20939 20944 4443
8 4504 20639 20644 4505 4443 20944 20949 4444
8 4505 20644 20649 4506 4444 20949 20954 4445
8 4507 20654 20659 4508 4446 20959 20964 4447
8 4417 20814 20819 4418 4356 21119 21124 4357
8 4420 20829 20834 4421 4359 21134 21139 4360
8 4421 20834 20839 4422 4360 21139 21144 4361
8 4418 20819 20824 4419 4357 21124 21129 4358
8 4422 20839 20844 4423 4361 21144 21149 4362
8 4423 20844 20849 4424 4362 21149 21154 4363
8 4419 20824 20829 4420 4358 21129 21134 4359
8 4430 20879 20884 4431 4369 21184 21189 4370
8 4424 20849 20854 4425 4363 21154 21159 4364
8 4429 20874 20879 4430 4368 21179 21184 4369
8 4433 20894 20899 4434 4372 21199 21204 4373
8 4426 20859 20864 4427 4365 21164 21169 4366
8 4431 20884 20889 4432 4370 21189 21194 4371
8 4427 20864 20869 4428 4366 21169 21174 4367
8 4428 20869 20874 4429 4367 21174 21179 4368
8 4432 20889 20894 4433 4371 21194 21199 4372
8 4425 20854 20859 4426 4364 21159 21164 4365
8 4442 20939 20944 4443 4381 21244 21249 4382
8 4443 20944 20949 4444 4382 21249 21254 4383
8 4444 20949 20954 4445 4383 21254 21259 4384
8 4445 20954 20959 4446 4384 21259 21264 4385
8 4446 20959 20964 4447 4385 21264 21269 4386
8 4362 21149 21154 4363 4301 21454 21459 4302
8 4356 21119 21124 4357 4295 21424 21429 4296
8 4357 21124 21129 4358 4296 21429 21434 4297
8 4364 21159 21164 4365 4303 21464 21469 4304
8 4359 21134 21139 4360 4298 21439 21444 4299
8 4363 21154 21159 4364 4302 21459 21464 4303
8 4360 21139 21144 4361 4299 21444 21449 4300
8 4361 21144 21149 4362 4300 21449 21454 4301
8 4358 21129 21134 4359 4297 21434 21439 4298
8 4371 21194 21199 4372 4310 21499 21504 4311
8 4372 21199 21204 4373 4311 21504 21509 4312
8 4366 21169 21174 4367 4305 21474 21479 4306
8 4367 21174 21179 4368 4306 21479 21484 4307
8 4368 21179 21184 4369 4307 21484 21489 4308
8 4369 21184 21189 4370 4308 21489 21494 4309
8 4365 21164 21169 4366 4304 21469 21474 4305
8 4370 21189 21194 4371 4309 21494 21499 4310
8 4381 21244 21249 4382 4320 21549 21554 4321
8 4384 21259 21264 4385 4323 21564 21569 4324
8 4382 21249 21254 4383 4321 21554 21559 4322
8 4383 21254 21259 4384 4322 21559 21564 4323
8 4385 21264 21269 4386 4324 21569 21574 4325
8 4295 21424 21429 4296 4234 21729 21734 4235
8 4304 21469 21474 4305 4243 21774 21779 4244
8 4296 21429 21434 4297 4235 21734 21739 4236
8 4301 21454 21459 4302 4240 21759 21764 4241
8 4299 21444 21449 4300 4238 21749 21754 4239
8 4298 21439 21444 4299 4237 21744 21749 4238
8 4297 21434 21439 4298 4236 21739 21744 4237
8 4300 21449 21454 4301 4239 21754 21759 4240
8 4305 21474 21479 4306 4244 21779 21784 4245
8 4302 21459 21464 4303 4241 21764 21769 4242
8 4303 21464 21469 4304 4242 21769 21774 4243
8 4310 21499 21504 4311 4249 21804 21809 4250
8 4307 21484 21489 4308 4246 21789 21794 4247
8 4309 21494 21499 4310 4248 21799 21804 4249
8 4308 21489 21494 4309 4247 21794 21799 4248
8 4311 21504 21509 4312 4250 21809 21814 4251
8 4306 21479 21484 4307 4245 21784 21789 4246
8 4323 21564 21569 4324 4262 21869 21874 4263
8 4322 21559 21564 4323 4261 21864 21869 4262
8 4320 21549 21554 4321 4259 21854 21859 4260
8 4324 21569 21574 4325 4263 21874 21879 4264
8 4321 21554 21559 4322 4260 21859 21864 4261
8 5868 13429 13434 5869 5807 13734 13739 5808
8 3016 27839 27844 3017 2955 28144 28149 2956
8 3017 27844 27849 3018 2956 28149 28154 2957
8 3014 27829 27834 3015 2953 28134 28139 2954
8 3015 27834 27839 3016 2954 28139 28144 2955
8 3018 27849 27854 3019 2957 28154 28159 2958
8 3036 27939 27944 3037 2975 28244 28249 2976
8 3037 27944 27949 3038 2976 28249 28254 2977
8 3035 27934 27939 3036 2974 28239 28244 2975
8 3038 27949 27954 3039 2977 28254 28259 2978
8 3041 27964 27969 3042 2980 28269 28274 2981
8 3040 27959 27964 3041 2979 28264 28269 2980
8 3043 27974 27979 3044 2982 28279 28284 2983
8 3042 27969 27974 3043 2981 28274 28279 2982
8 3039 27954 27959 3040 2978 28259 28264 2979
8 3044 27979 27984 3045 2983 28284 28289 2984
8 4115 22354 22359 4116 4054 22659 22664 4055
8 4116 22359 22364 4117 4055 22664 22669 4056
8 4114 22349 22354 4115 4053 22654 22659 4054
8 4112 22339 22344 4113 4051 22644 22649 4052
8 4113 22344 22349 4114 4052 22649 22654 4053
8 4121 22384 22389 4122 4060 22689 22694 4061
8 4122 22389 22394 4123 4061 22694 22699 4062
8 4126 22409 22414 4127 4065 22714 22719 4066
8 4123 22394 22399 4124 4062 22699 22704 4063
8 4124 22399 22404 4125 4063 22704 22709 4064
8 4125 22404 22409 4126 4064 22709 22714 4065
8 4118 22369 22374 4119 4057 22674 22679 4058
8 4119 22374 22379 4120 4058 22679 22684 4059
8 4120 22379 22384 4121 4059 22684 22689 4060
8 4117 22364 22369 4118 4056 22669 22674 4057
8 4135 22454 22459 4136 4074 22759 22764 4075
8 4132 22439 22444 4133 4071 22744 22749 4072
8 4128 22419 22424 4129 4067 22724 22729 4068
8 4134 22449 22454 4135 4073 22754 22759 4074
8 4136 22459 22464 4137 4075 22764 22769 4076
8 4137 22464 22469 4138 4076 22769 22774 4077
8 4131 22434 22439 4132 4070 22739 22744 4071
8 4133 22444 22449 4134 4072 22749 22754 4073
8 4129 22424 22429 4130 4068 22729 22734 4069
8 4127 22414 22419 4128 4066 22719 22724 4067
8 4130 22429 22434 4131 4069 22734 22739 4070
8 4138 22469 22474 4139 4077 22774 22779 4078
8 4139 22474 22479 4140 4078 22779 22784 4079
8 4141 22484 22489 4142 4080 22789 22794 4081
8 4140 22479 22484 4141 4079 22784 22789 4080
8 4142 22489 22494 4143 4081 22794 22799 4082
8 4052 22649 22654 4053 3991 22954 22959 3992
8 4051 22644 22649 4052 3990 22949 22954 3991
8 4057 22674 22679 4058 3996 22979 22984 3997
8 4056 22669 22674 4057 3995 22974 22979 3996
8 4055 22664 22669 4056 3994 22969 22974 3995
8 4054 22659 22664 4055 3993 22964 22969 3994
8 4053 22654 22659 4054 3992 22959 22964 3993
8 4064 22709 22714 4065 4003 23014 23019 4004
8 4059 22684 22689 4060 3998 22989 22994 3999
8 4065 22714 22719 4066 4004 23019 23024 4005
8 4067 22724 22729 4068 4006 23029 23034 4007
8 4063 22704 22709 4064 4002 23009 23014 4003
8 4062 22699 22704 4063 4001 23004 23009 4002
8 4058 22679 22684 4059 3997 22984 22989 3998
8 4060 22689 22694 4061 3999 22994 22999 4000
8 4066 22719 22724 4067 4005 23024 23029 4006
8 4061 22694 22699 4062 4000 22999 23004 4001
8 4075 22764 22769 4076 4014 23069 23074 4015
8 4070 22739 22744 4071 4009 23044 23049 4010
8 4072 22749 22754 4073 4011 23054 23059 4012
8 4068 22729 22734 4069 4007 23034 23039 4008
8 4071 22744 22749 4072 4010 23049 23054 4011
8 4069 22734 22739 4070 4008 23039 23044 4009
8 4076 22769 22774 4077 4015 23074 23079 4016
8 4073 22754 22759 4074 4012 23059 23064 4013
8 4074 22759 22764 4075 4013 23064 23069 4014
8 3898 23709 23714 3899 3837 24014 24019 3838
8 4079 22784 22789 4080 4018 23089 23094 4019
8 4077 22774 22779 4078 4016 23079 23084 4017
8 4078 22779 22784 4079 4017 23084 23089 4018
8 4080 22789 22794 4081 4019 23094 23099 4020
8 4081 22794 22799 4082 4020 23099 23104 4021
8 3992 22959 22964 3993 3931 23264 23269 3932
8 3994 22969 22974 3995 3933 23274 23279 3934
8 3993 22964 22969 3994 3932 23269 23274 3933
8 3991 22954 22959 3992 3930 23259 23264 3931
8 3990 22949 22954 3991 3929 23254 23259 3930
8 3996 22979 22984 3997 3935 23284 23289 3936
8 3995 22974 22979 3996 3934 23279 23284 3935
8 3999 22994 22999 4000 3938 23299 23304 3939
8 4000 22999 23004 4001 3939 23304 23309 3940
8 4003 23014 23019 4004 3942 23319 23324 3943
8 4001 23004 23009 4002 3940 23309 23314 3941
8 3997 22984 22989 3998 3936 23289 23294 3937
8 4002 23009 23014 4003 3941 23314 23319 3942
8 4006 23029 23034 4007 3945 23334 23339 3946
8 4004 23019 23024 4005 3943 23324 23329 3944
8 4005 23024 23029 4006 3944 23329 23334 3945
8 3998 22989 22994 3999 3937 23294 23299 3938
8 4015 23074 23079 4016 3954 23379 23384 3955
8 4016 23079 23084 4017 3955 23384 23389 3956
8 4017 23084 23089 4018 3956 23389 23394 3957
8 4010 23049 23054 4011 3949 23354 23359 3950
8 4014 23069 23074 4015 3953 23374 23379 3954
8 4007 23034 23039 4008 3946 23339 23344 3947
8 4011 23054 23059 4012 3950 23359 23364 3951
8 4008 23039 23044 4009 3947 23344 23349 3948
8 4013 23064 23069 4014 3952 23369 23374 3953
8 4009 23044 23049 4010 3948 23349 23354 3949
8 4012 23059 23064 4013 3951 23364 23369 3952
8 4018 23089 23094 4019 3957 23394 23399 3958
8 4020 23099 23104 4021 3959 23404 23409 3960
8 4019 23094 23099 4020 3958 23399 23404 3959
8 3929 23254 23259 3930 3868 23559 23564 3869
8 3936 23289 23294 3937 3875 23594 23599 3876
8 3937 23294 23299 3938 3876 23599 23604 3877
8 3932 23269 23274 3933 3871 23574 23579 3872
8 3930 23259 23264 3931 3869 23564 23569 3870
8 3931 23264 23269 3932 3870 23569 23574 3871
8 3934 23279 23284 3935 3873 23584 23589 3874
8 3933 23274 23279 3934 3872 23579 23584 3873
8 3935 23284 23289 3936 3874 23589 23594 3875
8 3945 23334 23339 3946 3884 23639 23644 3885
8 3946 23339 23344 3947 3885 23644 23649 3886
8 3938 23299 23304 3939 3877 23604 23609 3878
8 3944 23329 23334 3945 3883 23634 23639 3884
8 3947 23344 23349 3948 3886 23649 23654 3887
8 3943 23324 23329 3944 3882 23629 23634 3883
8 3942 23319 23324 3943 3881 23624 23629 3882
8 3941 23314 23319 3942 3880 23619 23624 3881
8 3940 23309 23314 3941 3879 23614 23619 3880
8 3939 23304 23309 3940 3878 23609 23614 3879
8 3957 23394 23399 3958 3896 23699 23704 3897
8 3953 23374 23379 3954 3892 23679 23684 3893
8 3955 23384 23389 3956 3894 23689 23694 3895
8 3956 23389 23394 3957 3895 23694 23699 3896
8 3954 23379 23384 3955 3893 23684 23689 3894
8 3958 23399 23404 3959 3897 23704 23709 3898
8 3952 23369 23374 3953 3891 23674 23679 3892
8 3951 23364 23369 3952 3890 23669 23674 3891
8 3950 23359 23364 3951 3889 23664 23669 3890
8 3949 23354 23359 3950 3888 23659 23664 3889
8 3948 23349 23354 3949 3887 23654 23659 3888
8 3959 23404 23409 3960 3898 23709 23714 3899
8 3868 23559 23564 3869 3807 23864 23869 3808
8 3877 23604 23609 3878 3816 23909 23914 3817
8 3878 23609 23614 3879 3817 23914 23919 3818
8 3869 23564 23569 3870 3808 23869 23874 3809
8 3880 23619 23624 3881 3819 23924 23929 3820
8 3879 23614 23619 3880 3818 23919 23924 3819
8 3883 23634 23639 3884 3822 23939 23944 3823
8 3881 23624 23629 3882 3820 23929 23934 3821
8 3882 23629 23634 3883 3821 23934 23939 3822
8 3897 23704 23709 3898 3836 24009 24014 3837
8 3894 23689 23694 3895 3833 23994 23999 3834
8 3893 23684 23689 3894 3832 23989 23994 3833
8 3896 23699 23704 3897 3835 24004 24009 3836
8 3895 23694 23699 3896 3834 23999 24004 3835
8 3807 23864 23869 3808 3746 24169 24174 3747
8 3817 23914 23919 3818 3756 24219 24224 3757
8 3808 23869 23874 3809 3747 24174 24179 3748
8 3816 23909 23914 3817 3755 24214 24219 3756
8 3822 23939 23944 3823 3761 24244 24249 3762
8 3818 23919 23924 3819 3757 24224 24229 3758
8 3820 23929 23934 3821 3759 24234 24239 3760
8 3821 23934 23939 3822 3760 24239 24244 3761
8 3819 23924 23929 3820 3758 24229 24234 3759
8 3833 23994 23999 3834 3772 24299 24304 3773
8 3836 24009 24014 3837 3775 24314 24319 3776
8 3837 24014 24019 3838 3776 24319 24324 3777
8 3834 23999 24004 3835 3773 24304 24309 3774
8 3835 24004 24009 3836 3774 24309 24314 3775
8 3832 23989 23994 3833 3771 24294 24299 3772
8 3746 24169 24174 3747 3685 24474 24479 3686
8 3747 24174 24179 3748 3686 24479 24484 3687
8 3757 24224 24229 3758 3696 24529 24534 3697
8 3756 24219 24224 3757 3695 24524 24529 3696
8 3758 24229 24234 3759 3697 24534 24539 3698
8 3755 24214 24219 3756 3694 24519 24524 3695
8 3760 24239 24244 3761 3699 24544 24549 3700
8 3761 24244 24249 3762 3700 24549 24554 3701
8 3759 24234 24239 3760 3698 24539 24544 3699
8 3775 24314 24319 3776 3714 24619 24624 3715
8 3773 24304 24309 3774 3712 24609 24614 3713
8 3772 24299 24304 3773 3711 24604 24609 3712
8 3774 24309 24314 3775 3713 24614 24619 3714
8 3776 24319 24324 3777 3715 24624 24629 3716
8 3771 24294 24299 3772 3710 24599 24604 3711
8 3686 24479 24484 3687 3625 24784 24789 3626
8 3685 24474 24479 3686 3624 24779 24784 3625
8 3695 24524 24529 3696 3634 24829 24834 3635
8 3696 24529 24534 3697 3635 24834 24839 3636
8 3697 24534 24539 3698 3636 24839 24844 3637
8 3698 24539 24544 3699 3637 24844 24849 3638
8 3694 24519 24524 3695 3633 24824 24829 3634
8 3699 24544 24549 3700 3638 24849 24854 3639
8 3700 24549 24554 3701 3639 24854 24859 3640
8 3711 24604 24609 3712 3650 24909 24914 3651
8 3714 24619 24624 3715 3653 24924 24929 3654
8 3715 24624 24629 3716 3654 24929 24934 3655
8 3712 24609 24614 3713 3651 24914 24919 3652
8 3710 24599 24604 3711 3649 24904 24909 3650
8 3713 24614 24619 3714 3652 24919 24924 3653
8 3634 24829 24834 3635 3573 25134 25139 3574
8 3633 24824 24829 3634 3572 25129 25134 3573
8 3625 24784 24789 3626 3564 25089 25094 3565
8 3624 24779 24784 3625 3563 25084 25089 3564
8 3635 24834 24839 3636 3574 25139 25144 3575
8 3639 24854 24859 3640 3578 25159 25164 3579
8 3636 24839 24844 3637 3575 25144 25149 3576
8 3637 24844 24849 3638 3576 25149 25154 3577
8 3638 24849 24854 3639 3577 25154 25159 3578
8 3640 24859 24864 3641 3579 25164 25169 3580
8 3649 24904 24909 3650 3588 25209 25214 3589
8 3651 24914 24919 3652 3590 25219 25224 3591
8 3650 24909 24914 3651 3589 25214 25219 3590
8 3652 24919 24924 3653 3591 25224 25229 3592
8 3653 24924 24929 3654 3592 25229 25234 3593
8 3654 24929 24934 3655 3593 25234 25239 3594
8 3563 25084 25089 3564 3502 25389 25394 3503
8 3564 25089 25094 3565 3503 25394 25399 3504
8 3574 25139 25144 3575 3513 25444 25449 3514
8 3572 25129 25134 3573 3511 25434 25439 3512
8 3573 25134 25139 3574 3512 25439 25444 3513
8 3579 25164 25169 3580 3518 25469 25474 3519
8 3576 25149 25154 3577 3515 25454 25459 3516
8 3578 25159 25164 3579 3517 25464 25469 3518
8 3577 25154 25159 3578 3516 25459 25464 3517
8 3588 25209 25214 3589 3527 25514 25519 3528
8 3590 25219 25224 3591 3529 25524 25529 3530
8 3589 25214 25219 3590 3528 25519 25524 3529
8 3591 25224 25229 3592 3530 25529 25534 3531
8 3593 25234 25239 3594 3532 25539 25544 3533
8 3592 25229 25234 3593 3531 25534 25539 3532
8 3502 25389 25394 3503 3441 25694 25699 3442
8 3503 25394 25399 3504 3442 25699 25704 3443
8 3509 25424 25429 3510 3448 25729 25734 3449
8 3512 25439 25444 3513 3451 25744 25749 3452
8 3511 25434 25439 3512 3450 25739 25744 3451
8 3510 25429 25434 3511 3449 25734 25739 3450
8 3513 25444 25449 3514 3452 25749 25754 3453
8 3515 25454 25459 3516 3454 25759 25764 3455
8 3516 25459 25464 3517 3455 25764 25769 3456
8 3527 25514 25519 3528 3466 25819 25824 3467
8 3517 25464 25469 3518 3456 25769 25774 3457
8 3518 25469 25474 3519 3457 25774 25779 3458
8 3531 25534 25539 3532 3470 25839 25844 3471
8 3530 25529 25534 3531 3469 25834 25839 3470
8 3528 25519 25524 3529 3467 25824 25829 3468
8 3532 25539 25544 3533 3471 25844 25849 3472
8 3529 25524 25529 3530 3468 25829 25834 3469
8 3442 25699 25704 3443 3381 26004 26009 3382
8 3441 25694 25699 3442 3380 25999 26004 3381
8 3455 25764 25769 3456 3394 26069 26074 3395
8 3448 25729 25734 3449 3387 26034 26039 3388
8 3449 25734 25739 3450 3388 26039 26044 3389
8 3450 25739 25744 3451 3389 26044 26049 3390
8 3454 25759 25764 3455 3393 26064 26069 3394
8 3447 25724 25729 3448 3386 26029 26034 3387
8 3466 25819 25824 3467 3405 26124 26129 3406
8 3456 25769 25774 3457 3395 26074 26079 3396
8 3458 25779 25784 3459 3397 26084 26089 3398
8 3457 25774 25779 3458 3396 26079 26084 3397
8 3459 25784 25789 3460 3398 26089 26094 3399
8 3467 25824 25829 3468 3406 26129 26134 3407
8 3468 25829 25834 3469 3407 26134 26139 3408
8 3469 25834 25839 3470 3408 26139 26144 3409
8 3470 25839 25844 3471 3409 26144 26149 3410
8 3471 25844 25849 3472 3410 26149 26154 3411
8 3381 26004 26009 3382 3320 26309 26314 3321
8 3380 25999 26004 3381 3319 26304 26309 3320
8 3396 26079 26084 3397 3335 26384 26389 3336
8 3387 26034 26039 3388 3326 26339 26344 3327
8 3386 26029 26034 3387 3325 26334 26339 3326
8 3388 26039 26044 3389 3327 26344 26349 3328
8 3389 26044 26049 3390 3328 26349 26354 3329
8 3393 26064 26069 3394 3332 26369 26374 3333
8 3395 26074 26079 3396 3334 26379 26384 3335
8 3394 26069 26074 3395 3333 26374 26379 3334
8 3405 26124 26129 3406 3344 26429 26434 3345
8 3397 26084 26089 3398 3336 26389 26394 3337
8 3407 26134 26139 3408 3346 26439 26444 3347
8 3398 26089 26094 3399 3337 26394 26399 3338
8 3406 26129 26134 3407 3345 26434 26439 3346
8 3408 26139 26144 3409 3347 26444 26449 3348
8 3410 26149 26154 3411 3349 26454 26459 3350
8 3409 26144 26149 3410 3348 26449 26454 3349
8 3326 26339 26344 3327 3265 26644 26649 3266
8 3319 26304 26309 3320 3258 26609 26614 3259
8 3320 26309 26314 3321 3259 26614 26619 3260
8 3325 26334 26339 3326 3264 26639 26644 3265
8 3335 26384 26389 3336 3274 26689 26694 3275
8 3328 26349 26354 3329 3267 26654 26659 3268
8 3336 26389 26394 3337 3275 26694 26699 3276
8 3327 26344 26349 3328 3266 26649 26654 3267
8 3337 26394 26399 3338 3276 26699 26704 3277
8 3346 26439 26444 3347 3285 26744 26749 3286
8 3348 26449 26454 3349 3287 26754 26759 3288
8 3338 26399 26404 3339 3277 26704 26709 3278
8 3344 26429 26434 3345 3283 26734 26739 3284
8 3339 26404 26409 3340 3278 26709 26714 3279
8 3347 26444 26449 3348 3286 26749 26754 3287
8 3345 26434 26439 3346 3284 26739 26744 3285
8 3349 26454 26459 3350 3288 26759 26764 3289
8 3259 26614 26619 3260 3198 26919 26924 3199
8 3266 26649 26654 3267 3205 26954 26959 3206
8 3267 26654 26659 3268 3206 26959 26964 3207
8 3264 26639 26644 3265 3203 26944 26949 3204
8 3258 26609 26614 3259 3197 26914 26919 3198
8 3265 26644 26649 3266 3204 26949 26954 3205
8 3275 26694 26699 3276 3214 26999 27004 3215
8 3274 26689 26694 3275 3213 26994 26999 3214
8 3276 26699 26704 3277 3215 27004 27009 3216
8 3104 27669 27674 3105 3043 27974 27979 3044
8 3103 27664 27669 3104 3042 27969 27974 3043
8 3100 27649 27654 3101 3039 27954 27959 3040
8 3102 27659 27664 3103 3041 27964 27969 3042
8 3099 27644 27649 3100 3038 27949 27954 3039
8 3101 27654 27659 3102 3040 27959 27964 3041
8 3105 27674 27679 3106 3044 27979 27984 3045
8 3098 27639 27644 3099 3037 27944 27949 3038
8 3287 26754 26759 3288 3226 27059 27064 3227
8 3278 26709 26714 3279 3217 27014 27019 3218
8 3284 26739 26744 3285 3223 27044 27049 3224
8 3283 26734 26739 3284 3222 27039 27044 3223
8 3285 26744 26749 3286 3224 27049 27054 3225
8 3286 26749 26754 3287 3225 27054 27059 3226
8 3277 26704 26709 3278 3216 27009 27014 3217
8 3288 26759 26764 3289 3227 27064 27069 3228
8 3204 26949 26954 3205 3143 27254 27259 3144
8 3198 26919 26924 3199 3137 27224 27229 3138
8 3203 26944 26949 3204 3142 27249 27254 3143
8 3197 26914 26919 3198 3136 27219 27224 3137
8 3205 26954 26959 3206 3144 27259 27264 3145
8 3202 26939 26944 3203 3141 27244 27249 3142
8 3215 27004 27009 3216 3154 27309 27314 3155
8 3216 27009 27014 3217 3155 27314 27319 3156
8 3217 27014 27019 3218 3156 27319 27324 3157
8 3214 26999 27004 3215 3153 27304 27309 3154
8 3213 26994 26999 3214 3152 27299 27304 3153
8 3221 27034 27039 3222 3160 27339 27344 3161
8 3222 27039 27044 3223 3161 27344 27349 3162
8 3224 27049 27054 3225 3163 27354 27359 3164
8 3223 27044 27049 3224 3162 27349 27354 3163
8 3227 27064 27069 3228 3166 27369 27374 3167
8 3220 27029 27034 3221 3159 27334 27339 3160
8 3219 27024 27029 3220 3158 27329 27334 3159
8 3225 27054 27059 3226 3164 27359 27364 3165
8 3226 27059 27064 3227 3165 27364 27369 3166
8 3218 27019 27024 3219 3157 27324 27329 3158
8 3136 27219 27224 3137 3075 27524 27529 3076
8 3137 27224 27229 3138 3076 27529 27534 3077
8 3141 27244 27249 3142 3080 27549 27554 3081
8 3138 27229 27234 3139 3077 27534 27539 3078
8 3140 27239 27244 3141 3079 27544 27549 3080
8 3144 27259 27264 3145 3083 27564 27569 3084
8 3139 27234 27239 3140 3078 27539 27544 3079
8 3142 27249 27254 3143 3081 27554 27559 3082
8 3143 27254 27259 3144 3082 27559 27564 3083
8 3158 27329 27334 3159 3097 27634 27639 3098
8 3155 27314 27319 3156 3094 27619 27624 3095
8 3157 27324 27329 3158 3096 27629 27634 3097
8 3156 27319 27324 3157 3095 27624 27629 3096
8 3154 27309 27314 3155 3093 27614 27619 3094
8 3160 27339 27344 3161 3099 27644 27649 3100
8 3159 27334 27339 3160 3098 27639 27644 3099
8 3161 27344 27349 3162 3100 27649 27654 3101
8 3164 27359 27364 3165 3103 27664 27669 3104
8 3165 27364 27369 3166 3104 27669 27674 3105
8 3162 27349 27354 3163 3101 27654 27659 3102
8 3166 27369 27374 3167 3105 27674 27679 3106
8 3163 27354 27359 3164 3102 27659 27664 3103
8 3075 27524 27529 3076 3014 27829 27834 3015
8 3076 27529 27534 3077 3015 27834 27839 3016
8 3078 27539 27544 3079 3017 27844 27849 3018
8 3077 27534 27539 3078 3016 27839 27844 3017
8 3080 27549 27554 3081 3019 27854 27859 3020
8 3081 27554 27559 3082 3020 27859 27864 3021
8 3082 27559 27564 3083 3021 27864 27869 3022
8 3079 27544 27549 3080 3018 27849 27854 3019
8 3093 27614 27619 3094 3032 27919 27924 3033
8 3094 27619 27624 3095 3033 27924 27929 3034
8 3095 27624 27629 3096 3034 27929 27934 3035
8 3096 27629 27634 3097 3035 27934 27939 3036
8 3097 27634 27639 3098 3036 27939 27944 3037
8 3451 25744 25749 3452 3390 26049 26054 3391
8 3390 26049 26054 3391 3329 26354 26359 3330
8 3329 26354 26359 3330 3268 26659 26664 3269
8 3268 26659 26664 3269 3207 26964 26969 3208
8 3514 25449 25454 3515 3453 25754 25759 3454
8 3575 25144 25149 3576 3514 25449 25454 3515
8 3452 25749 25754 3453 3391 26054 26059 3392
8 3207 26964 26969 3208 3146 27269 27274 3147
8 3206 26959 26964 3207 3145 27264 27269 3146
8 3021 27864 27869 3022 2960 28169 28174 2961
8 3020 27859 27864 3021 2959 28164 28169 2960
8 3019 27854 27859 3020 2958 28159 28164 2959
8 2672 29779 29784 2673 2611 30084 30089 2612
8 2673 29784 29789 2674 2612 30089 30094 2613
8 2679 29814 29819 2680 2618 30119 30124 2619
8 2678 29809 29814 2679 2617 30114 30119 2618
8 2680 29819 29824 2681 2619 30124 30129 2620
8 2685 29844 29849 2686 2624 30149 30154 2625
8 2686 29849 29854 2687 2625 30154 30159 2626
8 2611 30084 30089 2612 2550 30389 30394 2551
8 2612 30089 30094 2613 2551 30394 30399 2552
8 2619 30124 30129 2620 2558 30429 30434 2559
8 2624 30149 30154 2625 2563 30454 30459 2564
8 2618 30119 30124 2619 2557 30424 30429 2558
8 2617 30114 30119 2618 2556 30419 30424 2557
8 2625 30154 30159 2626 2564 30459 30464 2565
8 2551 30394 30399 2552 2490 30699 30704 2491
8 2550 30389 30394 2551 2489 30694 30699 2490
8 2556 30419 30424 2557 2495 30724 30729 2496
8 2563 30454 30459 2564 2502 30759 30764 2503
8 2557 30424 30429 2558 2496 30729 30734 2497
8 2564 30459 30464 2565 2503 30764 30769 2504
8 2306 31609 31614 2307 2245 31914 31919 2246
8 2490 30699 30704 2491 2429 31004 31009 2430
8 2489 30694 30699 2490 2428 30999 31004 2429
8 2495 30724 30729 2496 2434 31029 31034 2435
8 2497 30734 30739 2498 2436 31039 31044 2437
8 2496 30729 30734 2497 2435 31034 31039 2436
8 2502 30759 30764 2503 2441 31064 31069 2442
8 2503 30764 30769 2504 2442 31069 31074 2443
8 2436 31039 31044 2437 2375 31344 31349 2376
8 2432 31019 31024 2433 2371 31324 31329 2372
8 2434 31029 31034 2435 2373 31334 31339 2374
8 2428 30999 31004 2429 2367 31304 31309 2368
8 2431 31014 31019 2432 2370 31319 31324 2371
8 2435 31034 31039 2436 2374 31339 31344 2375
8 2429 31004 31009 2430 2368 31309 31314 2369
8 2433 31024 31029 2434 2372 31329 31334 2373
8 2439 31054 31059 2440 2378 31359 31364 2379
8 2440 31059 31064 2441 2379 31364 31369 2380
8 2438 31049 31054 2439 2377 31354 31359 2378
8 2441 31064 31069 2442 2380 31369 31374 2381
8 2442 31069 31074 2443 2381 31374 31379 2382
8 2437 31044 31049 2438 2376 31349 31354 2377
8 2367 31304 31309 2368 2306 31609 31614 2307
8 2377 31354 31359 2378 2316 31659 31664 2317
8 2371 31324 31329 2372 2310 31629 31634 2311
8 2370 31319 31324 2371 2309 31624 31629 2310
8 2369 31314 31319 2370 2308 31619 31624 2309
8 2368 31309 31314 2369 2307 31614 31619 2308
8 2372 31329 31334 2373 2311 31634 31639 2312
8 2374 31339 31344 2375 2313 31644 31649 2314
8 2376 31349 31354 2377 2315 31654 31659 2316
8 2373 31334 31339 2374 2312 31639 31644 2313
8 2375 31344 31349 2376 2314 31649 31654 2315
8 2378 31359 31364 2379 2317 31664 31669 2318
8 2381 31374 31379 2382 2320 31679 31684 2321
8 2380 31369 31374 2381 2319 31674 31679 2320
8 2379 31364 31369 2380 2318 31669 31674 2319
8 2314 31649 31654 2315 2253 31954 31959 2254
8 2315 31654 31659 2316 2254 31959 31964 2255
8 2316 31659 31664 2317 2255 31964 31969 2256
8 2308 31619 31624 2309 2247 31924 31929 2248
8 2312 31639 31644 2313 2251 31944 31949 2252
8 2307 31614 31619 2308 2246 31919 31924 2247
8 2310 31629 31634 2311 2249 31934 31939 2250
8 2309 31624 31629 2310 2248 31929 31934 2249
8 2313 31644 31649 2314 2252 31949 31954 2253
8 2311 31634 31639 2312 2250 31939 31944 2251
8 2318 31669 31674 2319 2257 31974 31979 2258
8 2319 31674 31679 2320 2258 31979 31984 2259
8 2317 31664 31669 2318 2256 31969 31974 2257
8 2320 31679 31684 2321 2259 31984 31989 2260
8 2245 31914 31919 2246 2184 32219 32224 2185
8 2246 31919 31924 2247 2185 32224 32229 2186
8 2247 31924 31929 2248 2186 32229 32234 2187
8 2248 31929 31934 2249 2187 32234 32239 2188
8 2254 31959 31964 2255 2193 32264 32269 2194
8 2255 31964 31969 2256 2194 32269 32274 2195
8 2252 31949 31954 2253 2191 32254 32259 2192
8 2256 31969 31974 2257 2195 32274 32279 2196
8 2250 31939 31944 2251 2189 32244 32249 2190
8 2253 31954 31959 2254 2192 32259 32264 2193
8 2251 31944 31949 2252 2190 32249 32254 2191
8 2257 31974 31979 2258 2196 32279 32284 2197
8 2249 31934 31939 2250 2188 32239 32244 2189
8 2258 31979 31984 2259 2197 32284 32289 2198
8 2259 31984 31989 2260 2198 32289 32294 2199
8 2187 32234 32239 2188 2126 32539 32544 2127
8 2188 32239 32244 2189 2127 32544 32549 2128
8 2186 32229 32234 2187 2125 32534 32539 2126
8 2185 32224 32229 2186 2124 32529 32534 2125
8 2184 32219 32224 2185 2123 32524 32529 2124
8 2194 32269 32274 2195 2133 32574 32579 2134
8 2190 32249 32254 2191 2129 32554 32559 2130
8 2191 32254 32259 2192 2130 32559 32564 2131
8 2189 32244 32249 2190 2128 32549 32554 2129
8 2192 32259 32264 2193 2131 32564 32569 2132
8 2193 32264 32269 2194 2132 32569 32574 2133
8 2197 32284 32289 2198 2136 32589 32594 2137
8 2196 32279 32284 2197 2135 32584 32589 2136
8 2195 32274 32279 2196 2134 32579 32584 2135
8 2198 32289 32294 2199 2137 32594 32599 2138
8 2863 28904 28909 2864 2802 29209 29214 2803
8 2855 28864 28869 2856 2794 29169 29174 2795
8 2861 28894 28899 2862 2800 29199 29204 2801
8 2862 28899 28904 2863 2801 29204 29209 2802
8 2856 28869 28874 2857 2795 29174 29179 2796
8 2869 28934 28939 2870 2808 29239 29244 2809
8 2868 28929 28934 2869 2807 29234 29239 2808
8 2794 29169 29174 2795 2733 29474 29479 2734
8 2801 29204 29209 2802 2740 29509 29514 2741
8 2795 29174 29179 2796 2734 29479 29484 2735
8 2800 29199 29204 2801 2739 29504 29509 2740
8 2802 29209 29214 2803 2741 29514 29519 2742
8 2808 29239 29244 2809 2747 29544 29549 2748
8 2807 29234 29239 2808 2746 29539 29544 2747
8 2734 29479 29484 2735 2673 29784 29789 2674
8 2733 29474 29479 2734 2672 29779 29784 2673
8 2746 29539 29544 2747 2685 29844 29849 2686
8 2741 29514 29519 2742 2680 29819 29824 2681
8 2739 29504 29509 2740 2678 29809 29814 2679
8 2740 29509 29514 2741 2679 29814 29819 2680
8 2747 29544 29549 2748 2686 29849 29854 2687
8 2867 28924 28929 2868 2806 29229 29234 2807
8 2806 29229 29234 2807 2745 29534 29539 2746
8 2684 29839 29844 2685 2623 30144 30149 2624
8 2623 30144 30149 2624 2562 30449 30454 2563
8 2745 29534 29539 2746 2684 29839 29844 2685
8 2562 30449 30454 2563 2501 30754 30759 2502
8 2501 30754 30759 2502 2440 31059 31064 2441
8 2558 30429 30434 2559 2497 30734 30739 2498
8 2857 28874 28879 2858 2796 29179 29184 2797
8 2735 29484 29489 2736 2674 29789 29794 2675
8 2796 29179 29184 2797 2735 29484 29489 2736
8 2674 29789 29794 2675 2613 30094 30099 2614
8 2613 30094 30099 2614 2552 30399 30404 2553
8 2552 30399 30404 2553 2491 30704 30709 2492
8 2430 31009 31014 2431 2369 31314 31319 2370
8 2491 30704 30709 2492 2430 31009 31014 2431
8 1247 36684 36689 1248 1186 36989 36994 1187
8 1250 36699 36704 1251 1189 37004 37009 1190
8 1246 36679 36684 1247 1185 36984 36989 1186
8 1248 36689 36694 1249 1187 36994 36999 1188
8 1249 36694 36699 1250 1188 36999 37004 1189
8 1271 36804 36809 1272 1210 37109 37114 1211
8 1275 36824 36829 1276 1214 37129 37134 1215
8 1273 36814 36819 1274 1212 37119 37124 1213
8 1272 36809 36814 1273 1211 37114 37119 1212
8 1274 36819 36824 1275 1213 37124 37129 1214
8 1187 36994 36999 1188 1126 37299 37304 1127
8 1188 36999 37004 1189 1127 37304 37309 1128
8 1185 36984 36989 1186 1124 37289 37294 1125
8 1189 37004 37009 1190 1128 37309 37314 1129
8 1186 36989 36994 1187 1125 37294 37299 1126
8 1211 37114 37119 1212 1150 37419 37424 1151
8 1212 37119 37124 1213 1151 37424 37429 1152
8 1214 37129 37134 1215 1153 37434 37439 1154
8 1213 37124 37129 1214 1152 37429 37434 1153
8 1125 37294 37299 1126 1064 37599 37604 1065
8 1127 37304 37309 1128 1066 37609 37614 1067
8 1124 37289 37294 1125 1063 37594 37599 1064
8 1126 37299 37304 1127 1065 37604 37609 1066
8 1128 37309 37314 1129 1067 37614 37619 1068
8 1152 37429 37434 1153 1091 37734 37739 1092
8 1150 37419 37424 1151 1089 37724 37729 1090
8 1151 37424 37429 1152 1090 37729 37734 1091
8 1153 37434 37439 1154 1092 37739 37744 1093
8 881 38514 38519 882 820 38819 38824 821
8 880 38509 38514 881 819 38814 38819 820
8 1065 37604 37609 1066 1004 37909 37914 1005
8 1064 37599 37604 1065 1003 37904 37909 1004
8 1063 37594 37599 1064 1002 37899 37904 1003
8 1067 37614 37619 1068 1006 37919 37924 1007
8 1066 37609 37614 1067 1005 37914 37919 1006
8 1092 37739 37744 1093 1031 38044 38049 1032
8 1090 37729 37734 1091 1029 38034 38039 1030
8 1089 37724 37729 1090 1028 38029 38034 1029
8 1091 37734 37739 1092 1030 38039 38044 1031
8 1006 37919 37924 1007 945 38224 38229 946
8 1005 37914 37919 1006 944 38219 38224 945
8 1003 37904 37909 1004 942 38209 38214 943
8 1004 37909 37914 1005 943 38214 38219 944
8 1002 37899 37904 1003 941 38204 38209 942
8 1031 38044 38049 1032 970 38349 38354 971
8 1028 38029 38034 1029 967 38334 38339 968
8 1030 38039 38044 1031 969 38344 38349 970
8 1029 38034 38039 1030 968 38339 38344 969
8 941 38204 38209 942 880 38509 38514 881
8 942 38209 38214 943 881 38514 38519 882
8 945 38224 38229 946 884 38529 38534 885
8 943 38214 38219 944 882 38519 38524 883
8 944 38219 38224 945 883 38524 38529 884
8 970 38349 38354 971 909 38654 38659 910
8 967 38334 38339 968 906 38639 38644 907
8 968 38339 38344 969 907 38644 38649 908
8 969 38344 38349 970 908 38649 38654 909
8 882 38519 38524 883 821 38824 38829 822
8 884 38529 38534 885 823 38834 38839 824
8 883 38524 38529 884 822 38829 38834 823
8 906 38639 38644 907 845 38944 38949 846
8 909 38654 38659 910 848 38959 38964 849
8 908 38649 38654 909 847 38954 38959 848
8 907 38644 38649 908 846 38949 38954 847
8 821 38824 38829 822 760 39129 39134 761
8 822 38829 38834 823 761 39134 39139 762
8 820 38819 38824 821 759 39124 39129 760
8 819 38814 38819 820 758 39119 39124 759
8 823 38834 38839 824 762 39139 39144 763
8 847 38954 38959 848 786 39259 39264 787
8 846 38949 38954 847 785 39254 39259 786
8 845 38944 38949 846 784 39249 39254 785
8 848 38959 38964 849 787 39264 39269 788
8 784 39249 39254 785 723 39554 39559 724
8 785 39254 39259 786 724 39559 39564 725
8 787 39264 39269 788 726 39569 39574 727
8 786 39259 39264 787 725 39564 39569 726
8 723 39554 39559 724 662 39859 39864 663
8 724 39559 39564 725 663 39864 39869 664
8 725 39564 39569 726 664 39869 39874 665
8 726 39569 39574 727 665 39874 39879 666
8 1515 35584 35589 1516 1454 35889 35894 1455
8 1516 35589 35594 1517 1455 35894 35899 1456
8 1517 35594 35599 1518 1456 35899 35904 1457
8 1519 35604 35609 1520 1458 35909 35914 1459
8 1518 35599 35604 1519 1457 35904 35909 1458
8 1429 35764 35769 1430 1368 36069 36074 1369
8 1432 35779 35784 1433 1371 36084 36089 1372
8 1431 35774 35779 1432 1370 36079 36084 1371
8 1430 35769 35774 1431 1369 36074 36079 1370
8 1456 35899 35904 1457 1395 36204 36209 1396
8 1458 35909 35914 1459 1397 36214 36219 1398
8 1455 35894 35899 1456 1394 36199 36204 1395
8 1457 35904 35909 1458 1396 36209 36214 1397
8 1454 35889 35894 1455 1393 36194 36199 1394
8 1370 36079 36084 1371 1309 36384 36389 1310
8 1369 36074 36079 1370 1308 36379 36384 1309
8 1368 36069 36074 1369 1307 36374 36379 1308
8 1372 36089 36094 1373 1311 36394 36399 1312
8 1393 36194 36199 1394 1332 36499 36504 1333
8 1394 36199 36204 1395 1333 36504 36509 1334
8 1396 36209 36214 1397 1335 36514 36519 1336
8 1397 36214 36219 1398 1336 36519 36524 1337
8 1395 36204 36209 1396 1334 36509 36514 1335
8 1307 36374 36379 1308 1246 36679 36684 1247
8 1308 36379 36384 1309 1247 36684 36689 1248
8 1309 36384 36389 1310 1248 36689 36694 1249
8 1310 36389 36394 1311 1249 36694 36699 1250
8 1311 36394 36399 1312 1250 36699 36704 1251
8 1332 36499 36504 1333 1271 36804 36809 1272
8 1335 36514 36519 1336 1274 36819 36824 1275
8 1336 36519 36524 1337 1275 36824 36829 1276
8 1333 36504 36509 1334 1272 36809 36814 1273
8 1334 36509 36514 1335 1273 36814 36819 1274
8 1978 33019 33024 1979 1917 33324 33329 1918
8 1983 33044 33049 1984 1922 33349 33354 1923
8 1982 33039 33044 1983 1921 33344 33349 1922
8 1984 33049 33054 1985 1923 33354 33359 1924
8 1979 33024 33029 1980 1918 33329 33334 1919
8 1985 33054 33059 1986 1924 33359 33364 1925
8 1986 33059 33064 1987 1925 33364 33369 1926
8 1980 33029 33034 1981 1919 33334 33339 1920
8 1981 33034 33039 1982 1920 33339 33344 1921
8 1987 33064 33069 1988 1926 33369 33374 1927
8 1989 33074 33079 1990 1928 33379 33384 1929
8 1996 33109 33114 1997 1935 33414 33419 1936
8 1990 33079 33084 1991 1929 33384 33389 1930
8 1997 33114 33119 1998 1936 33419 33424 1937
8 1994 33099 33104 1995 1933 33404 33409 1934
8 1991 33084 33089 1992 1930 33389 33394 1931
8 1998 33119 33124 1999 1937 33424 33429 1938
8 1993 33094 33099 1994 1932 33399 33404 1933
8 1995 33104 33109 1996 1934 33409 33414 1935
8 1988 33069 33074 1989 1927 33374 33379 1928
8 1992 33089 33094 1993 1931 33394 33399 1932
8 2007 33164 33169 2008 1946 33469 33474 1947
8 2002 33139 33144 2003 1941 33444 33449 1942
8 2001 33134 33139 2002 1940 33439 33444 1941
8 2004 33149 33154 2005 1943 33454 33459 1944
8 2005 33154 33159 2006 1944 33459 33464 1945
8 2006 33159 33164 2007 1945 33464 33469 1946
8 1999 33124 33129 2000 1938 33429 33434 1939
8 2000 33129 33134 2001 1939 33434 33439 1940
8 2003 33144 33149 2004 1942 33449 33454 1943
8 1918 33329 33334 1919 1857 33634 33639 1858
8 1917 33324 33329 1918 1856 33629 33634 1857
8 1921 33344 33349 1922 1860 33649 33654 1861
8 1922 33349 33354 1923 1861 33654 33659 1862
8 1920 33339 33344 1921 1859 33644 33649 1860
8 1919 33334 33339 1920 1858 33639 33644 1859
8 1927 33374 33379 1928 1866 33679 33684 1867
8 1926 33369 33374 1927 1865 33674 33679 1866
8 1925 33364 33369 1926 1864 33669 33674 1865
8 1924 33359 33364 1925 1863 33664 33669 1864
8 1923 33354 33359 1924 1862 33659 33664 1863
8 1928 33379 33384 1929 1867 33684 33689 1868
8 1937 33424 33429 1938 1876 33729 33734 1877
8 1931 33394 33399 1932 1870 33699 33704 1871
8 1938 33429 33434 1939 1877 33734 33739 1878
8 1935 33414 33419 1936 1874 33719 33724 1875
8 1939 33434 33439 1940 1878 33739 33744 1879
8 1930 33389 33394 1931 1869 33694 33699 1870
8 1929 33384 33389 1930 1868 33689 33694 1869
8 1933 33404 33409 1934 1872 33709 33714 1873
8 1932 33399 33404 1933 1871 33704 33709 1872
8 1934 33409 33414 1935 1873 33714 33719 1874
8 1936 33419 33424 1937 1875 33724 33729 1876
8 1940 33439 33444 1941 1879 33744 33749 1880
8 1943 33454 33459 1944 1882 33759 33764 1883
8 1946 33469 33474 1947 1885 33774 33779 1886
8 1941 33444 33449 1942 1880 33749 33754 1881
8 1942 33449 33454 1943 1881 33754 33759 1882
8 1945 33464 33469 1946 1884 33769 33774 1885
8 1944 33459 33464 1945 1883 33764 33769 1884
8 1674 34549 34554 1675 1613 34854 34859 1614
8 1676 34559 34564 1677 1615 34864 34869 1616
8 1673 34544 34549 1674 1612 34849 34854 1613
8 1675 34554 34559 1676 1614 34859 34864 1615
8 1677 34564 34569 1678 1616 34869 34874 1617
8 1678 34569 34574 1679 1617 34874 34879 1618
8 1856 33629 33634 1857 1795 33934 33939 1796
8 1857 33634 33639 1858 1796 33939 33944 1797
8 1865 33674 33679 1866 1804 33979 33984 1805
8 1866 33679 33684 1867 1805 33984 33989 1806
8 1864 33669 33674 1865 1803 33974 33979 1804
8 1867 33684 33689 1868 1806 33989 33994 1807
8 1859 33644 33649 1860 1798 33949 33954 1799
8 1862 33659 33664 1863 1801 33964 33969 1802
8 1860 33649 33654 1861 1799 33954 33959 1800
8 1863 33664 33669 1864 1802 33969 33974 1803
8 1861 33654 33659 1862 1800 33959 33964 1801
8 1858 33639 33644 1859 1797 33944 33949 1798
8 1869 33694 33699 1870 1808 33999 34004 1809
8 1872 33709 33714 1873 1811 34014 34019 1812
8 1870 33699 33704 1871 1809 34004 34009 1810
8 1873 33714 33719 1874 1812 34019 34024 1813
8 1871 33704 33709 1872 1810 34009 34014 1811
8 1874 33719 33724 1875 1813 34024 34029 1814
8 1868 33689 33694 1869 1807 33994 33999 1808
8 1876 33729 33734 1877 1815 34034 34039 1816
8 1877 33734 33739 1878 1816 34039 34044 1817
8 1878 33739 33744 1879 1817 34044 34049 1818
8 1875 33724 33729 1876 1814 34029 34034 1815
8 1879 33744 33749 1880 1818 34049 34054 1819
8 1881 33754 33759 1882 1820 34059 34064 1821
8 1880 33749 33754 1881 1819 34054 34059 1820
8 1885 33774 33779 1886 1824 34079 34084 1825
8 1884 33769 33774 1885 1823 34074 34079 1824
8 1882 33759 33764 1883 1821 34064 34069 1822
8 1883 33764 33769 1884 1822 34069 34074 1823
8 1796 33939 33944 1797 1735 34244 34249 1736
8 1795 33934 33939 1796 1734 34239 34244 1735
8 1797 33944 33949 1798 1736 34249 34254 1737
8 1798 33949 33954 1799 1737 34254 34259 1738
8 1805 33984 33989 1806 1744 34289 34294 1745
8 1808 33999 34004 1809 1747 34304 34309 1748
8 1801 33964 33969 1802 1740 34269 34274 1741
8 1799 33954 33959 1800 1738 34259 34264 1739
8 1803 33974 33979 1804 1742 34279 34284 1743
8 1806 33989 33994 1807 1745 34294 34299 1746
8 1800 33959 33964 1801 1739 34264 34269 1740
8 1802 33969 33974 1803 1741 34274 34279 1742
8 1807 33994 33999 1808 1746 34299 34304 1747
8 1804 33979 33984 1805 1743 34284 34289 1744
8 1811 34014 34019 1812 1750 34319 34324 1751
8 1810 34009 34014 1811 1749 34314 34319 1750
8 1814 34029 34034 1815 1753 34334 34339 1754
8 1809 34004 34009 1810 1748 34309 34314 1749
8 1819 34054 34059 1820 1758 34359 34364 1759
8 1812 34019 34024 1813 1751 34324 34329 1752
8 1815 34034 34039 1816 1754 34339 34344 1755
8 1816 34039 34044 1817 1755 34344 34349 1756
8 1817 34044 34049 1818 1756 34349 34354 1757
8 1818 34049 34054 1819 1757 34354 34359 1758
8 1813 34024 34029 1814 1752 34329 34334 1753
8 1822 34069 34074 1823 1761 34374 34379 1762
8 1823 34074 34079 1824 1762 34379 34384 1763
8 1821 34064 34069 1822 1760 34369 34374 1761
8 1820 34059 34064 1821 1759 34364 34369 1760
8 1824 34079 34084 1825 1763 34384 34389 1764
8 1737 34254 34259 1738 1676 34559 34564 1677
8 1738 34259 34264 1739 1677 34564 34569 1678
8 1734 34239 34244 1735 1673 34544 34549 1674
8 1739 34264 34269 1740 1678 34569 34574 1679
8 1735 34244 34249 1736 1674 34549 34554 1675
8 1736 34249 34254 1737 1675 34554 34559 1676
8 1741 34274 34279 1742 1680 34579 34584 1681
8 1744 34289 34294 1745 1683 34594 34599 1684
8 1742 34279 34284 1743 1681 34584 34589 1682
8 1745 34294 34299 1746 1684 34599 34604 1685
8 1746 34299 34304 1747 1685 34604 34609 1686
8 1740 34269 34274 1741 1679 34574 34579 1680
8 1748 34309 34314 1749 1687 34614 34619 1688
8 1743 34284 34289 1744 1682 34589 34594 1683
8 1747 34304 34309 1748 1686 34609 34614 1687
8 1749 34314 34319 1750 1688 34619 34624 1689
8 1755 34344 34349 1756 1694 34649 34654 1695
8 1752 34329 34334 1753 1691 34634 34639 1692
8 1750 34319 34324 1751 1689 34624 34629 1690
8 1751 34324 34329 1752 1690 34629 34634 1691
8 1753 34334 34339 1754 1692 34639 34644 1693
8 1757 34354 34359 1758 1696 34659 34664 1697
8 1759 34364 34369 1760 1698 34669 34674 1699
8 1756 34349 34354 1757 1695 34654 34659 1696
8 1758 34359 34364 1759 1697 34664 34669 1698
8 1754 34339 34344 1755 1693 34644 34649 1694
8 1760 34369 34374 1761 1699 34674 34679 1700
8 1762 34379 34384 1763 1701 34684 34689 1702
8 1763 34384 34389 1764 1702 34689 34694 1703
8 1761 34374 34379 1762 1700 34679 34684 1701
8 1686 34609 34614 1687 1625 34914 34919 1626
8 1681 34584 34589 1682 1620 34889 34894 1621
8 1683 34594 34599 1684 1622 34899 34904 1623
8 1679 34574 34579 1680 1618 34879 34884 1619
8 1684 34599 34604 1685 1623 34904 34909 1624
8 1685 34604 34609 1686 1624 34909 34914 1625
8 1687 34614 34619 1688 1626 34919 34924 1627
8 1688 34619 34624 1689 1627 34924 34929 1628
8 1682 34589 34594 1683 1621 34894 34899 1622
8 1680 34579 34584 1681 1619 34884 34889 1620
8 1695 34654 34659 1696 1634 34959 34964 1635
8 1690 34629 34634 1691 1629 34934 34939 1630
8 1691 34634 34639 1692 1630 34939 34944 1631
8 1696 34659 34664 1697 1635 34964 34969 1636
8 1697 34664 34669 1698 1636 34969 34974 1637
8 1692 34639 34644 1693 1631 34944 34949 1632
8 1694 34649 34654 1695 1633 34954 34959 1634
8 1693 34644 34649 1694 1632 34949 34954 1633
8 1698 34669 34674 1699 1637 34974 34979 1638
8 1699 34674 34679 1700 1638 34979 34984 1639
8 1689 34624 34629 1690 1628 34929 34934 1629
8 1701 34684 34689 1702 1640 34989 34994 1641
8 1702 34689 34694 1703 1641 34994 34999 1642
8 1700 34679 34684 1701 1639 34984 34989 1640
8 1613 34854 34859 1614 1552 35159 35164 1553
8 1614 34859 34864 1615 1553 35164 35169 1554
8 1612 34849 34854 1613 1551 35154 35159 1552
8 1615 34864 34869 1616 1554 35169 35174 1555
8 1638 34979 34984 1639 1577 35284 35289 1578
8 1637 34974 34979 1638 1576 35279 35284 1577
8 1639 34984 34989 1640 1578 35289 35294 1579
8 1640 34989 34994 1641 1579 35294 35299 1580
8 1641 34994 34999 1642 1580 35299 35304 1581
8 1553 35164 35169 1554 1492 35469 35474 1493
8 1552 35159 35164 1553 1491 35464 35469 1492
8 1554 35169 35174 1555 1493 35474 35479 1494
8 1551 35154 35159 1552 1490 35459 35464 1491
8 1579 35294 35299 1580 1518 35599 35604 1519
8 1578 35289 35294 1579 1517 35594 35599 1518
8 1576 35279 35284 1577 1515 35584 35589 1516
8 1580 35299 35304 1581 1519 35604 35609 1520
8 1577 35284 35289 1578 1516 35589 35594 1517
8 1490 35459 35464 1491 1429 35764 35769 1430
8 1491 35464 35469 1492 1430 35769 35774 1431
8 1492 35469 35474 1493 1431 35774 35779 1432
8 1493 35474 35479 1494 1432 35779 35784 1433
8 1616 34869 34874 1617 1555 35174 35179 1556
8 1555 35174 35179 1556 1494 35479 35484 1495
8 1494 35479 35484 1495 1433 35784 35789 1434
8 1433 35784 35789 1434 1372 36089 36094 1373
8 701 39444 39449 702 640 39749 39754 641
8 761 39134 39139 762 700 39439 39444 701
8 762 39139 39144 763 701 39444 39449 702
8 699 39434 39439 700 638 39739 39744 639
8 700 39439 39444 701 639 39744 39749 640
8 698 39429 39434 699 637 39734 39739 638
8 758 39119 39124 759 697 39424 39429 698
8 759 39124 39129 760 698 39429 39434 699
8 760 39129 39134 761 699 39434 39439 700
8 697 39424 39429 698 636 39729 39734 637
8 1149 37414 37419 1150 1088 37719 37724 1089
8 1210 37109 37114 1211 1149 37414 37419 1150
8 1088 37719 37724 1089 1027 38024 38029 1028
8 1027 38024 38029 1028 966 38329 38334 967
8 966 38329 38334 967 905 38634 38639 906
8 905 38634 38639 906 844 38939 38944 845
8 844 38939 38944 845 783 39244 39249 784
8 783 39244 39249 784 722 39549 39554 723
8 722 39549 39554 723 661 39854 39859 662
8 156 11844 12619 217 218 11854 13394 5861
8 11844 11845 12620 12619 11854 11855 13395 13394
8 11845 11846 12621 12620 11855 11856 13396 13395
8 11846 11847 12622 12621 11856 11857 13397 13396
8 11847 11848 12623 12622 11857 11858 13398 13397
8 11848 5985 6079 12623 11858 6077 11843 13398
8 217 12619 12614 216 5861 13394 13399 5862
8 12619 12620 12615 12614 13394 13395 13400 13399
8 12620 12621 12616 12615 13395 13396 13401 13400
8 12621 12622 12617 12616 13396 13397 13402 13401
8 12622 12623 12618 12617 13397 13398 13403 13402
8 12623 6079 6080 12618 13398 11843 11842 13403
8 216 12614 12609 215 5862 13399 13404 5863
8 12614 12615 12610 12609 13399 13400 13405 13404
8 12615 12616 12611 12610 13400 13401 13406 13405
8 12616 12617 12612 12611 13401 13402 13407 13406
8 12617 12618 12613 12612 13402 13403 13408 13407
8 12618 6080 6081 12613 13403 11842 11841 13408
8 215 12609 12604 214 5863 13404 13409 5864
8 12609 12610 12605 12604 13404 13405 13410 13409
8 12610 12611 12606 12605 13405 13406 13411 13410
8 12611 12612 12607 12606 13406 13407 13412 13411
8 12612 12613 12608 12607 13407 13408 13413 13412
8 12613 6081 6082 12608 13408 11841 11840 13413
8 214 12604 12599 213 5864 13409 13414 5865
8 12604 12605 12600 12599 13409 13410 13415 13414
8 12605 12606 12601 12600 13410 13411 13416 13415
8 12606 12607 12602 12601 13411 13412 13417 13416
8 12607 12608 12603 12602 13412 13413 13418 13417
8 12608 6082 6083 12603 13413 11840 11839 13418
8 213 12599 12594 212 5865 13414 13419 5866
8 12599 12600 12595 12594 13414 13415 13420 13419
8 12600 12601 12596 12595 13415 13416 13421 13420
8 12601 12602 12597 12596 13416 13417 13422 13421
8 12602 12603 12598 12597 13417 13418 13423 13422
8 12603 6083 6084 12598 13418 11839 11838 13423
8 212 12594 12589 211 5866 13419 13424 5867
8 12594 12595 12590 12589 13419 13420 13425 13424
8 12595 12596 12591 12590 13420 13421 13426 13425
8 12596 12597 12592 12591 13421 13422 13427 13426
8 12597 12598 12593 12592 13422 13423 13428 13427
8 12598 6084 6085 12593 13423 11838 11837 13428
8 211 12589 12584 210 5867 13424 13429 5868
8 12589 12590 12585 12584 13424 13425 13430 13429
8 12590 12591 12586 12585 13425 13426 13431 13430
8 12591 12592 12587 12586 13426 13427 13432 13431
8 12592 12593 12588 12587 13427 13428 13433 13432
8 12593 6085 6086 12588 13428 11837 11836 13433
8 210 12584 12579 209 5868 13429 13434 5869
8 12584 12585 12580 12579 13429 13430 13435 13434
8 12585 12586 12581 12580 13430 13431 13436 13435
8 12586 12587 12582 12581 13431 13432 13437 13436
8 12587 12588 12583 12582 13432 13433 13438 13437
8 12588 6086 6087 12583 13433 11836 11835 13438
8 209 12579 12574 208 5869 13434 13439 5870
8 12579 12580 12575 12574 13434 13435 13440 13439
8 12580 12581 12576 12575 13435 13436 13441 13440
8 12581 12582 12577 12576 13436 13437 13442 13441
8 12582 12583 12578 12577 13437 13438 13443 13442
8 12583 6087 6088 12578 13438 11835 11834 13443
8 208 12574 12569 207 5870 13439 13444 5871
8 12574 12575 12570 12569 13439 13440 13445 13444
8 12575 12576 12571 12570 13440 13441 13446 13445
8 12576 12577 12572 12571 13441 13442 13447 13446
8 12577 12578 12573 12572 13442 13443 13448 13447
8 12578 6088 6089 12573 13443 11834 11833 13448
8 207 12569 12564 206 5871 13444 13449 5872
8 12569 12570 12565 12564 13444 13445 13450 13449
8 12570 12571 12566 12565 13445 13446 13451 13450
8 12571 12572 12567 12566 13446 13447 13452 13451
8 12572 12573 12568 12567 13447 13448 13453 13452
8 12573 6089 6090 12568 13448 11833 11832 13453
8 206 12564 12559 205 5872 13449 13454 5873
8 12564 12565 12560 12559 13449 13450 13455 13454
8 12565 12566 12561 12560 13450 13451 13456 13455
8 12566 12567 12562 12561 13451 13452 13457 13456
8 12567 12568 12563 12562 13452 13453 13458 13457
8 12568 6090 6091 12563 13453 11832 11831 13458
8 205 12559 12554 204 5873 13454 13459 5874
8 12559 12560 12555 12554 13454 13455 13460 13459
8 12560 12561 12556 12555 13455 13456 13461 13460
8 12561 12562 12557 12556 13456 13457 13462 13461
8 12562 12563 12558 12557 13457 13458 13463 13462
8 12563 6091 6092 12558 13458 11831 11830 13463
8 204 12554 12549 203 5874 13459 13464 5875
8 12554 12555 12550 12549 13459 13460 13465 13464
8 12555 12556 12551 12550 13460 13461 13466 13465
8 12556 12557 12552 12551 13461 13462 13467 13466
8 12557 12558 12553 12552 13462 13463 13468 13467
8 12558 6092 6093 12553 13463 11830 11829 13468
8 203 12549 12544 202 5875 13464 13469 5876
8 12549 12550 12545 12544 13464 13465 13470 13469
8 12550 12551 12546 12545 13465 13466 13471 13470
8 12551 12552 12547 12546 13466 13467 13472 13471
8 12552 12553 12548 12547 13467 13468 13473 13472
8 12553 6093 6094 12548 13468 11829 11828 13473
8 202 12544 12539 201 5876 13469 13474 5877
8 12544 12545 12540 12539 13469 13470 13475 13474
8 12545 12546 12541 12540 13470 13471 13476 13475
8 12546 12547 12542 12541 13471 13472 13477 13476
8 12547 12548 12543 12542 13472 13473 13478 13477
8 12548 6094 6095 12543 13473 11828 11827 13478
8 201 12539 12534 200 5877 13474 13479 5878
8 12539 12540 12535 12534 13474 13475 13480 13479
8 12540 12541 12536 12535 13475 13476 13481 13480
8 12541 12542 12537 12536 13476 13477 13482 13481
8 12542 12543 12538 12537 13477 13478 13483 13482
8 12543 6095 6096 12538 13478 11827 11826 13483
8 200 12534 12529 199 5878 13479 13484 5879
8 12534 12535 12530 12529 13479 13480 13485 13484
8 12535 12536 12531 12530 13480 13481 13486 13485
8 12536 12537 12532 12531 13481 13482 13487 13486
8 12537 12538 12533 12532 13482 13483 13488 13487
8 12538 6096 6097 12533 13483 11826 11825 13488
8 199 12529 12524 198 5879 13484 13489 5880
8 12529 12530 12525 12524 13484 13485 13490 13489
8 12530 12531 12526 12525 13485 13486 13491 13490
8 12531 12532 12527 12526 13486 13487 13492 13491
8 12532 12533 12528 12527 13487 13488 13493 13492
8 12533 6097 6098 12528 13488 11825 11824 13493
8 198 12524 12519 197 5880 13489 13494 5881
8 12524 12525 12520 12519 13489 13490 13495 13494
8 12525 12526 12521 12520 13490 13491 13496 13495
8 12526 12527 12522 12521 13491 13492 13497 13496
8 12527 12528 12523 12522 13492 13493 13498 13497
8 12528 6098 6099 12523 13493 11824 11823 13498
8 197 12519 12514 196 5881 13494 13499 5882
8 12519 12520 12515 12514 13494 13495 13500 13499
8 12520 12521 12516 12515 13495 13496 13501 13500
8 12521 12522 12517 12516 13496 13497 13502 13501
8 12522 12523 12518 12517 13497 13498 13503 13502
8 12523 6099 6100 12518 13498 11823 11822 13503
8 196 12514 12509 195 5882 13499 13504 5883
8 12514 12515 12510 12509 13499 13500 13505 13504
8 12515 12516 12511 12510 13500 13501 13506 13505
8 12516 12517 12512 12511 13501 13502 13507 13506
8 12517 12518 12513 12512 13502 13503 13508 13507
8 12518 6100 6101 12513 13503 11822 11821 13508
8 195 12509 12504 194 5883 13504 13509 5884
8 12509 12510 12505 12504 13504 13505 13510 13509
8 12510 12511 12506 12505 13505 13506 13511 13510
8 12511 12512 12507 12506 13506 13507 13512 13511
8 12512 12513 12508 12507 13507 13508 13513 13512
8 12513 6101 6102 12508 13508 11821 11820 13513
8 194 12504 12499 193 5884 13509 13514 5885
8 12504 12505 12500 12499 13509 13510 13515 13514
8 12505 12506 12501 12500 13510 13511 13516 13515
8 12506 12507 12502 12501 13511 13512 13517 13516
8 12507 12508 12503 12502 13512 13513 13518 13517
8 12508 6102 6103 12503 13513 11820 11819 13518
8 193 12499 12494 192 5885 13514 13519 5886
8 12499 12500 12495 12494 13514 13515 13520 13519
8 12500 12501 12496 12495 13515 13516 13521 13520
8 12501 12502 12497 12496 13516 13517 13522 13521
8 12502 12503 12498 12497 13517 13518 13523 13522
8 12503 6103 6104 12498 13518 11819 11818 13523
8 192 12494 12489 191 5886 13519 13524 5887
8 12494 12495 12490 12489 13519 13520 13525 13524
8 12495 12496 12491 12490 13520 13521 13526 13525
8 12496 12497 12492 12491 13521 13522 13527 13526
8 12497 12498 12493 12492 13522 13523 13528 13527
8 12498 6104 6105 12493 13523 11818 11817 13528
8 191 12489 12484 190 5887 13524 13529 5888
8 12489 12490 12485 12484 13524 13525 13530 13529
8 12490 12491 12486 12485 13525 13526 13531 13530
8 12491 12492 12487 12486 13526 13527 13532 13531
8 12492 12493 12488 12487 13527 13528 13533 13532
8 12493 6105 6106 12488 13528 11817 11816 13533
8 190 12484 12479 189 5888 13529 13534 5889
8 12484 12485 12480 12479 13529 13530 13535 13534
8 12485 12486 12481 12480 13530 13531 13536 13535
8 12486 12487 12482 12481 13531 13532 13537 13536
8 12487 12488 12483 12482 13532 13533 13538 13537
8 12488 6106 6107 12483 13533 11816 11815 13538
8 189 12479 12474 188 5889 13534 13539 5890
8 12479 12480 12475 12474 13534 13535 13540 13539
8 12480 12481 12476 12475 13535 13536 13541 13540
8 12481 12482 12477 12476 13536 13537 13542 13541
8 12482 12483 12478 12477 13537 13538 13543 13542
8 12483 6107 6108 12478 13538 11815 11814 13543
8 188 12474 12469 187 5890 13539 13544 5891
8 12474 12475 12470 12469 13539 13540 13545 13544
8 12475 12476 12471 12470 13540 13541 13546 13545
8 12476 12477 12472 12471 13541 13542 13547 13546
8 12477 12478 12473 12472 13542 13543 13548 13547
8 12478 6108 6109 12473 13543 11814 11813 13548
8 187 12469 12464 186 5891 13544 13549 5892
8 12469 12470 12465 12464 13544 13545 13550 13549
8 12470 12471 12466 12465 13545 13546 13551 13550
8 12471 12472 12467 12466 13546 13547 13552 13551
8 12472 12473 12468 12467 13547 13548 13553 13552
8 12473 6109 6110 12468 13548 11813 11812 13553
8 186 12464 12459 185 5892 13549 13554 5893
8 12464 12465 12460 12459 13549 13550 13555 13554
8 12465 12466 12461 12460 13550 13551 13556 13555
8 12466 12467 12462 12461 13551 13552 13557 13556
8 12467 12468 12463 12462 13552 13553 13558 13557
8 12468 6110 6111 12463 13553 11812 11811 13558
8 185 12459 12454 184 5893 13554 13559 5894
8 12459 12460 12455 12454 13554 13555 13560 13559
8 12460 12461 12456 12455 13555 13556 13561 13560
8 12461 12462 12457 12456 13556 13557 13562 13561
8 12462 12463 12458 12457 13557 13558 13563 13562
8 12463 6111 6112 12458 13558 11811 11810 13563
8 184 12454 12449 183 5894 13559 13564 5895
8 12454 12455 12450 12449 13559 13560 13565 13564
8 12455 12456 12451 12450 13560 13561 13566 13565
8 12456 12457 12452 12451 13561 13562 13567 13566
8 12457 12458 12453 12452 13562 13563 13568 13567
8 12458 6112 6113 12453 13563 11810 11809 13568
8 183 12449 12444 182 5895 13564 13569 5896
8 12449 12450 12445 12444 13564 13565 13570 13569
8 12450 12451 12446 12445 13565 13566 13571 13570
8 12451 12452 12447 12446 13566 13567 13572 13571
8 12452 12453 12448 12447 13567 13568 13573 13572
8 12453 6113 6114 12448 13568 11809 11808 13573
8 182 12444 12439 181 5896 13569 13574 5897
8 12444 12445 12440 12439 13569 13570 13575 13574
8 12445 12446 12441 12440 13570 13571 13576 13575
8 12446 12447 12442 12441 13571 13572 13577 13576
8 12447 12448 12443 12442 13572 13573 13578 13577
8 12448 6114 6115 12443 13573 11808 11807 13578
8 181 12439 12434 180 5897 13574 13579 5898
8 12439 12440 12435 12434 13574 13575 13580 13579
8 12440 12441 12436 12435 13575 13576 13581 13580
8 12441 12442 12437 12436 13576 13577 13582 13581
8 12442 12443 12438 12437 13577 13578 13583 13582
8 12443 6115 6116 12438 13578 11807 11806 13583
8 180 12434 12429 179 5898 13579 13584 5899
8 12434 12435 12430 12429 13579 13580 13585 13584
8 12435 12436 12431 12430 13580 13581 13586 13585
8 12436 12437 12432 12431 13581 13582 13587 13586
8 12437 12438 12433 12432 13582 13583 13588 13587
8 12438 6116 6117 12433 13583 11806 11805 13588
8 179 12429 12424 178 5899 13584 13589 5900
8 12429 12430 12425 12424 13584 13585 13590 13589
8 12430 12431 12426 12425 13585 13586 13591 13590
8 12431 12432 12427 12426 13586 13587 13592 13591
8 12432 12433 12428 12427 13587 13588 13593 13592
8 12433 6117 6118 12428 13588 11805 11804 13593
8 178 12424 12419 177 5900 13589 13594 5901
8 12424 12425 12420 12419 13589 13590 13595 13594
8 12425 12426 12421 12420 13590 13591 13596 13595
8 12426 12427 12422 12421 13591 13592 13597 13596
8 12427 12428 12423 12422 13592 13593 13598 13597
8 12428 6118 6119 12423 13593 11804 11803 13598
8 177 12419 12414 176 5901 13594 13599 5902
8 12419 12420 12415 12414 13594 13595 13600 13599
8 12420 12421 12416 12415 13595 13596 13601 13600
8 12421 12422 12417 12416 13596 13597 13602 13601
8 12422 12423 12418 12417 13597 13598 13603 13602
8 12423 6119 6120 12418 13598 11803 11802 13603
8 176 12414 12409 175 5902 13599 13604 5903
8 12414 12415 12410 12409 13599 13600 13605 13604
8 12415 12416 12411 12410 13600 13601 13606 13605
8 12416 12417 12412 12411 13601 13602 13607 13606
8 12417 12418 12413 12412 13602 13603 13608 13607
8 12418 6120 6121 12413 13603 11802 11801 13608
8 175 12409 12404 174 5903 13604 13609 5904
8 12409 12410 12405 12404 13604 13605 13610 13609
8 12410 12411 12406 12405 13605 13606 13611 13610
8 12411 12412 12407 12406 13606 13607 13612 13611
8 12412 12413 12408 12407 13607 13608 13613 13612
8 12413 6121 6122 12408 13608 11801 11800 13613
8 174 12404 12399 173 5904 13609 13614 5905
8 12404 12405 12400 12399 13609 13610 13615 13614
8 12405 12406 12401 12400 13610 13611 13616 13615
8 12406 12407 12402 12401 13611 13612 13617 13616
8 12407 12408 12403 12402 13612 13613 13618 13617
8 12408 6122 6123 12403 13613 11800 11799 13618
8 173 12399 12394 172 5905 13614 13619 5906
8 12399 12400 12395 12394 13614 13615 13620 13619
8 12400 12401 12396 12395 13615 13616 13621 13620
8 12401 12402 12397 12396 13616 13617 13622 13621
8 12402 12403 12398 12397 13617 13618 13623 13622
8 12403 6123 6124 12398 13618 11799 11798 13623
8 172 12394 12389 171 5906 13619 13624 5907
8 12394 12395 12390 12389 13619 13620 13625 13624
8 12395 12396 12391 12390 13620 13621 13626 13625
8 12396 12397 12392 12391 13621 13622 13627 13626
8 12397 12398 12393 12392 13622 13623 13628 13627
8 12398 6124 6125 12393 13623 11798 11797 13628
8 171 12389 12384 170 5907 13624 13629 5908
8 12389 12390 12385 12384 13624 13625 13630 13629
8 12390 12391 12386 12385 13625 13626 13631 13630
8 12391 12392 12387 12386 13626 13627 13632 13631
8 12392 12393 12388 12387 13627 13628 13633 13632
8 12393 6125 6126 12388 13628 11797 11796 13633
8 170 12384 12379 169 5908 13629 13634 5909
8 12384 12385 12380 12379 13629 13630 13635 13634
8 12385 12386 12381 12380 13630 13631 13636 13635
8 12386 12387 12382 12381 13631 13632 13637 13636
8 12387 12388 12383 12382 13632 13633 13638 13637
8 12388 6126 6127 12383 13633 11796 11795 13638
8 169 12379 12374 168 5909 13634 13639 5910
8 12379 12380 12375 12374 13634 13635 13640 13639
8 12380 12381 12376 12375 13635 13636 13641 13640
8 12381 12382 12377 12376 13636 13637 13642 13641
8 12382 12383 12378 12377 13637 13638 13643 13642
8 12383 6127 6128 12378 13638 11795 11794 13643
8 168 12374 12369 167 5910 13639 13644 5911
8 12374 12375 12370 12369 13639 13640 13645 13644
8 12375 12376 12371 12370 13640 13641 13646 13645
8 12376 12377 12372 12371 13641 13642 13647 13646
8 12377 12378 12373 12372 13642 13643 13648 13647
8 12378 6128 6129 12373 13643 11794 11793 13648
8 167 12369 12364 166 5911 13644 13649 5912
8 12369 12370 12365 12364 13644 13645 13650 13649
8 12370 12371 12366 12365 13645 13646 13651 13650
8 12371 12372 12367 12366 13646 13647 13652 13651
8 12372 12373 12368 12367 13647 13648 13653 13652
8 12373 6129 6130 12368 13648 11793 11792 13653
8 166 12364 12359 165 5912 13649 13654 5913
8 12364 12365 12360 12359 13649 13650 13655 13654
8 12365 12366 12361 12360 13650 13651 13656 13655
8 12366 12367 12362 12361 13651 13652 13657 13656
8 12367 12368 12363 12362 13652 13653 13658 13657
8 12368 6130 6131 12363 13653 11792 11791 13658
8 165 12359 12354 164 5913 13654 13659 5914
8 12359 12360 12355 12354 13654 13655 13660 13659
8 12360 12361 12356 12355 13655 13656 13661 13660
8 12361 12362 12357 12356 13656 13657 13662 13661
8 12362 12363 12358 12357 13657 13658 13663 13662
8 12363 6131 6132 12358 13658 11791 11790 13663
8 164 12354 12349 163 5914 13659 13664 5915
8 12354 12355 12350 12349 13659 13660 13665 13664
8 12355 12356 12351 12350 13660 13661 13666 13665
8 12356 12357 12352 12351 13661 13662 13667 13666
8 12357 12358 12353 12352 13662 13663 13668 13667
8 12358 6132 6133 12353 13663 11790 11789 13668
8 163 12349 12344 162 5915 13664 13669 5916
8 12349 12350 12345 12344 13664 13665 13670 13669
8 12350 12351 12346 12345 13665 13666 13671 13670
8 12351 12352 12347 12346 13666 13667 13672 13671
8 12352 12353 12348 12347 13667 13668 13673 13672
8 12353 6133 6134 12348 13668 11789 11788 13673
8 162 12344 12339 161 5916 13669 13674 5917
8 12344 12345 12340 12339 13669 13670 13675 13674
8 12345 12346 12341 12340 13670 13671 13676 13675
8 12346 12347 12342 12341 13671 13672 13677 13676
8 12347 12348 12343 12342 13672 13673 13678 13677
8 12348 6134 6135 12343 13673 11788 11787 13678
8 161 12339 12334 160 5917 13674 13679 5918
8 12339 12340 12335 12334 13674 13675 13680 13679
8 12340 12341 12336 12335 13675 13676 13681 13680
8 12341 12342 12337 12336 13676 13677 13682 13681
8 12342 12343 12338 12337 13677 13678 13683 13682
8 12343 6135 6136 12338 13678 11787 11786 13683
8 160 12334 12329 159 5918 13679 13684 5919
8 12334 12335 12330 12329 13679 13680 13685 13684
8 12335 12336 12331 12330 13680 13681 13686 13685
8 12336 12337 12332 12331 13681 13682 13687 13686
8 12337 12338 12333 12332 13682 13683 13688 13687
8 12338 6136 6137 12333 13683 11786 11785 13688
8 159 12329 12324 158 5919 13684 13689 5920
8 12329 12330 12325 12324 13684 13685 13690 13689
8 12330 12331 12326 12325 13685 13686 13691 13690
8 12331 12332 12327 12326 13686 13687 13692 13691
8 12332 12333 12328 12327 13687 13688 13693 13692
8 12333 6137 6138 12328 13688 11785 11784 13693
8 158 12324 12319 157 5920 13689 13694 5921
8 12324 12325 12320 12319 13689 13690 13695 13694
8 12325 12326 12321 12320 13690 13691 13696 13695
8 12326 12327 12322 12321 13691 13692 13697 13696
8 12327 12328 12323 12322 13692 13693 13698 13697
8 12328 6138 6139 12323 13693 11784 11783 13698
8 157 12319 12314 63 5921 13694 13084 155
8 12319 12320 12315 12314 13694 13695 13085 13084
8 12320 12321 12316 12315 13695 13696 13086 13085
8 12321 12322 12317 12316 13696 13697 13087 13086
8 12322 12323 12318 12317 13697 13698 13088 13087
8 12323 6139 6078 12318 13698 11783 6140 13088
8 218 11854 13394 5861 219 11859 13699 5800
8 11854 11855 13395 13394 11859 11860 13700 13699
8 11855 11856 13396 13395 11860 11861 13701 13700
8 11856 11857 13397 13396 11861 11862 13702 13701
8 11857 11858 13398 13397 11862 11863 13703 13702
8 11858 6077 11843 13398 11863 6076 11782 13703
8 5861 13394 13399 5862 5800 13699 13704 5801
8 13394 13395 13400 13399 13699 13700 13705 13704
8 13395 13396 13401 13400 13700 13701 13706 13705
8 13396 13397 13402 13401 13701 13702 13707 13706
8 13397 13398 13403 13402 13702 13703 13708 13707
8 13398 11843 11842 13403 13703 11782 11781 13708
8 5862 13399 13404 5863 5801 13704 13709 5802
8 13399 13400 13405 13404 13704 13705 13710 13709
8 13400 13401 13406 13405 13705 13706 13711 13710
8 13401 13402 13407 13406 13706 13707 13712 13711
8 13402 13403 13408 13407 13707 13708 13713 13712
8 13403 11842 11841 13408 13708 11781 11780 13713
8 5863 13404 13409 5864 5802 13709 13714 5803
8 13404 13405 13410 13409 13709 13710 13715 13714
8 13405 13406 13411 13410 13710 13711 13716 13715
8 13406 13407 13412 13411 13711 13712 13717 13716
8 13407 13408 13413 13412 13712 13713 13718 13717
8 13408 11841 11840 13413 13713 11780 11779 13718
8 5864 13409 13414 5865 5803 13714 13719 5804
8 13409 13410 13415 13414 13714 13715 13720 13719
8 13410 13411 13416 13415 13715 13716 13721 13720
8 13411 13412 13417 13416 13716 13717 13722 13721
8 13412 13413 13418 13417 13717 13718 13723 13722
8 13413 11840 11839 13418 13718 11779 11778 13723
8 5865 13414 13419 5866 5804 13719 13724 5805
8 13414 13415 13420 13419 13719 13720 13725 13724
8 13415 13416 13421 13420 13720 13721 13726 13725
8 13416 13417 13422 13421 13721 13722 13727 13726
8 13417 13418 13423 13422 13722 13723 13728 13727
8 13418 11839 11838 13423 13723 11778 11777 13728
8 5866 13419 13424 5867 5805 13724 13729 5806
8 13419 13420 13425 13424 13724 13725 13730 13729
8 13420 13421 13426 13425 13725 13726 13731 13730
8 13421 13422 13427 13426 13726 13727 13732 13731
8 13422 13423 13428 13427 13727 13728 13733 13732
8 13423 11838 11837 13428 13728 11777 11776 13733
8 5867 13424 13429 5868 5806 13729 13734 5807
8 13424 13425 13430 13429 13729 13730 13735 13734
8 13425 13426 13431 13430 13730 13731 13736 13735
8 13426 13427 13432 13431 13731 13732 13737 13736
8 13427 13428 13433 13432 13732 13733 13738 13737
8 13428 11837 11836 13433 13733 11776 11775 13738
8 13429 13430 13435 13434 13734 13735 13740 13739
8 13430 13431 13436 13435 13735 13736 13741 13740
8 13431 13432 13437 13436 13736 13737 13742 13741
8 13432 13433 13438 13437 13737 13738 13743 13742
8 13433 11836 11835 13438 13738 11775 11774 13743
8 5869 13434 13439 5870 5808 13739 13744 5809
8 13434 13435 13440 13439 13739 13740 13745 13744
8 13435 13436 13441 13440 13740 13741 13746 13745
8 13436 13437 13442 13441 13741 13742 13747 13746
8 13437 13438 13443 13442 13742 13743 13748 13747
8 13438 11835 11834 13443 13743 11774 11773 13748
8 5870 13439 13444 5871 5809 13744 13749 5810
8 13439 13440 13445 13444 13744 13745 13750 13749
8 13440 13441 13446 13445 13745 13746 13751 13750
8 13441 13442 13447 13446 13746 13747 13752 13751
8 13442 13443 13448 13447 13747 13748 13753 13752
8 13443 11834 11833 13448 13748 11773 11772 13753
8 5871 13444 13449 5872 5810 13749 13754 5811
8 13444 13445 13450 13449 13749 13750 13755 13754
8 13445 13446 13451 13450 13750 13751 13756 13755
8 13446 13447 13452 13451 13751 13752 13757 13756
8 13447 13448 13453 13452 13752 13753 13758 13757
8 13448 11833 11832 13453 13753 11772 11771 13758
8 5872 13449 13454 5873 5811 13754 13759 5812
8 13449 13450 13455 13454 13754 13755 13760 13759
8 13450 13451 13456 13455 13755 13756 13761 13760
8 13451 13452 13457 13456 13756 13757 13762 13761
8 13452 13453 13458 13457 13757 13758 13763 13762
8 13453 11832 11831 13458 13758 11771 11770 13763
8 5873 13454 13459 5874 5812 13759 13764 5813
8 13454 13455 13460 13459 13759 13760 13765 13764
8 13455 13456 13461 13460 13760 13761 13766 13765
8 13456 13457 13462 13461 13761 13762 13767 13766
8 13457 13458 13463 13462 13762 13763 13768 13767
8 13458 11831 11830 13463 13763 11770 11769 13768
8 5874 13459 13464 5875 5813 13764 13769 5814
8 13459 13460 13465 13464 13764 13765 13770 13769
8 13460 13461 13466 13465 13765 13766 13771 13770
8 13461 13462 13467 13466 13766 13767 13772 13771
8 13462 13463 13468 13467 13767 13768 13773 13772
8 13463 11830 11829 13468 13768 11769 11768 13773
8 5875 13464 13469 5876 5814 13769 13774 5815
8 13464 13465 13470 13469 13769 13770 13775 13774
8 13465 13466 13471 13470 13770 13771 13776 13775
8 13466 13467 13472 13471 13771 13772 13777 13776
8 13467 13468 13473 13472 13772 13773 13778 13777
8 13468 11829 11828 13473 13773 11768 11767 13778
8 5876 13469 13474 5877 5815 13774 13779 5816
8 13469 13470 13475 13474 13774 13775 13780 13779
8 13470 13471 13476 13475 13775 13776 13781 13780
8 13471 13472 13477 13476 13776 13777 13782 13781
8 13472 13473 13478 13477 13777 13778 13783 13782
8 13473 11828 11827 13478 13778 11767 11766 13783
8 5877 13474 13479 5878 5816 13779 13784 5817
8 13474 13475 13480 13479 13779 13780 13785 13784
8 13475 13476 13481 13480 13780 13781 13786 13785
8 13476 13477 13482 13481 13781 13782 13787 13786
8 13477 13478 13483 13482 13782 13783 13788 13787
8 13478 11827 11826 13483 13783 11766 11765 13788
8 5878 13479 13484 5879 5817 13784 13789 5818
8 13479 13480 13485 13484 13784 13785 13790 13789
8 13480 13481 13486 13485 13785 13786 13791 13790
8 13481 13482 13487 13486 13786 13787 13792 13791
8 13482 13483 13488 13487 13787 13788 13793 13792
8 13483 11826 11825 13488 13788 11765 11764 13793
8 5879 13484 13489 5880 5818 13789 13794 5819
8 13484 13485 13490 13489 13789 13790 13795 13794
8 13485 13486 13491 13490 13790 13791 13796 13795
8 13486 13487 13492 13491 13791 13792 13797 13796
8 13487 13488 13493 13492 13792 13793 13798 13797
8 13488 11825 11824 13493 13793 11764 11763 13798
8 5880 13489 13494 5881 5819 13794 13799 5820
8 13489 13490 13495 13494 13794 13795 13800 13799
8 13490 13491 13496 13495 13795 13796 13801 13800
8 13491 13492 13497 13496 13796 13797 13802 13801
8 13492 13493 13498 13497 13797 13798 13803 13802
8 13493 11824 11823 13498 13798 11763 11762 13803
8 5881 13494 13499 5882 5820 13799 13804 5821
8 13494 13495 13500 13499 13799 13800 13805 13804
8 13495 13496 13501 13500 13800 13801 13806 13805
8 13496 13497 13502 13501 13801 13802 13807 13806
8 13497 13498 13503 13502 13802 13803 13808 13807
8 13498 11823 11822 13503 13803 11762 11761 13808
8 5882 13499 13504 5883 5821 13804 13809 5822
8 13499 13500 13505 13504 13804 13805 13810 13809
8 13500 13501 13506 13505 13805 13806 13811 13810
8 13501 13502 13507 13506 13806 13807 13812 13811
8 13502 13503 13508 13507 13807 13808 13813 13812
8 13503 11822 11821 13508 13808 11761 11760 13813
8 5883 13504 13509 5884 5822 13809 13814 5823
8 13504 13505 13510 13509 13809 13810 13815 13814
8 13505 13506 13511 13510 13810 13811 13816 13815
8 13506 13507 13512 13511 13811 13812 13817 13816
8 13507 13508 13513 13512 13812 13813 13818 13817
8 13508 11821 11820 13513 13813 11760 11759 13818
8 5884 13509 13514 5885 5823 13814 13819 5824
8 13509 13510 13515 13514 13814 13815 13820 13819
8 13510 13511 13516 13515 13815 13816 13821 13820
8 13511 13512 13517 13516 13816 13817 13822 13821
8 13512 13513 13518 13517 13817 13818 13823 13822
8 13513 11820 11819 13518 13818 11759 11758 13823
8 5885 13514 13519 5886 5824 13819 13824 5825
8 13514 13515 13520 13519 13819 13820 13825 13824
8 13515 13516 13521 13520 13820 13821 13826 13825
8 13516 13517 13522 13521 13821 13822 13827 13826
8 13517 13518 13523 13522 13822 13823 13828 13827
8 13518 11819 11818 13523 13823 11758 11757 13828
8 5886 13519 13524 5887 5825 13824 13829 5826
8 13519 13520 13525 13524 13824 13825 13830 13829
8 13520 13521 13526 13525 13825 13826 13831 13830
8 13521 13522 13527 13526 13826 13827 13832 13831
8 13522 13523 13528 13527 13827 13828 13833 13832
8 13523 11818 11817 13528 13828 11757 11756 13833
8 5887 13524 13529 5888 5826 13829 13834 5827
8 13524 13525 13530 13529 13829 13830 13835 13834
8 13525 13526 13531 13530 13830 13831 13836 13835
8 13526 13527 13532 13531 13831 13832 13837 13836
8 13527 13528 13533 13532 13832 13833 13838 13837
8 13528 11817 11816 13533 13833 11756 11755 13838
8 5888 13529 13534 5889 5827 13834 13839 5828
8 13529 13530 13535 13534 13834 13835 13840 13839
8 13530 13531 13536 13535 13835 13836 13841 13840
8 13531 13532 13537 13536 13836 13837 13842 13841
8 13532 13533 13538 13537 13837 13838 13843 13842
8 13533 11816 11815 13538 13838 11755 11754 13843
8 5889 13534 13539 5890 5828 13839 13844 5829
8 13534 13535 13540 13539 13839 13840 13845 13844
8 13535 13536 13541 13540 13840 13841 13846 13845
8 13536 13537 13542 13541 13841 13842 13847 13846
8 13537 13538 13543 13542 13842 13843 13848 13847
8 13538 11815 11814 13543 13843 11754 11753 13848
8 5890 13539 13544 5891 5829 13844 13849 5830
8 13539 13540 13545 13544 13844 13845 13850 13849
8 13540 13541 13546 13545 13845 13846 13851 13850
8 13541 13542 13547 13546 13846 13847 13852 13851
8 13542 13543 13548 13547 13847 13848 13853 13852
8 13543 11814 11813 13548 13848 11753 11752 13853
8 5891 13544 13549 5892 5830 13849 13854 5831
8 13544 13545 13550 13549 13849 13850 13855 13854
8 13545 13546 13551 13550 13850 13851 13856 13855
8 13546 13547 13552 13551 13851 13852 13857 13856
8 13547 13548 13553 13552 13852 13853 13858 13857
8 13548 11813 11812 13553 13853 11752 11751 13858
8 5892 13549 13554 5893 5831 13854 13859 5832
8 13549 13550 13555 13554 13854 13855 13860 13859
8 13550 13551 13556 13555 13855 13856 13861 13860
8 13551 13552 13557 13556 13856 13857 13862 13861
8 13552 13553 13558 13557 13857 13858 13863 13862
8 13553 11812 11811 13558 13858 11751 11750 13863
8 5893 13554 13559 5894 5832 13859 13864 5833
8 13554 13555 13560 13559 13859 13860 13865 13864
8 13555 13556 13561 13560 13860 13861 13866 13865
8 13556 13557 13562 13561 13861 13862 13867 13866
8 13557 13558 13563 13562 13862 13863 13868 13867
8 13558 11811 11810 13563 13863 11750 11749 13868
8 5894 13559 13564 5895 5833 13864 13869 5834
8 13559 13560 13565 13564 13864 13865 13870 13869
8 13560 13561 13566 13565 13865 13866 13871 13870
8 13561 13562 13567 13566 13866 13867 13872 13871
8 13562 13563 13568 13567 13867 13868 13873 13872
8 13563 11810 11809 13568 13868 11749 11748 13873
8 5895 13564 13569 5896 5834 13869 13874 5835
8 13564 13565 13570 13569 13869 13870 13875 13874
8 13565 13566 13571 13570 13870 13871 13876 13875
8 13566 13567 13572 13571 13871 13872 13877 13876
8 13567 13568 13573 13572 13872 13873 13878 13877
8 13568 11809 11808 13573 13873 11748 11747 13878
8 5896 13569 13574 5897 5835 13874 13879 5836
8 13569 13570 13575 13574 13874 13875 13880 13879
8 13570 13571 13576 13575 13875 13876 13881 13880
8 13571 13572 13577 13576 13876 13877 13882 13881
8 13572 13573 13578 13577 13877 13878 13883 13882
8 13573 11808 11807 13578 13878 11747 11746 13883
8 5897 13574 13579 5898 5836 13879 13884 5837
8 13574 13575 13580 13579 13879 13880 13885 13884
8 13575 13576 13581 13580 13880 13881 13886 13885
8 13576 13577 13582 13581 13881 13882 13887 13886
8 13577 13578 13583 13582 13882 13883 13888 13887
8 13578 11807 11806 13583 13883 11746 11745 13888
8 5898 13579 13584 5899 5837 13884 13889 5838
8 13579 13580 13585 13584 13884 13885 13890 13889
8 13580 13581 13586 13585 13885 13886 13891 13890
8 13581 13582 13587 13586 13886 13887 13892 13891
8 13582 13583 13588 13587 13887 13888 13893 13892
8 13583 11806 11805 13588 13888 11745 11744 13893
8 5899 13584 13589 5900 5838 13889 13894 5839
8 13584 13585 13590 13589 13889 13890 13895 13894
8 13585 13586 13591 13590 13890 13891 13896 13895
8 13586 13587 13592 13591 13891 13892 13897 13896
8 13587 13588 13593 13592 13892 13893 13898 13897
8 13588 11805 11804 13593 13893 11744 11743 13898
8 5900 13589 13594 5901 5839 13894 13899 5840
8 13589 13590 13595 13594 13894 13895 13900 13899
8 13590 13591 13596 13595 13895 13896 13901 13900
8 13591 13592 13597 13596 13896 13897 13902 13901
8 13592 13593 13598 13597 13897 13898 13903 13902
8 13593 11804 11803 13598 13898 11743 11742 13903
8 5901 13594 13599 5902 5840 13899 13904 5841
8 13594 13595 13600 13599 13899 13900 13905 13904
8 13595 13596 13601 13600 13900 13901 13906 13905
8 13596 13597 13602 13601 13901 13902 13907 13906
8 13597 13598 13603 13602 13902 13903 13908 13907
8 13598 11803 11802 13603 13903 11742 11741 13908
8 5902 13599 13604 5903 5841 13904 13909 5842
8 13599 13600 13605 13604 13904 13905 13910 13909
8 13600 13601 13606 13605 13905 13906 13911 13910
8 13601 13602 13607 13606 13906 13907 13912 13911
8 13602 13603 13608 13607 13907 13908 13913 13912
8 13603 11802 11801 13608 13908 11741 11740 13913
8 5903 13604 13609 5904 5842 13909 13914 5843
8 13604 13605 13610 13609 13909 13910 13915 13914
8 13605 13606 13611 13610 13910 13911 13916 13915
8 13606 13607 13612 13611 13911 13912 13917 13916
8 13607 13608 13613 13612 13912 13913 13918 13917
8 13608 11801 11800 13613 13913 11740 11739 13918
8 5904 13609 13614 5905 5843 13914 13919 5844
8 13609 13610 13615 13614 13914 13915 13920 13919
8 13610 13611 13616 13615 13915 13916 13921 13920
8 13611 13612 13617 13616 13916 13917 13922 13921
8 13612 13613 13618 13617 13917 13918 13923 13922
8 13613 11800 11799 13618 13918 11739 11738 13923
8 5905 13614 13619 5906 5844 13919 13924 5845
8 13614 13615 13620 13619 13919 13920 13925 13924
8 13615 13616 13621 13620 13920 13921 13926 13925
8 13616 13617 13622 13621 13921 13922 13927 13926
8 13617 13618 13623 13622 13922 13923 13928 13927
8 13618 11799 11798 13623 13923 11738 11737 13928
8 5906 13619 13624 5907 5845 13924 13929 5846
8 13619 13620 13625 13624 13924 13925 13930 13929
8 13620 13621 13626 13625 13925 13926 13931 13930
8 13621 13622 13627 13626 13926 13927 13932 13931
8 13622 13623 13628 13627 13927 13928 13933 13932
8 13623 11798 11797 13628 13928 11737 11736 13933
8 5907 13624 13629 5908 5846 13929 13934 5847
8 13624 13625 13630 13629 13929 13930 13935 13934
8 13625 13626 13631 13630 13930 13931 13936 13935
8 13626 13627 13632 13631 13931 13932 13937 13936
8 13627 13628 13633 13632 13932 13933 13938 13937
8 13628 11797 11796 13633 13933 11736 11735 13938
8 5908 13629 13634 5909 5847 13934 13939 5848
8 13629 13630 13635 13634 13934 13935 13940 13939
8 13630 13631 13636 13635 13935 13936 13941 13940
8 13631 13632 13637 13636 13936 13937 13942 13941
8 13632 13633 13638 13637 13937 13938 13943 13942
8 13633 11796 11795 13638 13938 11735 11734 13943
8 5909 13634 13639 5910 5848 13939 13944 5849
8 13634 13635 13640 13639 13939 13940 13945 13944
8 13635 13636 13641 13640 13940 13941 13946 13945
8 13636 13637 13642 13641 13941 13942 13947 13946
8 13637 13638 13643 13642 13942 13943 13948 13947
8 13638 11795 11794 13643 13943 11734 11733 13948
8 5910 13639 13644 5911 5849 13944 13949 5850
8 13639 13640 13645 13644 13944 13945 13950 13949
8 13640 13641 13646 13645 13945 13946 13951 13950
8 13641 13642 13647 13646 13946 13947 13952 13951
8 13642 13643 13648 13647 13947 13948 13953 13952
8 13643 11794 11793 13648 13948 11733 11732 13953
8 5911 13644 13649 5912 5850 13949 13954 5851
8 13644 13645 13650 13649 13949 13950 13955 13954
8 13645 13646 13651 13650 13950 13951 13956 13955
8 13646 13647 13652 13651 13951 13952 13957 13956
8 13647 13648 13653 13652 13952 13953 13958 13957
8 13648 11793 11792 13653 13953 11732 11731 13958
8 5912 13649 13654 5913 5851 13954 13959 5852
8 13649 13650 13655 13654 13954 13955 13960 13959
8 13650 13651 13656 13655 13955 13956 13961 13960
8 13651 13652 13657 13656 13956 13957 13962 13961
8 13652 13653 13658 13657 13957 13958 13963 13962
8 13653 11792 11791 13658 13958 11731 11730 13963
8 5913 13654 13659 5914 5852 13959 13964 5853
8 13654 13655 13660 13659 13959 13960 13965 13964
8 13655 13656 13661 13660 13960 13961 13966 13965
8 13656 13657 13662 13661 13961 13962 13967 13966
8 13657 13658 13663 13662 13962 13963 13968 13967
8 13658 11791 11790 13663 13963 11730 11729 13968
8 5914 13659 13664 5915 5853 13964 13969 5854
8 13659 13660 13665 13664 13964 13965 13970 13969
8 13660 13661 13666 13665 13965 13966 13971 13970
8 13661 13662 13667 13666 13966 13967 13972 13971
8 13662 13663 13668 13667 13967 13968 13973 13972
8 13663 11790 11789 13668 13968 11729 11728 13973
8 5915 13664 13669 5916 5854 13969 13974 5855
8 13664 13665 13670 13669 13969 13970 13975 13974
8 13665 13666 13671 13670 13970 13971 13976 13975
8 13666 13667 13672 13671 13971 13972 13977 13976
8 13667 13668 13673 13672 13972 13973 13978 13977
8 13668 11789 11788 13673 13973 11728 11727 13978
8 5916 13669 13674 5917 5855 13974 13979 5856
8 13669 13670 13675 13674 13974 13975 13980 13979
8 13670 13671 13676 13675 13975 13976 13981 13980
8 13671 13672 13677 13676 13976 13977 13982 13981
8 13672 13673 13678 13677 13977 13978 13983 13982
8 13673 11788 11787 13678 13978 11727 11726 13983
8 5917 13674 13679 5918 5856 13979 13984 5857
8 13674 13675 13680 13679 13979 13980 13985 13984
8 13675 13676 13681 13680 13980 13981 13986 13985
8 13676 13677 13682 13681 13981 13982 13987 13986
8 13677 13678 13683 13682 13982 13983 13988 13987
8 13678 11787 11786 13683 13983 11726 11725 13988
8 5918 13679 13684 5919 5857 13984 13989 5858
8 13679 13680 13685 13684 13984 13985 13990 13989
8 13680 13681 13686 13685 13985 13986 13991 13990
8 13681 13682 13687 13686 13986 13987 13992 13991
8 13682 13683 13688 13687 13987 13988 13993 13992
8 13683 11786 11785 13688 13988 11725 11724 13993
8 5919 13684 13689 5920 5858 13989 13994 5859
8 13684 13685 13690 13689 13989 13990 13995 13994
8 13685 13686 13691 13690 13990 13991 13996 13995
8 13686 13687 13692 13691 13991 13992 13997 13996
8 13687 13688 13693 13692 13992 13993 13998 13997
8 13688 11785 11784 13693 13993 11724 11723 13998
8 5920 13689 13694 5921 5859 13994 13999 5860
8 13689 13690 13695 13694 13994 13995 14000 13999
8 13690 13691 13696 13695 13995 13996 14001 14000
8 13691 13692 13697 13696 13996 13997 14002 14001
8 13692 13693 13698 13697 13997 13998 14003 14002
8 13693 11784 11783 13698 13998 11723 11722 14003
8 5921 13694 13084 155 5860 13999 13079 154
8 13694 13695 13085 13084 13999 14000 13080 13079
8 13695 13696 13086 13085 14000 14001 13081 13080
8 13696 13697 13087 13086 14001 14002 13082 13081
8 13697 13698 13088 13087 14002 14003 13083 13082
8 13698 11783 6140 13088 14003 11722 6141 13083
8 219 11859 13699 5800 220 11864 14004 5739
8 11859 11860 13700 13699 11864 11865 14005 14004
8 11860 11861 13701 13700 11865 11866 14006 14005
8 11861 11862 13702 13701 11866 11867 14007 14006
8 11862 11863 13703 13702 11867 11868 14008 14007
8 11863 6076 11782 13703 11868 6075 11721 14008
8 5800 13699 13704 5801 5739 14004 14009 5740
8 13699 13700 13705 13704 14004 14005 14010 14009
8 13700 13701 13706 13705 14005 14006 14011 14010
8 13701 13702 13707 13706 14006 14007 14012 14011
8 13702 13703 13708 13707 14007 14008 14013 14012
8 13703 11782 11781 13708 14008 11721 11720 14013
8 5801 13704 13709 5802 5740 14009 14014 5741
8 13704 13705 13710 13709 14009 14010 14015 14014
8 13705 13706 13711 13710 14010 14011 14016 14015
8 13706 13707 13712 13711 14011 14012 14017 14016
8 13707 13708 13713 13712 14012 14013 14018 14017
8 13708 11781 11780 13713 14013 11720 11719 14018
8 5802 13709 13714 5803 5741 14014 14019 5742
8 13709 13710 13715 13714 14014 14015 14020 14019
8 13710 13711 13716 13715 14015 14016 14021 14020
8 13711 13712 13717 13716 14016 14017 14022 14021
8 13712 13713 13718 13717 14017 14018 14023 14022
8 13713 11780 11779 13718 14018 11719 11718 14023
8 5803 13714 13719 5804 5742 14019 14024 5743
8 13714 13715 13720 13719 14019 14020 14025 14024
8 13715 13716 13721 13720 14020 14021 14026 14025
8 13716 13717 13722 13721 14021 14022 14027 14026
8 13717 13718 13723 13722 14022 14023 14028 14027
8 13718 11779 11778 13723 14023 11718 11717 14028
8 5804 13719 13724 5805 5743 14024 14029 5744
8 13719 13720 13725 13724 14024 14025 14030 14029
8 13720 13721 13726 13725 14025 14026 14031 14030
8 13721 13722 13727 13726 14026 14027 14032 14031
8 13722 13723 13728 13727 14027 14028 14033 14032
8 13723 11778 11777 13728 14028 11717 11716 14033
8 5805 13724 13729 5806 5744 14029 14034 5745
8 13724 13725 13730 13729 14029 14030 14035 14034
8 13725 13726 13731 13730 14030 14031 14036 14035
8 13726 13727 13732 13731 14031 14032 14037 14036
8 13727 13728 13733 13732 14032 14033 14038 14037
8 13728 11777 11776 13733 14033 11716 11715 14038
8 5806 13729 13734 5807 5745 14034 14039 5746
8 13729 13730 13735 13734 14034 14035 14040 14039
8 13730 13731 13736 13735 14035 14036 14041 14040
8 13731 13732 13737 13736 14036 14037 14042 14041
8 13732 13733 13738 13737 14037 14038 14043 14042
8 13733 11776 11775 13738 14038 11715 11714 14043
8 5807 13734 13739 5808 5746 14039 14044 5747
8 13734 13735 13740 13739 14039 14040 14045 14044
8 13735 13736 13741 13740 14040 14041 14046 14045
8 13736 13737 13742 13741 14041 14042 14047 14046
8 13737 13738 13743 13742 14042 14043 14048 14047
8 13738 11775 11774 13743 14043 11714 11713 14048
8 5808 13739 13744 5809 5747 14044 14049 5748
8 13739 13740 13745 13744 14044 14045 14050 14049
8 13740 13741 13746 13745 14045 14046 14051 14050
8 13741 13742 13747 13746 14046 14047 14052 14051
8 13742 13743 13748 13747 14047 14048 14053 14052
8 13743 11774 11773 13748 14048 11713 11712 14053
8 5809 13744 13749 5810 5748 14049 14054 5749
8 13744 13745 13750 13749 14049 14050 14055 14054
8 13745 13746 13751 13750 14050 14051 14056 14055
8 13746 13747 13752 13751 14051 14052 14057 14056
8 13747 13748 13753 13752 14052 14053 14058 14057
8 13748 11773 11772 13753 14053 11712 11711 14058
8 5810 13749 13754 5811 5749 14054 14059 5750
8 13749 13750 13755 13754 14054 14055 14060 14059
8 13750 13751 13756 13755 14055 14056 14061 14060
8 13751 13752 13757 13756 14056 14057 14062 14061
8 13752 13753 13758 13757 14057 14058 14063 14062
8 13753 11772 11771 13758 14058 11711 11710 14063
8 5811 13754 13759 5812 5750 14059 14064 5751
8 13754 13755 13760 13759 14059 14060 14065 14064
8 13755 13756 13761 13760 14060 14061 14066 14065
8 13756 13757 13762 13761 14061 14062 14067 14066
8 13757 13758 13763 13762 14062 14063 14068 14067
8 13758 11771 11770 13763 14063 11710 11709 14068
8 5812 13759 13764 5813 5751 14064 14069 5752
8 13759 13760 13765 13764 14064 14065 14070 14069
8 13760 13761 13766 13765 14065 14066 14071 14070
8 13761 13762 13767 13766 14066 14067 14072 14071
8 13762 13763 13768 13767 14067 14068 14073 14072
8 13763 11770 11769 13768 14068 11709 11708 14073
8 5813 13764 13769 5814 5752 14069 14074 5753
8 13764 13765 13770 13769 14069 14070 14075 14074
8 13765 13766 13771 13770 14070 14071 14076 14075
8 13766 13767 13772 13771 14071 14072 14077 14076
8 13767 13768 13773 13772 14072 14073 14078 14077
8 13768 11769 11768 13773 14073 11708 11707 14078
8 5814 13769 13774 5815 5753 14074 14079 5754
8 13769 13770 13775 13774 14074 14075 14080 14079
8 13770 13771 13776 13775 14075 14076 14081 14080
8 13771 13772 13777 13776 14076 14077 14082 14081
8 13772 13773 13778 13777 14077 14078 14083 14082
8 13773 11768 11767 13778 14078 11707 11706 14083
8 5815 13774 13779 5816 5754 14079 14084 5755
8 13774 13775 13780 13779 14079 14080 14085 14084
8 13775 13776 13781 13780 14080 14081 14086 14085
8 13776 13777 13782 13781 14081 14082 14087 14086
8 13777 13778 13783 13782 14082 14083 14088 14087
8 13778 11767 11766 13783 14083 11706 11705 14088
8 5816 13779 13784 5817 5755 14084 14089 5756
8 13779 13780 13785 13784 14084 14085 14090 14089
8 13780 13781 13786 13785 14085 14086 14091 14090
8 13781 13782 13787 13786 14086 14087 14092 14091
8 13782 13783 13788 13787 14087 14088 14093 14092
8 13783 11766 11765 13788 14088 11705 11704 14093
8 5817 13784 13789 5818 5756 14089 14094 5757
8 13784 13785 13790 13789 14089 14090 14095 14094
8 13785 13786 13791 13790 14090 14091 14096 14095
8 13786 13787 13792 13791 14091 14092 14097 14096
8 13787 13788 13793 13792 14092 14093 14098 14097
8 13788 11765 11764 13793 14093 11704 11703 14098
8 5818 13789 13794 5819 5757 14094 14099 5758
8 13789 13790 13795 13794 14094 14095 14100 14099
8 13790 13791 13796 13795 14095 14096 14101 14100
8 13791 13792 13797 13796 14096 14097 14102 14101
8 13792 13793 13798 13797 14097 14098 14103 14102
8 13793 11764 11763 13798 14098 11703 11702 14103
8 5819 13794 13799 5820 5758 14099 14104 5759
8 13794 13795 13800 13799 14099 14100 14105 14104
8 13795 13796 13801 13800 14100 14101 14106 14105
8 13796 13797 13802 13801 14101 14102 14107 14106
8 13797 13798 13803 13802 14102 14103 14108 14107
8 13798 11763 11762 13803 14103 11702 11701 14108
8 5820 13799 13804 5821 5759 14104 14109 5760
8 13799 13800 13805 13804 14104 14105 14110 14109
8 13800 13801 13806 13805 14105 14106 14111 14110
8 13801 13802 13807 13806 14106 14107 14112 14111
8 13802 13803 13808 13807 14107 14108 14113 14112
8 13803 11762 11761 13808 14108 11701 11700 14113
8 5821 13804 13809 5822 5760 14109 14114 5761
8 13804 13805 13810 13809 14109 14110 14115 14114
8 13805 13806 13811 13810 14110 14111 14116 14115
8 13806 13807 13812 13811 14111 14112 14117 14116
8 13807 13808 13813 13812 14112 14113 14118 14117
8 13808 11761 11760 13813 14113 11700 11699 14118
8 5822 13809 13814 5823 5761 14114 14119 5762
8 13809 13810 13815 13814 14114 14115 14120 14119
8 13810 13811 13816 13815 14115 14116 14121 14120
8 13811 13812 13817 13816 14116 14117 14122 14121
8 13812 13813 13818 13817 14117 14118 14123 14122
8 13813 11760 11759 13818 14118 11699 11698 14123
8 5823 13814 13819 5824 5762 14119 14124 5763
8 13814 13815 13820 13819 14119 14120 14125 14124
8 13815 13816 13821 13820 14120 14121 14126 14125
8 13816 13817 13822 13821 14121 14122 14127 14126
8 13817 13818 13823 13822 14122 14123 14128 14127
8 13818 11759 11758 13823 14123 11698 11697 14128
8 5824 13819 13824 5825 5763 14124 14129 5764
8 13819 13820 13825 13824 14124 14125 14130 14129
8 13820 13821 13826 13825 14125 14126 14131 14130
8 13821 13822 13827 13826 14126 14127 14132 14131
8 13822 13823 13828 13827 14127 14128 14133 14132
8 13823 11758 11757 13828 14128 11697 11696 14133
8 5825 13824 13829 5826 5764 14129 14134 5765
8 13824 13825 13830 13829 14129 14130 14135 14134
8 13825 13826 13831 13830 14130 14131 14136 14135
8 13826 13827 13832 13831 14131 14132 14137 14136
8 13827 13828 13833 13832 14132 14133 14138 14137
8 13828 11757 11756 13833 14133 11696 11695 14138
8 5826 13829 13834 5827 5765 14134 14139 5766
8 13829 13830 13835 13834 14134 14135 14140 14139
8 13830 13831 13836 13835 14135 14136 14141 14140
8 13831 13832 13837 13836 14136 14137 14142 14141
8 13832 13833 13838 13837 14137 14138 14143 14142
8 13833 11756 11755 13838 14138 11695 11694 14143
8 5827 13834 13839 5828 5766 14139 14144 5767
8 13834 13835 13840 13839 14139 14140 14145 14144
8 13835 13836 13841 13840 14140 14141 14146 14145
8 13836 13837 13842 13841 14141 14142 14147 14146
8 13837 13838 13843 13842 14142 14143 14148 14147
8 13838 11755 11754 13843 14143 11694 11693 14148
8 5828 13839 13844 5829 5767 14144 14149 5768
8 13839 13840 13845 13844 14144 14145 14150 14149
8 13840 13841 13846 13845 14145 14146 14151 14150
8 13841 13842 13847 13846 14146 14147 14152 14151
8 13842 13843 13848 13847 14147 14148 14153 14152
8 13843 11754 11753 13848 14148 11693 11692 14153
8 5829 13844 13849 5830 5768 14149 14154 5769
8 13844 13845 13850 13849 14149 14150 14155 14154
8 13845 13846 13851 13850 14150 14151 14156 14155
8 13846 13847 13852 13851 14151 14152 14157 14156
8 13847 13848 13853 13852 14152 14153 14158 14157
8 13848 11753 11752 13853 14153 11692 11691 14158
8 5830 13849 13854 5831 5769 14154 14159 5770
8 13849 13850 13855 13854 14154 14155 14160 14159
8 13850 13851 13856 13855 14155 14156 14161 14160
8 13851 13852 13857 13856 14156 14157 14162 14161
8 13852 13853 13858 13857 14157 14158 14163 14162
8 13853 11752 11751 13858 14158 11691 11690 14163
8 5831 13854 13859 5832 5770 14159 14164 5771
8 13854 13855 13860 13859 14159 14160 14165 14164
8 13855 13856 13861 13860 14160 14161 14166 14165
8 13856 13857 13862 13861 14161 14162 14167 14166
8 13857 13858 13863 13862 14162 14163 14168 14167
8 13858 11751 11750 13863 14163 11690 11689 14168
8 5832 13859 13864 5833 5771 14164 14169 5772
8 13859 13860 13865 13864 14164 14165 14170 14169
8 13860 13861 13866 13865 14165 14166 14171 14170
8 13861 13862 13867 13866 14166 14167 14172 14171
8 13862 13863 13868 13867 14167 14168 14173 14172
8 13863 11750 11749 13868 14168 11689 11688 14173
8 5833 13864 13869 5834 5772 14169 14174 5773
8 13864 13865 13870 13869 14169 14170 14175 14174
8 13865 13866 13871 13870 14170 14171 14176 14175
8 13866 13867 13872 13871 14171 14172 14177 14176
8 13867 13868 13873 13872 14172 14173 14178 14177
8 13868 11749 11748 13873 14173 11688 11687 14178
8 5834 13869 13874 5835 5773 14174 14179 5774
8 13869 13870 13875 13874 14174 14175 14180 14179
8 13870 13871 13876 13875 14175 14176 14181 14180
8 13871 13872 13877 13876 14176 14177 14182 14181
8 13872 13873 13878 13877 14177 14178 14183 14182
8 13873 11748 11747 13878 14178 11687 11686 14183
8 5835 13874 13879 5836 5774 14179 14184 5775
8 13874 13875 13880 13879 14179 14180 14185 14184
8 13875 13876 13881 13880 14180 14181 14186 14185
8 13876 13877 13882 13881 14181 14182 14187 14186
8 13877 13878 13883 13882 14182 14183 14188 14187
8 13878 11747 11746 13883 14183 11686 11685 14188
8 5836 13879 13884 5837 5775 14184 14189 5776
8 13879 13880 13885 13884 14184 14185 14190 14189
8 13880 13881 13886 13885 14185 14186 14191 14190
8 13881 13882 13887 13886 14186 14187 14192 14191
8 13882 13883 13888 13887 14187 14188 14193 14192
8 13883 11746 11745 13888 14188 11685 11684 14193
8 5837 13884 13889 5838 5776 14189 14194 5777
8 13884 13885 13890 13889 14189 14190 14195 14194
8 13885 13886 13891 13890 14190 14191 14196 14195
8 13886 13887 13892 13891 14191 14192 14197 14196
8 13887 13888 13893 13892 14192 14193 14198 14197
8 13888 11745 11744 13893 14193 11684 11683 14198
8 5838 13889 13894 5839 5777 14194 14199 5778
8 13889 13890 13895 13894 14194 14195 14200 14199
8 13890 13891 13896 13895 14195 14196 14201 14200
8 13891 13892 13897 13896 14196 14197 14202 14201
8 13892 13893 13898 13897 14197 14198 14203 14202
8 13893 11744 11743 13898 14198 11683 11682 14203
8 5839 13894 13899 5840 5778 14199 14204 5779
8 13894 13895 13900 13899 14199 14200 14205 14204
8 13895 13896 13901 13900 14200 14201 14206 14205
8 13896 13897 13902 13901 14201 14202 14207 14206
8 13897 13898 13903 13902 14202 14203 14208 14207
8 13898 11743 11742 13903 14203 11682 11681 14208
8 5840 13899 13904 5841 5779 14204 14209 5780
8 13899 13900 13905 13904 14204 14205 14210 14209
8 13900 13901 13906 13905 14205 14206 14211 14210
8 13901 13902 13907 13906 14206 14207 14212 14211
8 13902 13903 13908 13907 14207 14208 14213 14212
8 13903 11742 11741 13908 14208 11681 11680 14213
8 5841 13904 13909 5842 5780 14209 14214 5781
8 13904 13905 13910 13909 14209 14210 14215 14214
8 13905 13906 13911 13910 14210 14211 14216 14215
8 13906 13907 13912 13911 14211 14212 14217 14216
8 13907 13908 13913 13912 14212 14213 14218 14217
8 13908 11741 11740 13913 14213 11680 11679 14218
8 5842 13909 13914 5843 5781 14214 14219 5782
8 13909 13910 13915 13914 14214 14215 14220 14219
8 13910 13911 13916 13915 14215 14216 14221 14220
8 13911 13912 13917 13916 14216 14217 14222 14221
8 13912 13913 13918 13917 14217 14218 14223 14222
8 13913 11740 11739 13918 14218 11679 11678 14223
8 5843 13914 13919 5844 5782 14219 14224 5783
8 13914 13915 13920 13919 14219 14220 14225 14224
8 13915 13916 13921 13920 14220 14221 14226 14225
8 13916 13917 13922 13921 14221 14222 14227 14226
8 13917 13918 13923 13922 14222 14223 14228 14227
8 13918 11739 11738 13923 14223 11678 11677 14228
8 5844 13919 13924 5845 5783 14224 14229 5784
8 13919 13920 13925 13924 14224 14225 14230 14229
8 13920 13921 13926 13925 14225 14226 14231 14230
8 13921 13922 13927 13926 14226 14227 14232 14231
8 13922 13923 13928 13927 14227 14228 14233 14232
8 13923 11738 11737 13928 14228 11677 11676 14233
8 5845 13924 13929 5846 5784 14229 14234 5785
8 13924 13925 13930 13929 14229 14230 14235 14234
8 13925 13926 13931 13930 14230 14231 14236 14235
8 13926 13927 13932 13931 14231 14232 14237 14236
8 13927 13928 13933 13932 14232 14233 14238 14237
8 13928 11737 11736 13933 14233 11676 11675 14238
8 5846 13929 13934 5847 5785 14234 14239 5786
8 13929 13930 13935 13934 14234 14235 14240 14239
8 13930 13931 13936 13935 14235 14236 14241 14240
8 13931 13932 13937 13936 14236 14237 14242 14241
8 13932 13933 13938 13937 14237 14238 14243 14242
8 13933 11736 11735 13938 14238 11675 11674 14243
8 5847 13934 13939 5848 5786 14239 14244 5787
8 13934 13935 13940 13939 14239 14240 14245 14244
8 13935 13936 13941 13940 14240 14241 14246 14245
8 13936 13937 13942 13941 14241 14242 14247 14246
8 13937 13938 13943 13942 14242 14243 14248 14247
8 13938 11735 11734 13943 14243 11674 11673 14248
8 5848 13939 13944 5849 5787 14244 14249 5788
8 13939 13940 13945 13944 14244 14245 14250 14249
8 13940 13941 13946 13945 14245 14246 14251 14250
8 13941 13942 13947 13946 14246 14247 14252 14251
8 13942 13943 13948 13947 14247 14248 14253 14252
8 13943 11734 11733 13948 14248 11673 11672 14253
8 5849 13944 13949 5850 5788 14249 14254 5789
8 13944 13945 13950 13949 14249 14250 14255 14254
8 13945 13946 13951 13950 14250 14251 14256 14255
8 13946 13947 13952 13951 14251 14252 14257 14256
8 13947 13948 13953 13952 14252 14253 14258 14257
8 13948 11733 11732 13953 14253 11672 11671 14258
8 5850 13949 13954 5851 5789 14254 14259 5790
8 13949 13950 13955 13954 14254 14255 14260 14259
8 13950 13951 13956 13955 14255 14256 14261 14260
8 13951 13952 13957 13956 14256 14257 14262 14261
8 13952 13953 13958 13957 14257 14258 14263 14262
8 13953 11732 11731 13958 14258 11671 11670 14263
8 5851 13954 13959 5852 5790 14259 14264 5791
8 13954 13955 13960 13959 14259 14260 14265 14264
8 13955 13956 13961 13960 14260 14261 14266 14265
8 13956 13957 13962 13961 14261 14262 14267 14266
8 13957 13958 13963 13962 14262 14263 14268 14267
8 13958 11731 11730 13963 14263 11670 11669 14268
8 5852 13959 13964 5853 5791 14264 14269 5792
8 13959 13960 13965 13964 14264 14265 14270 14269
8 13960 13961 13966 13965 14265 14266 14271 14270
8 13961 13962 13967 13966 14266 14267 14272 14271
8 13962 13963 13968 13967 14267 14268 14273 14272
8 13963 11730 11729 13968 14268 11669 11668 14273
8 5853 13964 13969 5854 5792 14269 14274 5793
8 13964 13965 13970 13969 14269 14270 14275 14274
8 13965 13966 13971 13970 14270 14271 14276 14275
8 13966 13967 13972 13971 14271 14272 14277 14276
8 13967 13968 13973 13972 14272 14273 14278 14277
8 13968 11729 11728 13973 14273 11668 11667 14278
8 5854 13969 13974 5855 5793 14274 14279 5794
8 13969 13970 13975 13974 14274 14275 14280 14279
8 13970 13971 13976 13975 14275 14276 14281 14280
8 13971 13972 13977 13976 14276 14277 14282 14281
8 13972 13973 13978 13977 14277 14278 14283 14282
8 13973 11728 11727 13978 14278 11667 11666 14283
8 5855 13974 13979 5856 5794 14279 14284 5795
8 13974 13975 13980 13979 14279 14280 14285 14284
8 13975 13976 13981 13980 14280 14281 14286 14285
8 13976 13977 13982 13981 14281 14282 14287 14286
8 13977 13978 13983 13982 14282 14283 14288 14287
8 13978 11727 11726 13983 14283 11666 11665 14288
8 5856 13979 13984 5857 5795 14284 14289 5796
8 13979 13980 13985 13984 14284 14285 14290 14289
8 13980 13981 13986 13985 14285 14286 14291 14290
8 13981 13982 13987 13986 14286 14287 14292 14291
8 13982 13983 13988 13987 14287 14288 14293 14292
8 13983 11726 11725 13988 14288 11665 11664 14293
8 5857 13984 13989 5858 5796 14289 14294 5797
8 13984 13985 13990 13989 14289 14290 14295 14294
8 13985 13986 13991 13990 14290 14291 14296 14295
8 13986 13987 13992 13991 14291 14292 14297 14296
8 13987 13988 13993 13992 14292 14293 14298 14297
8 13988 11725 11724 13993 14293 11664 11663 14298
8 5858 13989 13994 5859 5797 14294 14299 5798
8 13989 13990 13995 13994 14294 14295 14300 14299
8 13990 13991 13996 13995 14295 14296 14301 14300
8 13991 13992 13997 13996 14296 14297 14302 14301
8 13992 13993 13998 13997 14297 14298 14303 14302
8 13993 11724 11723 13998 14298 11663 11662 14303
8 5859 13994 13999 5860 5798 14299 14304 5799
8 13994 13995 14000 13999 14299 14300 14305 14304
8 13995 13996 14001 14000 14300 14301 14306 14305
8 13996 13997 14002 14001 14301 14302 14307 14306
8 13997 13998 14003 14002 14302 14303 14308 14307
8 13998 11723 11722 14003 14303 11662 11661 14308
8 5860 13999 13079 154 5799 14304 13074 153
8 13999 14000 13080 13079 14304 14305 13075 13074
8 14000 14001 13081 13080 14305 14306 13076 13075
8 14001 14002 13082 13081 14306 14307 13077 13076
8 14002 14003 13083 13082 14307 14308 13078 13077
8 14003 11722 6141 13083 14308 11661 6142 13078
8 220 11864 14004 5739 221 11869 14309 5678
8 11864 11865 14005 14004 11869 11870 14310 14309
8 11865 11866 14006 14005 11870 11871 14311 14310
8 11866 11867 14007 14006 11871 11872 14312 14311
8 11867 11868 14008 14007 11872 11873 14313 14312
8 11868 6075 11721 14008 11873 6074 11660 14313
8 5739 14004 14009 5740 5678 14309 14314 5679
8 14004 14005 14010 14009 14309 14310 14315 14314
8 14005 14006 14011 14010 14310 14311 14316 14315
8 14006 14007 14012 14011 14311 14312 14317 14316
8 14007 14008 14013 14012 14312 14313 14318 14317
8 14008 11721 11720 14013 14313 11660 11659 14318
8 5740 14009 14014 5741 5679 14314 14319 5680
8 14009 14010 14015 14014 14314 14315 14320 14319
8 14010 14011 14016 14015 14315 14316 14321 14320
8 14011 14012 14017 14016 14316 14317 14322 14321
8 14012 14013 14018 14017 14317 14318 14323 14322
8 14013 11720 11719 14018 14318 11659 11658 14323
8 5741 14014 14019 5742 5680 14319 14324 5681
8 14014 14015 14020 14019 14319 14320 14325 14324
8 14015 14016 14021 14020 14320 14321 14326 14325
8 14016 14017 14022 14021 14321 14322 14327 14326
8 14017 14018 14023 14022 14322 14323 14328 14327
8 14018 11719 11718 14023 14323 11658 11657 14328
8 5742 14019 14024 5743 5681 14324 14329 5682
8 14019 14020 14025 14024 14324 14325 14330 14329
8 14020 14021 14026 14025 14325 14326 14331 14330
8 14021 14022 14027 14026 14326 14327 14332 14331
8 14022 14023 14028 14027 14327 14328 14333 14332
8 14023 11718 11717 14028 14328 11657 11656 14333
8 5743 14024 14029 5744 5682 14329 14334 5683
8 14024 14025 14030 14029 14329 14330 14335 14334
8 14025 14026 14031 14030 14330 14331 14336 14335
8 14026 14027 14032 14031 14331 14332 14337 14336
8 14027 14028 14033 14032 14332 14333 14338 14337
8 14028 11717 11716 14033 14333 11656 11655 14338
8 5744 14029 14034 5745 5683 14334 14339 5684
8 14029 14030 14035 14034 14334 14335 14340 14339
8 14030 14031 14036 14035 14335 14336 14341 14340
8 14031 14032 14037 14036 14336 14337 14342 14341
8 14032 14033 14038 14037 14337 14338 14343 14342
8 14033 11716 11715 14038 14338 11655 11654 14343
8 5745 14034 14039 5746 5684 14339 14344 5685
8 14034 14035 14040 14039 14339 14340 14345 14344
8 14035 14036 14041 14040 14340 14341 14346 14345
8 14036 14037 14042 14041 14341 14342 14347 14346
8 14037 14038 14043 14042 14342 14343 14348 14347
8 14038 11715 11714 14043 14343 11654 11653 14348
8 5746 14039 14044 5747 5685 14344 14349 5686
8 14039 14040 14045 14044 14344 14345 14350 14349
8 14040 14041 14046 14045 14345 14346 14351 14350
8 14041 14042 14047 14046 14346 14347 14352 14351
8 14042 14043 14048 14047 14347 14348 14353 14352
8 14043 11714 11713 14048 14348 11653 11652 14353
8 5747 14044 14049 5748 5686 14349 14354 5687
8 14044 14045 14050 14049 14349 14350 14355 14354
8 14045 14046 14051 14050 14350 14351 14356 14355
8 14046 14047 14052 14051 14351 14352 14357 14356
8 14047 14048 14053 14052 14352 14353 14358 14357
8 14048 11713 11712 14053 14353 11652 11651 14358
8 5748 14049 14054 5749 5687 14354 14359 5688
8 14049 14050 14055 14054 14354 14355 14360 14359
8 14050 14051 14056 14055 14355 14356 14361 14360
8 14051 14052 14057 14056 14356 14357 14362 14361
8 14052 14053 14058 14057 14357 14358 14363 14362
8 14053 11712 11711 14058 14358 11651 11650 14363
8 5749 14054 14059 5750 5688 14359 14364 5689
8 14054 14055 14060 14059 14359 14360 14365 14364
8 14055 14056 14061 14060 14360 14361 14366 14365
8 14056 14057 14062 14061 14361 14362 14367 14366
8 14057 14058 14063 14062 14362 14363 14368 14367
8 14058 11711 11710 14063 14363 11650 11649 14368
8 5750 14059 14064 5751 5689 14364 14369 5690
8 14059 14060 14065 14064 14364 14365 14370 14369
8 14060 14061 14066 14065 14365 14366 14371 14370
8 14061 14062 14067 14066 14366 14367 14372 14371
8 14062 14063 14068 14067 14367 14368 14373 14372
8 14063 11710 11709 14068 14368 11649 11648 14373
8 5751 14064 14069 5752 5690 14369 14374 5691
8 14064 14065 14070 14069 14369 14370 14375 14374
8 14065 14066 14071 14070 14370 14371 14376 14375
8 14066 14067 14072 14071 14371 14372 14377 14376
8 14067 14068 14073 14072 14372 14373 14378 14377
8 14068 11709 11708 14073 14373 11648 11647 14378
8 5752 14069 14074 5753 5691 14374 14379 5692
8 14069 14070 14075 14074 14374 14375 14380 14379
8 14070 14071 14076 14075 14375 14376 14381 14380
8 14071 14072 14077 14076 14376 14377 14382 14381
8 14072 14073 14078 14077 14377 14378 14383 14382
8 14073 11708 11707 14078 14378 11647 11646 14383
8 5753 14074 14079 5754 5692 14379 14384 5693
8 14074 14075 14080 14079 14379 14380 14385 14384
8 14075 14076 14081 14080 14380 14381 14386 14385
8 14076 14077 14082 14081 14381 14382 14387 14386
8 14077 14078 14083 14082 14382 14383 14388 14387
8 14078 11707 11706 14083 14383 11646 11645 14388
8 5754 14079 14084 5755 5693 14384 14389 5694
8 14079 14080 14085 14084 14384 14385 14390 14389
8 14080 14081 14086 14085 14385 14386 14391 14390
8 14081 14082 14087 14086 14386 14387 14392 14391
8 14082 14083 14088 14087 14387 14388 14393 14392
8 14083 11706 11705 14088 14388 11645 11644 14393
8 5755 14084 14089 5756 5694 14389 14394 5695
8 14084 14085 14090 14089 14389 14390 14395 14394
8 14085 14086 14091 14090 14390 14391 14396 14395
8 14086 14087 14092 14091 14391 14392 14397 14396
8 14087 14088 14093 14092 14392 14393 14398 14397
8 14088 11705 11704 14093 14393 11644 11643 14398
8 5756 14089 14094 5757 5695 14394 14399 5696
8 14089 14090 14095 14094 14394 14395 14400 14399
8 14090 14091 14096 14095 14395 14396 14401 14400
8 14091 14092 14097 14096 14396 14397 14402 14401
8 14092 14093 14098 14097 14397 14398 14403 14402
8 14093 11704 11703 14098 14398 11643 11642 14403
8 5757 14094 14099 5758 5696 14399 14404 5697
8 14094 14095 14100 14099 14399 14400 14405 14404
8 14095 14096 14101 14100 14400 14401 14406 14405
8 14096 14097 14102 14101 14401 14402 14407 14406
8 14097 14098 14103 14102 14402 14403 14408 14407
8 14098 11703 11702 14103 14403 11642 11641 14408
8 5758 14099 14104 5759 5697 14404 14409 5698
8 14099 14100 14105 14104 14404 14405 14410 14409
8 14100 14101 14106 14105 14405 14406 14411 14410
8 14101 14102 14107 14106 14406 14407 14412 14411
8 14102 14103 14108 14107 14407 14408 14413 14412
8 14103 11702 11701 14108 14408 11641 11640 14413
8 5759 14104 14109 5760 5698 14409 14414 5699
8 14104 14105 14110 14109 14409 14410 14415 14414
8 14105 14106 14111 14110 14410 14411 14416 14415
8 14106 14107 14112 14111 14411 14412 14417 14416
8 14107 14108 14113 14112 14412 14413 14418 14417
8 14108 11701 11700 14113 14413 11640 11639 14418
8 5760 14109 14114 5761 5699 14414 14419 5700
8 14109 14110 14115 14114 14414 14415 14420 14419
8 14110 14111 14116 14115 14415 14416 14421 14420
8 14111 14112 14117 14116 14416 14417 14422 14421
8 14112 14113 14118 14117 14417 14418 14423 14422
8 14113 11700 11699 14118 14418 11639 11638 14423
8 5761 14114 14119 5762 5700 14419 14424 5701
8 14114 14115 14120 14119 14419 14420 14425 14424
8 14115 14116 14121 14120 14420 14421 14426 14425
8 14116 14117 14122 14121 14421 14422 14427 14426
8 14117 14118 14123 14122 14422 14423 14428 14427
8 14118 11699 11698 14123 14423 11638 11637 14428
8 5762 14119 14124 5763 5701 14424 14429 5702
8 14119 14120 14125 14124 14424 14425 14430 14429
8 14120 14121 14126 14125 14425 14426 14431 14430
8 14121 14122 14127 14126 14426 14427 14432 14431
8 14122 14123 14128 14127 14427 14428 14433 14432
8 14123 11698 11697 14128 14428 11637 11636 14433
8 5763 14124 14129 5764 5702 14429 14434 5703
8 14124 14125 14130 14129 14429 14430 14435 14434
8 14125 14126 14131 14130 14430 14431 14436 14435
8 14126 14127 14132 14131 14431 14432 14437 14436
8 14127 14128 14133 14132 14432 14433 14438 14437
8 14128 11697 11696 14133 14433 11636 11635 14438
8 5764 14129 14134 5765 5703 14434 14439 5704
8 14129 14130 14135 14134 14434 14435 14440 14439
8 14130 14131 14136 14135 14435 14436 14441 14440
8 14131 14132 14137 14136 14436 14437 14442 14441
8 14132 14133 14138 14137 14437 14438 14443 14442
8 14133 11696 11695 14138 14438 11635 11634 14443
8 5765 14134 14139 5766 5704 14439 14444 5705
8 14134 14135 14140 14139 14439 14440 14445 14444
8 14135 14136 14141 14140 14440 14441 14446 14445
8 14136 14137 14142 14141 14441 14442 14447 14446
8 14137 14138 14143 14142 14442 14443 14448 14447
8 14138 11695 11694 14143 14443 11634 11633 14448
8 5766 14139 14144 5767 5705 14444 14449 5706
8 14139 14140 14145 14144 14444 14445 14450 14449
8 14140 14141 14146 14145 14445 14446 14451 14450
8 14141 14142 14147 14146 14446 14447 14452 14451
8 14142 14143 14148 14147 14447 14448 14453 14452
8 14143 11694 11693 14148 14448 11633 11632 14453
8 5767 14144 14149 5768 5706 14449 14454 5707
8 14144 14145 14150 14149 14449 14450 14455 14454
8 14145 14146 14151 14150 14450 14451 14456 14455
8 14146 14147 14152 14151 14451 14452 14457 14456
8 14147 14148 14153 14152 14452 14453 14458 14457
8 14148 11693 11692 14153 14453 11632 11631 14458
8 5768 14149 14154 5769 5707 14454 14459 5708
8 14149 14150 14155 14154 14454 14455 14460 14459
8 14150 14151 14156 14155 14455 14456 14461 14460
8 14151 14152 14157 14156 14456 14457 14462 14461
8 14152 14153 14158 14157 14457 14458 14463 14462
8 14153 11692 11691 14158 14458 11631 11630 14463
8 5769 14154 14159 5770 5708 14459 14464 5709
8 14154 14155 14160 14159 14459 14460 14465 14464
8 14155 14156 14161 14160 14460 14461 14466 14465
8 14156 14157 14162 14161 14461 14462 14467 14466
8 14157 14158 14163 14162 14462 14463 14468 14467
8 14158 11691 11690 14163 14463 11630 11629 14468
8 5770 14159 14164 5771 5709 14464 14469 5710
8 14159 14160 14165 14164 14464 14465 14470 14469
8 14160 14161 14166 14165 14465 14466 14471 14470
8 14161 14162 14167 14166 14466 14467 14472 14471
8 14162 14163 14168 14167 14467 14468 14473 14472
8 14163 11690 11689 14168 14468 11629 11628 14473
8 5771 14164 14169 5772 5710 14469 14474 5711
8 14164 14165 14170 14169 14469 14470 14475 14474
8 14165 14166 14171 14170 14470 14471 14476 14475
8 14166 14167 14172 14171 14471 14472 14477 14476
8 14167 14168 14173 14172 14472 14473 14478 14477
8 14168 11689 11688 14173 14473 11628 11627 14478
8 5772 14169 14174 5773 5711 14474 14479 5712
8 14169 14170 14175 14174 14474 14475 14480 14479
8 14170 14171 14176 14175 14475 14476 14481 14480
8 14171 14172 14177 14176 14476 14477 14482 14481
8 14172 14173 14178 14177 14477 14478 14483 14482
8 14173 11688 11687 14178 14478 11627 11626 14483
8 5773 14174 14179 5774 5712 14479 14484 5713
8 14174 14175 14180 14179 14479 14480 14485 14484
8 14175 14176 14181 14180 14480 14481 14486 14485
8 14176 14177 14182 14181 14481 14482 14487 14486
8 14177 14178 14183 14182 14482 14483 14488 14487
8 14178 11687 11686 14183 14483 11626 11625 14488
8 5774 14179 14184 5775 5713 14484 14489 5714
8 14179 14180 14185 14184 14484 14485 14490 14489
8 14180 14181 14186 14185 14485 14486 14491 14490
8 14181 14182 14187 14186 14486 14487 14492 14491
8 14182 14183 14188 14187 14487 14488 14493 14492
8 14183 11686 11685 14188 14488 11625 11624 14493
8 5775 14184 14189 5776 5714 14489 14494 5715
8 14184 14185 14190 14189 14489 14490 14495 14494
8 14185 14186 14191 14190 14490 14491 14496 14495
8 14186 14187 14192 14191 14491 14492 14497 14496
8 14187 14188 14193 14192 14492 14493 14498 14497
8 14188 11685 11684 14193 14493 11624 11623 14498
8 5776 14189 14194 5777 5715 14494 14499 5716
8 14189 14190 14195 14194 14494 14495 14500 14499
8 14190 14191 14196 14195 14495 14496 14501 14500
8 14191 14192 14197 14196 14496 14497 14502 14501
8 14192 14193 14198 14197 14497 14498 14503 14502
8 14193 11684 11683 14198 14498 11623 11622 14503
8 5777 14194 14199 5778 5716 14499 14504 5717
8 14194 14195 14200 14199 14499 14500 14505 14504
8 14195 14196 14201 14200 14500 14501 14506 14505
8 14196 14197 14202 14201 14501 14502 14507 14506
8 14197 14198 14203 14202 14502 14503 14508 14507
8 14198 11683 11682 14203 14503 11622 11621 14508
8 5778 14199 14204 5779 5717 14504 14509 5718
8 14199 14200 14205 14204 14504 14505 14510 14509
8 14200 14201 14206 14205 14505 14506 14511 14510
8 14201 14202 14207 14206 14506 14507 14512 14511
8 14202 14203 14208 14207 14507 14508 14513 14512
8 14203 11682 11681 14208 14508 11621 11620 14513
8 5779 14204 14209 5780 5718 14509 14514 5719
8 14204 14205 14210 14209 14509 14510 14515 14514
8 14205 14206 14211 14210 14510 14511 14516 14515
8 14206 14207 14212 14211 14511 14512 14517 14516
8 14207 14208 14213 14212 14512 14513 14518 14517
8 14208 11681 11680 14213 14513 11620 11619 14518
8 5780 14209 14214 5781 5719 14514 14519 5720
8 14209 14210 14215 14214 14514 14515 14520 14519
8 14210 14211 14216 14215 14515 14516 14521 14520
8 14211 14212 14217 14216 14516 14517 14522 14521
8 14212 14213 14218 14217 14517 14518 14523 14522
8 14213 11680 11679 14218 14518 11619 11618 14523
8 5781 14214 14219 5782 5720 14519 14524 5721
8 14214 14215 14220 14219 14519 14520 14525 14524
8 14215 14216 14221 14220 14520 14521 14526 14525
8 14216 14217 14222 14221 14521 14522 14527 14526
8 14217 14218 14223 14222 14522 14523 14528 14527
8 14218 11679 11678 14223 14523 11618 11617 14528
8 5782 14219 14224 5783 5721 14524 14529 5722
8 14219 14220 14225 14224 14524 14525 14530 14529
8 14220 14221 14226 14225 14525 14526 14531 14530
8 14221 14222 14227 14226 14526 14527 14532 14531
8 14222 14223 14228 14227 14527 14528 14533 14532
8 14223 11678 11677 14228 14528 11617 11616 14533
8 5783 14224 14229 5784 5722 14529 14534 5723
8 14224 14225 14230 14229 14529 14530 14535 14534
8 14225 14226 14231 14230 14530 14531 14536 14535
8 14226 14227 14232 14231 14531 14532 14537 14536
8 14227 14228 14233 14232 14532 14533 14538 14537
8 14228 11677 11676 14233 14533 11616 11615 14538
8 5784 14229 14234 5785 5723 14534 14539 5724
8 14229 14230 14235 14234 14534 14535 14540 14539
8 14230 14231 14236 14235 14535 14536 14541 14540
8 14231 14232 14237 14236 14536 14537 14542 14541
8 14232 14233 14238 14237 14537 14538 14543 14542
8 14233 11676 11675 14238 14538 11615 11614 14543
8 5785 14234 14239 5786 5724 14539 14544 5725
8 14234 14235 14240 14239 14539 14540 14545 14544
8 14235 14236 14241 14240 14540 14541 14546 14545
8 14236 14237 14242 14241 14541 14542 14547 14546
8 14237 14238 14243 14242 14542 14543 14548 14547
8 14238 11675 11674 14243 14543 11614 11613 14548
8 5786 14239 14244 5787 5725 14544 14549 5726
8 14239 14240 14245 14244 14544 14545 14550 14549
8 14240 14241 14246 14245 14545 14546 14551 14550
8 14241 14242 14247 14246 14546 14547 14552 14551
8 14242 14243 14248 14247 14547 14548 14553 14552
8 14243 11674 11673 14248 14548 11613 11612 14553
8 5787 14244 14249 5788 5726 14549 14554 5727
8 14244 14245 14250 14249 14549 14550 14555 14554
8 14245 14246 14251 14250 14550 14551 14556 14555
8 14246 14247 14252 14251 14551 14552 14557 14556
8 14247 14248 14253 14252 14552 14553 14558 14557
8 14248 11673 11672 14253 14553 11612 11611 14558
8 5788 14249 14254 5789 5727 14554 14559 5728
8 14249 14250 14255 14254 14554 14555 14560 14559
8 14250 14251 14256 14255 14555 14556 14561 14560
8 14251 14252 14257 14256 14556 14557 14562 14561
8 14252 14253 14258 14257 14557 14558 14563 14562
8 14253 11672 11671 14258 14558 11611 11610 14563
8 5789 14254 14259 5790 5728 14559 14564 5729
8 14254 14255 14260 14259 14559 14560 14565 14564
8 14255 14256 14261 14260 14560 14561 14566 14565
8 14256 14257 14262 14261 14561 14562 14567 14566
8 14257 14258 14263 14262 14562 14563 14568 14567
8 14258 11671 11670 14263 14563 11610 11609 14568
8 5790 14259 14264 5791 5729 14564 14569 5730
8 14259 14260 14265 14264 14564 14565 14570 14569
8 14260 14261 14266 14265 14565 14566 14571 14570
8 14261 14262 14267 14266 14566 14567 14572 14571
8 14262 14263 14268 14267 14567 14568 14573 14572
8 14263 11670 11669 14268 14568 11609 11608 14573
8 5791 14264 14269 5792 5730 14569 14574 5731
8 14264 14265 14270 14269 14569 14570 14575 14574
8 14265 14266 14271 14270 14570 14571 14576 14575
8 14266 14267 14272 14271 14571 14572 14577 14576
8 14267 14268 14273 14272 14572 14573 14578 14577
8 14268 11669 11668 14273 14573 11608 11607 14578
8 5792 14269 14274 5793 5731 14574 14579 5732
8 14269 14270 14275 14274 14574 14575 14580 14579
8 14270 14271 14276 14275 14575 14576 14581 14580
8 14271 14272 14277 14276 14576 14577 14582 14581
8 14272 14273 14278 14277 14577 14578 14583 14582
8 14273 11668 11667 14278 14578 11607 11606 14583
8 5793 14274 14279 5794 5732 14579 14584 5733
8 14274 14275 14280 14279 14579 14580 14585 14584
8 14275 14276 14281 14280 14580 14581 14586 14585
8 14276 14277 14282 14281 14581 14582 14587 14586
8 14277 14278 14283 14282 14582 14583 14588 14587
8 14278 11667 11666 14283 14583 11606 11605 14588
8 5794 14279 14284 5795 5733 14584 14589 5734
8 14279 14280 14285 14284 14584 14585 14590 14589
8 14280 14281 14286 14285 14585 14586 14591 14590
8 14281 14282 14287 14286 14586 14587 14592 14591
8 14282 14283 14288 14287 14587 14588 14593 14592
8 14283 11666 11665 14288 14588 11605 11604 14593
8 5795 14284 14289 5796 5734 14589 14594 5735
8 14284 14285 14290 14289 14589 14590 14595 14594
8 14285 14286 14291 14290 14590 14591 14596 14595
8 14286 14287 14292 14291 14591 14592 14597 14596
8 14287 14288 14293 14292 14592 14593 14598 14597
8 14288 11665 11664 14293 14593 11604 11603 14598
8 5796 14289 14294 5797 5735 14594 14599 5736
8 14289 14290 14295 14294 14594 14595 14600 14599
8 14290 14291 14296 14295 14595 14596 14601 14600
8 14291 14292 14297 14296 14596 14597 14602 14601
8 14292 14293 14298 14297 14597 14598 14603 14602
8 14293 11664 11663 14298 14598 11603 11602 14603
8 5797 14294 14299 5798 5736 14599 14604 5737
8 14294 14295 14300 14299 14599 14600 14605 14604
8 14295 14296 14301 14300 14600 14601 14606 14605
8 14296 14297 14302 14301 14601 14602 14607 14606
8 14297 14298 14303 14302 14602 14603 14608 14607
8 14298 11663 11662 14303 14603 11602 11601 14608
8 5798 14299 14304 5799 5737 14604 14609 5738
8 14299 14300 14305 14304 14604 14605 14610 14609
8 14300 14301 14306 14305 14605 14606 14611 14610
8 14301 14302 14307 14306 14606 14607 14612 14611
8 14302 14303 14308 14307 14607 14608 14613 14612
8 14303 11662 11661 14308 14608 11601 11600 14613
8 5799 14304 13074 153 5738 14609 13069 152
8 14304 14305 13075 13074 14609 14610 13070 13069
8 14305 14306 13076 13075 14610 14611 13071 13070
8 14306 14307 13077 13076 14611 14612 13072 13071
8 14307 14308 13078 13077 14612 14613 13073 13072
8 14308 11661 6142 13078 14613 11600 6143 13073
8 221 11869 14309 5678 222 11874 14614 5617
8 11869 11870 14310 14309 11874 11875 14615 14614
8 11870 11871 14311 14310 11875 11876 14616 14615
8 11871 11872 14312 14311 11876 11877 14617 14616
8 11872 11873 14313 14312 11877 11878 14618 14617
8 11873 6074 11660 14313 11878 6073 11599 14618
8 5678 14309 14314 5679 5617 14614 14619 5618
8 14309 14310 14315 14314 14614 14615 14620 14619
8 14310 14311 14316 14315 14615 14616 14621 14620
8 14311 14312 14317 14316 14616 14617 14622 14621
8 14312 14313 14318 14317 14617 14618 14623 14622
8 14313 11660 11659 14318 14618 11599 11598 14623
8 5679 14314 14319 5680 5618 14619 14624 5619
8 14314 14315 14320 14319 14619 14620 14625 14624
8 14315 14316 14321 14320 14620 14621 14626 14625
8 14316 14317 14322 14321 14621 14622 14627 14626
8 14317 14318 14323 14322 14622 14623 14628 14627
8 14318 11659 11658 14323 14623 11598 11597 14628
8 5680 14319 14324 5681 5619 14624 14629 5620
8 14319 14320 14325 14324 14624 14625 14630 14629
8 14320 14321 14326 14325 14625 14626 14631 14630
8 14321 14322 14327 14326 14626 14627 14632 14631
8 14322 14323 14328 14327 14627 14628 14633 14632
8 14323 11658 11657 14328 14628 11597 11596 14633
8 5681 14324 14329 5682 5620 14629 14634 5621
8 14324 14325 14330 14329 14629 14630 14635 14634
8 14325 14326 14331 14330 14630 14631 14636 14635
8 14326 14327 14332 14331 14631 14632 14637 14636
8 14327 14328 14333 14332 14632 14633 14638 14637
8 14328 11657 11656 14333 14633 11596 11595 14638
8 5682 14329 14334 5683 5621 14634 14639 5622
8 14329 14330 14335 14334 14634 14635 14640 14639
8 14330 14331 14336 14335 14635 14636 14641 14640
8 14331 14332 14337 14336 14636 14637 14642 14641
8 14332 14333 14338 14337 14637 14638 14643 14642
8 14333 11656 11655 14338 14638 11595 11594 14643
8 5683 14334 14339 5684 5622 14639 14644 5623
8 14334 14335 14340 14339 14639 14640 14645 14644
8 14335 14336 14341 14340 14640 14641 14646 14645
8 14336 14337 14342 14341 14641 14642 14647 14646
8 14337 14338 14343 14342 14642 14643 14648 14647
8 14338 11655 11654 14343 14643 11594 11593 14648
8 5684 14339 14344 5685 5623 14644 14649 5624
8 14339 14340 14345 14344 14644 14645 14650 14649
8 14340 14341 14346 14345 14645 14646 14651 14650
8 14341 14342 14347 14346 14646 14647 14652 14651
8 14342 14343 14348 14347 14647 14648 14653 14652
8 14343 11654 11653 14348 14648 11593 11592 14653
8 5685 14344 14349 5686 5624 14649 14654 5625
8 14344 14345 14350 14349 14649 14650 14655 14654
8 14345 14346 14351 14350 14650 14651 14656 14655
8 14346 14347 14352 14351 14651 14652 14657 14656
8 14347 14348 14353 14352 14652 14653 14658 14657
8 14348 11653 11652 14353 14653 11592 11591 14658
8 5686 14349 14354 5687 5625 14654 14659 5626
8 14349 14350 14355 14354 14654 14655 14660 14659
8 14350 14351 14356 14355 14655 14656 14661 14660
8 14351 14352 14357 14356 14656 14657 14662 14661
8 14352 14353 14358 14357 14657 14658 14663 14662
8 14353 11652 11651 14358 14658 11591 11590 14663
8 5687 14354 14359 5688 5626 14659 14664 5627
8 14354 14355 14360 14359 14659 14660 14665 14664
8 14355 14356 14361 14360 14660 14661 14666 14665
8 14356 14357 14362 14361 14661 14662 14667 14666
8 14357 14358 14363 14362 14662 14663 14668 14667
8 14358 11651 11650 14363 14663 11590 11589 14668
8 5688 14359 14364 5689 5627 14664 14669 5628
8 14359 14360 14365 14364 14664 14665 14670 14669
8 14360 14361 14366 14365 14665 14666 14671 14670
8 14361 14362 14367 14366 14666 14667 14672 14671
8 14362 14363 14368 14367 14667 14668 14673 14672
8 14363 11650 11649 14368 14668 11589 11588 14673
8 5689 14364 14369 5690 5628 14669 14674 5629
8 14364 14365 14370 14369 14669 14670 14675 14674
8 14365 14366 14371 14370 14670 14671 14676 14675
8 14366 14367 14372 14371 14671 14672 14677 14676
8 14367 14368 14373 14372 14672 14673 14678 14677
8 14368 11649 11648 14373 14673 11588 11587 14678
8 5690 14369 14374 5691 5629 14674 14679 5630
8 14369 14370 14375 14374 14674 14675 14680 14679
8 14370 14371 14376 14375 14675 14676 14681 14680
8 14371 14372 14377 14376 14676 14677 14682 14681
8 14372 14373 14378 14377 14677 14678 14683 14682
8 14373 11648 11647 14378 14678 11587 11586 14683
8 5691 14374 14379 5692 5630 14679 14684 5631
8 14374 14375 14380 14379 14679 14680 14685 14684
8 14375 14376 14381 14380 14680 14681 14686 14685
8 14376 14377 14382 14381 14681 14682 14687 14686
8 14377 14378 14383 14382 14682 14683 14688 14687
8 14378 11647 11646 14383 14683 11586 11585 14688
8 5692 14379 14384 5693 5631 14684 14689 5632
8 14379 14380 14385 14384 14684 14685 14690 14689
8 14380 14381 14386 14385 14685 14686 14691 14690
8 14381 14382 14387 14386 14686 14687 14692 14691
8 14382 14383 14388 14387 14687 14688 14693 14692
8 14383 11646 11645 14388 14688 11585 11584 14693
8 5693 14384 14389 5694 5632 14689 14694 5633
8 14384 14385 14390 14389 14689 14690 14695 14694
8 14385 14386 14391 14390 14690 14691 14696 14695
8 14386 14387 14392 14391 14691 14692 14697 14696
8 14387 14388 14393 14392 14692 14693 14698 14697
8 14388 11645 11644 14393 14693 11584 11583 14698
8 5694 14389 14394 5695 5633 14694 14699 5634
8 14389 14390 14395 14394 14694 14695 14700 14699
8 14390 14391 14396 14395 14695 14696 14701 14700
8 14391 14392 14397 14396 14696 14697 14702 14701
8 14392 14393 14398 14397 14697 14698 14703 14702
8 14393 11644 11643 14398 14698 11583 11582 14703
8 5695 14394 14399 5696 5634 14699 14704 5635
8 14394 14395 14400 14399 14699 14700 14705 14704
8 14395 14396 14401 14400 14700 14701 14706 14705
8 14396 14397 14402 14401 14701 14702 14707 14706
8 14397 14398 14403 14402 14702 14703 14708 14707
8 14398 11643 11642 14403 14703 11582 11581 14708
8 5696 14399 14404 5697 5635 14704 14709 5636
8 14399 14400 14405 14404 14704 14705 14710 14709
8 14400 14401 14406 14405 14705 14706 14711 14710
8 14401 14402 14407 14406 14706 14707 14712 14711
8 14402 14403 14408 14407 14707 14708 14713 14712
8 14403 11642 11641 14408 14708 11581 11580 14713
8 5697 14404 14409 5698 5636 14709 14714 5637
8 14404 14405 14410 14409 14709 14710 14715 14714
8 14405 14406 14411 14410 14710 14711 14716 14715
8 14406 14407 14412 14411 14711 14712 14717 14716
8 14407 14408 14413 14412 14712 14713 14718 14717
8 14408 11641 11640 14413 14713 11580 11579 14718
8 5698 14409 14414 5699 5637 14714 14719 5638
8 14409 14410 14415 14414 14714 14715 14720 14719
8 14410 14411 14416 14415 14715 14716 14721 14720
8 14411 14412 14417 14416 14716 14717 14722 14721
8 14412 14413 14418 14417 14717 14718 14723 14722
8 14413 11640 11639 14418 14718 11579 11578 14723
8 5699 14414 14419 5700 5638 14719 14724 5639
8 14414 14415 14420 14419 14719 14720 14725 14724
8 14415 14416 14421 14420 14720 14721 14726 14725
8 14416 14417 14422 14421 14721 14722 14727 14726
8 14417 14418 14423 14422 14722 14723 14728 14727
8 14418 11639 11638 14423 14723 11578 11577 14728
8 5700 14419 14424 5701 5639 14724 14729 5640
8 14419 14420 14425 14424 14724 14725 14730 14729
8 14420 14421 14426 14425 14725 14726 14731 14730
8 14421 14422 14427 14426 14726 14727 14732 14731
8 14422 14423 14428 14427 14727 14728 14733 14732
8 14423 11638 11637 14428 14728 11577 11576 14733
8 5701 14424 14429 5702 5640 14729 14734 5641
8 14424 14425 14430 14429 14729 14730 14735 14734
8 14425 14426 14431 14430 14730 14731 14736 14735
8 14426 14427 14432 14431 14731 14732 14737 14736
8 14427 14428 14433 14432 14732 14733 14738 14737
8 14428 11637 11636 14433 14733 11576 11575 14738
8 5702 14429 14434 5703 5641 14734 14739 5642
8 14429 14430 14435 14434 14734 14735 14740 14739
8 14430 14431 14436 14435 14735 14736 14741 14740
8 14431 14432 14437 14436 14736 14737 14742 14741
8 14432 14433 14438 14437 14737 14738 14743 14742
8 14433 11636 11635 14438 14738 11575 11574 14743
8 5703 14434 14439 5704 5642 14739 14744 5643
8 14434 14435 14440 14439 14739 14740 14745 14744
8 14435 14436 14441 14440 14740 14741 14746 14745
8 14436 14437 14442 14441 14741 14742 14747 14746
8 14437 14438 14443 14442 14742 14743 14748 14747
8 14438 11635 11634 14443 14743 11574 11573 14748
8 5704 14439 14444 5705 5643 14744 14749 5644
8 14439 14440 14445 14444 14744 14745 14750 14749
8 14440 14441 14446 14445 14745 14746 14751 14750
8 14441 14442 14447 14446 14746 14747 14752 14751
8 14442 14443 14448 14447 14747 14748 14753 14752
8 14443 11634 11633 14448 14748 11573 11572 14753
8 5705 14444 14449 5706 5644 14749 14754 5645
8 14444 14445 14450 14449 14749 14750 14755 14754
8 14445 14446 14451 14450 14750 14751 14756 14755
8 14446 14447 14452 14451 14751 14752 14757 14756
8 14447 14448 14453 14452 14752 14753 14758 14757
8 14448 11633 11632 14453 14753 11572 11571 14758
8 5706 14449 14454 5707 5645 14754 14759 5646
8 14449 14450 14455 14454 14754 14755 14760 14759
8 14450 14451 14456 14455 14755 14756 14761 14760
8 14451 14452 14457 14456 14756 14757 14762 14761
8 14452 14453 14458 14457 14757 14758 14763 14762
8 14453 11632 11631 14458 14758 11571 11570 14763
8 5707 14454 14459 5708 5646 14759 14764 5647
8 14454 14455 14460 14459 14759 14760 14765 14764
8 14455 14456 14461 14460 14760 14761 14766 14765
8 14456 14457 14462 14461 14761 14762 14767 14766
8 14457 14458 14463 14462 14762 14763 14768 14767
8 14458 11631 11630 14463 14763 11570 11569 14768
8 5708 14459 14464 5709 5647 14764 14769 5648
8 14459 14460 14465 14464 14764 14765 14770 14769
8 14460 14461 14466 14465 14765 14766 14771 14770
8 14461 14462 14467 14466 14766 14767 14772 14771
8 14462 14463 14468 14467 14767 14768 14773 14772
8 14463 11630 11629 14468 14768 11569 11568 14773
8 5709 14464 14469 5710 5648 14769 14774 5649
8 14464 14465 14470 14469 14769 14770 14775 14774
8 14465 14466 14471 14470 14770 14771 14776 14775
8 14466 14467 14472 14471 14771 14772 14777 14776
8 14467 14468 14473 14472 14772 14773 14778 14777
8 14468 11629 11628 14473 14773 11568 11567 14778
8 5710 14469 14474 5711 5649 14774 14779 5650
8 14469 14470 14475 14474 14774 14775 14780 14779
8 14470 14471 14476 14475 14775 14776 14781 14780
8 14471 14472 14477 14476 14776 14777 14782 14781
8 14472 14473 14478 14477 14777 14778 14783 14782
8 14473 11628 11627 14478 14778 11567 11566 14783
8 5711 14474 14479 5712 5650 14779 14784 5651
8 14474 14475 14480 14479 14779 14780 14785 14784
8 14475 14476 14481 14480 14780 14781 14786 14785
8 14476 14477 14482 14481 14781 14782 14787 14786
8 14477 14478 14483 14482 14782 14783 14788 14787
8 14478 11627 11626 14483 14783 11566 11565 14788
8 5712 14479 14484 5713 5651 14784 14789 5652
8 14479 14480 14485 14484 14784 14785 14790 14789
8 14480 14481 14486 14485 14785 14786 14791 14790
8 14481 14482 14487 14486 14786 14787 14792 14791
8 14482 14483 14488 14487 14787 14788 14793 14792
8 14483 11626 11625 14488 14788 11565 11564 14793
8 5713 14484 14489 5714 5652 14789 14794 5653
8 14484 14485 14490 14489 14789 14790 14795 14794
8 14485 14486 14491 14490 14790 14791 14796 14795
8 14486 14487 14492 14491 14791 14792 14797 14796
8 14487 14488 14493 14492 14792 14793 14798 14797
8 14488 11625 11624 14493 14793 11564 11563 14798
8 5714 14489 14494 5715 5653 14794 14799 5654
8 14489 14490 14495 14494 14794 14795 14800 14799
8 14490 14491 14496 14495 14795 14796 14801 14800
8 14491 14492 14497 14496 14796 14797 14802 14801
8 14492 14493 14498 14497 14797 14798 14803 14802
8 14493 11624 11623 14498 14798 11563 11562 14803
8 5715 14494 14499 5716 5654 14799 14804 5655
8 14494 14495 14500 14499 14799 14800 14805 14804
8 14495 14496 14501 14500 14800 14801 14806 14805
8 14496 14497 14502 14501 14801 14802 14807 14806
8 14497 14498 14503 14502 14802 14803 14808 14807
8 14498 11623 11622 14503 14803 11562 11561 14808
8 5716 14499 14504 5717 5655 14804 14809 5656
8 14499 14500 14505 14504 14804 14805 14810 14809
8 14500 14501 14506 14505 14805 14806 14811 14810
8 14501 14502 14507 14506 14806 14807 14812 14811
8 14502 14503 14508 14507 14807 14808 14813 14812
8 14503 11622 11621 14508 14808 11561 11560 14813
8 5717 14504 14509 5718 5656 14809 14814 5657
8 14504 14505 14510 14509 14809 14810 14815 14814
8 14505 14506 14511 14510 14810 14811 14816 14815
8 14506 14507 14512 14511 14811 14812 14817 14816
8 14507 14508 14513 14512 14812 14813 14818 14817
8 14508 11621 11620 14513 14813 11560 11559 14818
8 5718 14509 14514 5719 5657 14814 14819 5658
8 14509 14510 14515 14514 14814 14815 14820 14819
8 14510 14511 14516 14515 14815 14816 14821 14820
8 14511 14512 14517 14516 14816 14817 14822 14821
8 14512 14513 14518 14517 14817 14818 14823 14822
8 14513 11620 11619 14518 14818 11559 11558 14823
8 5719 14514 14519 5720 5658 14819 14824 5659
8 14514 14515 14520 14519 14819 14820 14825 14824
8 14515 14516 14521 14520 14820 14821 14826 14825
8 14516 14517 14522 14521 14821 14822 14827 14826
8 14517 14518 14523 14522 14822 14823 14828 14827
8 14518 11619 11618 14523 14823 11558 11557 14828
8 5720 14519 14524 5721 5659 14824 14829 5660
8 14519 14520 14525 14524 14824 14825 14830 14829
8 14520 14521 14526 14525 14825 14826 14831 14830
8 14521 14522 14527 14526 14826 14827 14832 14831
8 14522 14523 14528 14527 14827 14828 14833 14832
8 14523 11618 11617 14528 14828 11557 11556 14833
8 5721 14524 14529 5722 5660 14829 14834 5661
8 14524 14525 14530 14529 14829 14830 14835 14834
8 14525 14526 14531 14530 14830 14831 14836 14835
8 14526 14527 14532 14531 14831 14832 14837 14836
8 14527 14528 14533 14532 14832 14833 14838 14837
8 14528 11617 11616 14533 14833 11556 11555 14838
8 5722 14529 14534 5723 5661 14834 14839 5662
8 14529 14530 14535 14534 14834 14835 14840 14839
8 14530 14531 14536 14535 14835 14836 14841 14840
8 14531 14532 14537 14536 14836 14837 14842 14841
8 14532 14533 14538 14537 14837 14838 14843 14842
8 14533 11616 11615 14538 14838 11555 11554 14843
8 5723 14534 14539 5724 5662 14839 14844 5663
8 14534 14535 14540 14539 14839 14840 14845 14844
8 14535 14536 14541 14540 14840 14841 14846 14845
8 14536 14537 14542 14541 14841 14842 14847 14846
8 14537 14538 14543 14542 14842 14843 14848 14847
8 14538 11615 11614 14543 14843 11554 11553 14848
8 5724 14539 14544 5725 5663 14844 14849 5664
8 14539 14540 14545 14544 14844 14845 14850 14849
8 14540 14541 14546 14545 14845 14846 14851 14850
8 14541 14542 14547 14546 14846 14847 14852 14851
8 14542 14543 14548 14547 14847 14848 14853 14852
8 14543 11614 11613 14548 14848 11553 11552 14853
8 5725 14544 14549 5726 5664 14849 14854 5665
8 14544 14545 14550 14549 14849 14850 14855 14854
8 14545 14546 14551 14550 14850 14851 14856 14855
8 14546 14547 14552 14551 14851 14852 14857 14856
8 14547 14548 14553 14552 14852 14853 14858 14857
8 14548 11613 11612 14553 14853 11552 11551 14858
8 5726 14549 14554 5727 5665 14854 14859 5666
8 14549 14550 14555 14554 14854 14855 14860 14859
8 14550 14551 14556 14555 14855 14856 14861 14860
8 14551 14552 14557 14556 14856 14857 14862 14861
8 14552 14553 14558 14557 14857 14858 14863 14862
8 14553 11612 11611 14558 14858 11551 11550 14863
8 5727 14554 14559 5728 5666 14859 14864 5667
8 14554 14555 14560 14559 14859 14860 14865 14864
8 14555 14556 14561 14560 14860 14861 14866 14865
8 14556 14557 14562 14561 14861 14862 14867 14866
8 14557 14558 14563 14562 14862 14863 14868 14867
8 14558 11611 11610 14563 14863 11550 11549 14868
8 5728 14559 14564 5729 5667 14864 14869 5668
8 14559 14560 14565 14564 14864 14865 14870 14869
8 14560 14561 14566 14565 14865 14866 14871 14870
8 14561 14562 14567 14566 14866 14867 14872 14871
8 14562 14563 14568 14567 14867 14868 14873 14872
8 14563 11610 11609 14568 14868 11549 11548 14873
8 5729 14564 14569 5730 5668 14869 14874 5669
8 14564 14565 14570 14569 14869 14870 14875 14874
8 14565 14566 14571 14570 14870 14871 14876 14875
8 14566 14567 14572 14571 14871 14872 14877 14876
8 14567 14568 14573 14572 14872 14873 14878 14877
8 14568 11609 11608 14573 14873 11548 11547 14878
8 5730 14569 14574 5731 5669 14874 14879 5670
8 14569 14570 14575 14574 14874 14875 14880 14879
8 14570 14571 14576 14575 14875 14876 14881 14880
8 14571 14572 14577 14576 14876 14877 14882 14881
8 14572 14573 14578 14577 14877 14878 14883 14882
8 14573 11608 11607 14578 14878 11547 11546 14883
8 5731 14574 14579 5732 5670 14879 14884 5671
8 14574 14575 14580 14579 14879 14880 14885 14884
8 14575 14576 14581 14580 14880 14881 14886 14885
8 14576 14577 14582 14581 14881 14882 14887 14886
8 14577 14578 14583 14582 14882 14883 14888 14887
8 14578 11607 11606 14583 14883 11546 11545 14888
8 5732 14579 14584 5733 5671 14884 14889 5672
8 14579 14580 14585 14584 14884 14885 14890 14889
8 14580 14581 14586 14585 14885 14886 14891 14890
8 14581 14582 14587 14586 14886 14887 14892 14891
8 14582 14583 14588 14587 14887 14888 14893 14892
8 14583 11606 11605 14588 14888 11545 11544 14893
8 5733 14584 14589 5734 5672 14889 14894 5673
8 14584 14585 14590 14589 14889 14890 14895 14894
8 14585 14586 14591 14590 14890 14891 14896 14895
8 14586 14587 14592 14591 14891 14892 14897 14896
8 14587 14588 14593 14592 14892 14893 14898 14897
8 14588 11605 11604 14593 14893 11544 11543 14898
8 5734 14589 14594 5735 5673 14894 14899 5674
8 14589 14590 14595 14594 14894 14895 14900 14899
8 14590 14591 14596 14595 14895 14896 14901 14900
8 14591 14592 14597 14596 14896 14897 14902 14901
8 14592 14593 14598 14597 14897 14898 14903 14902
8 14593 11604 11603 14598 14898 11543 11542 14903
8 5735 14594 14599 5736 5674 14899 14904 5675
8 14594 14595 14600 14599 14899 14900 14905 14904
8 14595 14596 14601 14600 14900 14901 14906 14905
8 14596 14597 14602 14601 14901 14902 14907 14906
8 14597 14598 14603 14602 14902 14903 14908 14907
8 14598 11603 11602 14603 14903 11542 11541 14908
8 5736 14599 14604 5737 5675 14904 14909 5676
8 14599 14600 14605 14604 14904 14905 14910 14909
8 14600 14601 14606 14605 14905 14906 14911 14910
8 14601 14602 14607 14606 14906 14907 14912 14911
8 14602 14603 14608 14607 14907 14908 14913 14912
8 14603 11602 11601 14608 14908 11541 11540 14913
8 5737 14604 14609 5738 5676 14909 14914 5677
8 14604 14605 14610 14609 14909 14910 14915 14914
8 14605 14606 14611 14610 14910 14911 14916 14915
8 14606 14607 14612 14611 14911 14912 14917 14916
8 14607 14608 14613 14612 14912 14913 14918 14917
8 14608 11601 11600 14613 14913 11540 11539 14918
8 5738 14609 13069 152 5677 14914 13064 151
8 14609 14610 13070 13069 14914 14915 13065 13064
8 14610 14611 13071 13070 14915 14916 13066 13065
8 14611 14612 13072 13071 14916 14917 13067 13066
8 14612 14613 13073 13072 14917 14918 13068 13067
8 14613 11600 6143 13073 14918 11539 6144 13068
8 222 11874 14614 5617 223 11879 14919 5556
8 11874 11875 14615 14614 11879 11880 14920 14919
8 11875 11876 14616 14615 11880 11881 14921 14920
8 11876 11877 14617 14616 11881 11882 14922 14921
8 11877 11878 14618 14617 11882 11883 14923 14922
8 11878 6073 11599 14618 11883 6072 11538 14923
8 5617 14614 14619 5618 5556 14919 14924 5557
8 14614 14615 14620 14619 14919 14920 14925 14924
8 14615 14616 14621 14620 14920 14921 14926 14925
8 14616 14617 14622 14621 14921 14922 14927 14926
8 14617 14618 14623 14622 14922 14923 14928 14927
8 14618 11599 11598 14623 14923 11538 11537 14928
8 5618 14619 14624 5619 5557 14924 14929 5558
8 14619 14620 14625 14624 14924 14925 14930 14929
8 14620 14621 14626 14625 14925 14926 14931 14930
8 14621 14622 14627 14626 14926 14927 14932 14931
8 14622 14623 14628 14627 14927 14928 14933 14932
8 14623 11598 11597 14628 14928 11537 11536 14933
8 5619 14624 14629 5620 5558 14929 14934 5559
8 14624 14625 14630 14629 14929 14930 14935 14934
8 14625 14626 14631 14630 14930 14931 14936 14935
8 14626 14627 14632 14631 14931 14932 14937 14936
8 14627 14628 14633 14632 14932 14933 14938 14937
8 14628 11597 11596 14633 14933 11536 11535 14938
8 5620 14629 14634 5621 5559 14934 14939 5560
8 14629 14630 14635 14634 14934 14935 14940 14939
8 14630 14631 14636 14635 14935 14936 14941 14940
8 14631 14632 14637 14636 14936 14937 14942 14941
8 14632 14633 14638 14637 14937 14938 14943 14942
8 14633 11596 11595 14638 14938 11535 11534 14943
8 5621 14634 14639 5622 5560 14939 14944 5561
8 14634 14635 14640 14639 14939 14940 14945 14944
8 14635 14636 14641 14640 14940 14941 14946 14945
8 14636 14637 14642 14641 14941 14942 14947 14946
8 14637 14638 14643 14642 14942 14943 14948 14947
8 14638 11595 11594 14643 14943 11534 11533 14948
8 5622 14639 14644 5623 5561 14944 14949 5562
8 14639 14640 14645 14644 14944 14945 14950 14949
8 14640 14641 14646 14645 14945 14946 14951 14950
8 14641 14642 14647 14646 14946 14947 14952 14951
8 14642 14643 14648 14647 14947 14948 14953 14952
8 14643 11594 11593 14648 14948 11533 11532 14953
8 5623 14644 14649 5624 5562 14949 14954 5563
8 14644 14645 14650 14649 14949 14950 14955 14954
8 14645 14646 14651 14650 14950 14951 14956 14955
8 14646 14647 14652 14651 14951 14952 14957 14956
8 14647 14648 14653 14652 14952 14953 14958 14957
8 14648 11593 11592 14653 14953 11532 11531 14958
8 5624 14649 14654 5625 5563 14954 14959 5564
8 14649 14650 14655 14654 14954 14955 14960 14959
8 14650 14651 14656 14655 14955 14956 14961 14960
8 14651 14652 14657 14656 14956 14957 14962 14961
8 14652 14653 14658 14657 14957 14958 14963 14962
8 14653 11592 11591 14658 14958 11531 11530 14963
8 5625 14654 14659 5626 5564 14959 14964 5565
8 14654 14655 14660 14659 14959 14960 14965 14964
8 14655 14656 14661 14660 14960 14961 14966 14965
8 14656 14657 14662 14661 14961 14962 14967 14966
8 14657 14658 14663 14662 14962 14963 14968 14967
8 14658 11591 11590 14663 14963 11530 11529 14968
8 5626 14659 14664 5627 5565 14964 14969 5566
8 14659 14660 14665 14664 14964 14965 14970 14969
8 14660 14661 14666 14665 14965 14966 14971 14970
8 14661 14662 14667 14666 14966 14967 14972 14971
8 14662 14663 14668 14667 14967 14968 14973 14972
8 14663 11590 11589 14668 14968 11529 11528 14973
8 5627 14664 14669 5628 5566 14969 14974 5567
8 14664 14665 14670 14669 14969 14970 14975 14974
8 14665 14666 14671 14670 14970 14971 14976 14975
8 14666 14667 14672 14671 14971 14972 14977 14976
8 14667 14668 14673 14672 14972 14973 14978 14977
8 14668 11589 11588 14673 14973 11528 11527 14978
8 5628 14669 14674 5629 5567 14974 14979 5568
8 14669 14670 14675 14674 14974 14975 14980 14979
8 14670 14671 14676 14675 14975 14976 14981 14980
8 14671 14672 14677 14676 14976 14977 14982 14981
8 14672 14673 14678 14677 14977 14978 14983 14982
8 14673 11588 11587 14678 14978 11527 11526 14983
8 5629 14674 14679 5630 5568 14979 14984 5569
8 14674 14675 14680 14679 14979 14980 14985 14984
8 14675 14676 14681 14680 14980 14981 14986 14985
8 14676 14677 14682 14681 14981 14982 14987 14986
8 14677 14678 14683 14682 14982 14983 14988 14987
8 14678 11587 11586 14683 14983 11526 11525 14988
8 5630 14679 14684 5631 5569 14984 14989 5570
8 14679 14680 14685 14684 14984 14985 14990 14989
8 14680 14681 14686 14685 14985 14986 14991 14990
8 14681 14682 14687 14686 14986 14987 14992 14991
8 14682 14683 14688 14687 14987 14988 14993 14992
8 14683 11586 11585 14688 14988 11525 11524 14993
8 5631 14684 14689 5632 5570 14989 14994 5571
8 14684 14685 14690 14689 14989 14990 14995 14994
8 14685 14686 14691 14690 14990 14991 14996 14995
8 14686 14687 14692 14691 14991 14992 14997 14996
8 14687 14688 14693 14692 14992 14993 14998 14997
8 14688 11585 11584 14693 14993 11524 11523 14998
8 5632 14689 14694 5633 5571 14994 14999 5572
8 14689 14690 14695 14694 14994 14995 15000 14999
8 14690 14691 14696 14695 14995 14996 15001 15000
8 14691 14692 14697 14696 14996 14997 15002 15001
8 14692 14693 14698 14697 14997 14998 15003 15002
8 14693 11584 11583 14698 14998 11523 11522 15003
8 5633 14694 14699 5634 5572 14999 15004 5573
8 14694 14695 14700 14699 14999 15000 15005 15004
8 14695 14696 14701 14700 15000 15001 15006 15005
8 14696 14697 14702 14701 15001 15002 15007 15006
8 14697 14698 14703 14702 15002 15003 15008 15007
8 14698 11583 11582 14703 15003 11522 11521 15008
8 5634 14699 14704 5635 5573 15004 15009 5574
8 14699 14700 14705 14704 15004 15005 15010 15009
8 14700 14701 14706 14705 15005 15006 15011 15010
8 14701 14702 14707 14706 15006 15007 15012 15011
8 14702 14703 14708 14707 15007 15008 15013 15012
8 14703 11582 11581 14708 15008 11521 11520 15013
8 5635 14704 14709 5636 5574 15009 15014 5575
8 14704 14705 14710 14709 15009 15010 15015 15014
8 14705 14706 14711 14710 15010 15011 15016 15015
8 14706 14707 14712 14711 15011 15012 15017 15016
8 14707 14708 14713 14712 15012 15013 15018 15017
8 14708 11581 11580 14713 15013 11520 11519 15018
8 5636 14709 14714 5637 5575 15014 15019 5576
8 14709 14710 14715 14714 15014 15015 15020 15019
8 14710 14711 14716 14715 15015 15016 15021 15020
8 14711 14712 14717 14716 15016 15017 15022 15021
8 14712 14713 14718 14717 15017 15018 15023 15022
8 14713 11580 11579 14718 15018 11519 11518 15023
8 5637 14714 14719 5638 5576 15019 15024 5577
8 14714 14715 14720 14719 15019 15020 15025 15024
8 14715 14716 14721 14720 15020 15021 15026 15025
8 14716 14717 14722 14721 15021 15022 15027 15026
8 14717 14718 14723 14722 15022 15023 15028 15027
8 14718 11579 11578 14723 15023 11518 11517 15028
8 5638 14719 14724 5639 5577 15024 15029 5578
8 14719 14720 14725 14724 15024 15025 15030 15029
8 14720 14721 14726 14725 15025 15026 15031 15030
8 14721 14722 14727 14726 15026 15027 15032 15031
8 14722 14723 14728 14727 15027 15028 15033 15032
8 14723 11578 11577 14728 15028 11517 11516 15033
8 5639 14724 14729 5640 5578 15029 15034 5579
8 14724 14725 14730 14729 15029 15030 15035 15034
8 14725 14726 14731 14730 15030 15031 15036 15035
8 14726 14727 14732 14731 15031 15032 15037 15036
8 14727 14728 14733 14732 15032 15033 15038 15037
8 14728 11577 11576 14733 15033 11516 11515 15038
8 5640 14729 14734 5641 5579 15034 15039 5580
8 14729 14730 14735 14734 15034 15035 15040 15039
8 14730 14731 14736 14735 15035 15036 15041 15040
8 14731 14732 14737 14736 15036 15037 15042 15041
8 14732 14733 14738 14737 15037 15038 15043 15042
8 14733 11576 11575 14738 15038 11515 11514 15043
8 5641 14734 14739 5642 5580 15039 15044 5581
8 14734 14735 14740 14739 15039 15040 15045 15044
8 14735 14736 14741 14740 15040 15041 15046 15045
8 14736 14737 14742 14741 15041 15042 15047 15046
8 14737 14738 14743 14742 15042 15043 15048 15047
8 14738 11575 11574 14743 15043 11514 11513 15048
8 5642 14739 14744 5643 5581 15044 15049 5582
8 14739 14740 14745 14744 15044 15045 15050 15049
8 14740 14741 14746 14745 15045 15046 15051 15050
8 14741 14742 14747 14746 15046 15047 15052 15051
8 14742 14743 14748 14747 15047 15048 15053 15052
8 14743 11574 11573 14748 15048 11513 11512 15053
8 5643 14744 14749 5644 5582 15049 15054 5583
8 14744 14745 14750 14749 15049 15050 15055 15054
8 14745 14746 14751 14750 15050 15051 15056 15055
8 14746 14747 14752 14751 15051 15052 15057 15056
8 14747 14748 14753 14752 15052 15053 15058 15057
8 14748 11573 11572 14753 15053 11512 11511 15058
8 5644 14749 14754 5645 5583 15054 15059 5584
8 14749 14750 14755 14754 15054 15055 15060 15059
8 14750 14751 14756 14755 15055 15056 15061 15060
8 14751 14752 14757 14756 15056 15057 15062 15061
8 14752 14753 14758 14757 15057 15058 15063 15062
8 14753 11572 11571 14758 15058 11511 11510 15063
8 5645 14754 14759 5646 5584 15059 15064 5585
8 14754 14755 14760 14759 15059 15060 15065 15064
8 14755 14756 14761 14760 15060 15061 15066 15065
8 14756 14757 14762 14761 15061 15062 15067 15066
8 14757 14758 14763 14762 15062 15063 15068 15067
8 14758 11571 11570 14763 15063 11510 11509 15068
8 5646 14759 14764 5647 5585 15064 15069 5586
8 14759 14760 14765 14764 15064 15065 15070 15069
8 14760 14761 14766 14765 15065 15066 15071 15070
8 14761 14762 14767 14766 15066 15067 15072 15071
8 14762 14763 14768 14767 15067 15068 15073 15072
8 14763 11570 11569 14768 15068 11509 11508 15073
8 5647 14764 14769 5648 5586 15069 15074 5587
8 14764 14765 14770 14769 15069 15070 15075 15074
8 14765 14766 14771 14770 15070 15071 15076 15075
8 14766 14767 14772 14771 15071 15072 15077 15076
8 14767 14768 14773 14772 15072 15073 15078 15077
8 14768 11569 11568 14773 15073 11508 11507 15078
8 5648 14769 14774 5649 5587 15074 15079 5588
8 14769 14770 14775 14774 15074 15075 15080 15079
8 14770 14771 14776 14775 15075 15076 15081 15080
8 14771 14772 14777 14776 15076 15077 15082 15081
8 14772 14773 14778 14777 15077 15078 15083 15082
8 14773 11568 11567 14778 15078 11507 11506 15083
8 5649 14774 14779 5650 5588 15079 15084 5589
8 14774 14775 14780 14779 15079 15080 15085 15084
8 14775 14776 14781 14780 15080 15081 15086 15085
8 14776 14777 14782 14781 15081 15082 15087 15086
8 14777 14778 14783 14782 15082 15083 15088 15087
8 14778 11567 11566 14783 15083 11506 11505 15088
8 5650 14779 14784 5651 5589 15084 15089 5590
8 14779 14780 14785 14784 15084 15085 15090 15089
8 14780 14781 14786 14785 15085 15086 15091 15090
8 14781 14782 14787 14786 15086 15087 15092 15091
8 14782 14783 14788 14787 15087 15088 15093 15092
8 14783 11566 11565 14788 15088 11505 11504 15093
8 5651 14784 14789 5652 5590 15089 15094 5591
8 14784 14785 14790 14789 15089 15090 15095 15094
8 14785 14786 14791 14790 15090 15091 15096 15095
8 14786 14787 14792 14791 15091 15092 15097 15096
8 14787 14788 14793 14792 15092 15093 15098 15097
8 14788 11565 11564 14793 15093 11504 11503 15098
8 5652 14789 14794 5653 5591 15094 15099 5592
8 14789 14790 14795 14794 15094 15095 15100 15099
8 14790 14791 14796 14795 15095 15096 15101 15100
8 14791 14792 14797 14796 15096 15097 15102 15101
8 14792 14793 14798 14797 15097 15098 15103 15102
8 14793 11564 11563 14798 15098 11503 11502 15103
8 5653 14794 14799 5654 5592 15099 15104 5593
8 14794 14795 14800 14799 15099 15100 15105 15104
8 14795 14796 14801 14800 15100 15101 15106 15105
8 14796 14797 14802 14801 15101 15102 15107 15106
8 14797 14798 14803 14802 15102 15103 15108 15107
8 14798 11563 11562 14803 15103 11502 11501 15108
8 5654 14799 14804 5655 5593 15104 15109 5594
8 14799 14800 14805 14804 15104 15105 15110 15109
8 14800 14801 14806 14805 15105 15106 15111 15110
8 14801 14802 14807 14806 15106 15107 15112 15111
8 14802 14803 14808 14807 15107 15108 15113 15112
8 14803 11562 11561 14808 15108 11501 11500 15113
8 5655 14804 14809 5656 5594 15109 15114 5595
8 14804 14805 14810 14809 15109 15110 15115 15114
8 14805 14806 14811 14810 15110 15111 15116 15115
8 14806 14807 14812 14811 15111 15112 15117 15116
8 14807 14808 14813 14812 15112 15113 15118 15117
8 14808 11561 11560 14813 15113 11500 11499 15118
8 5656 14809 14814 5657 5595 15114 15119 5596
8 14809 14810 14815 14814 15114 15115 15120 15119
8 14810 14811 14816 14815 15115 15116 15121 15120
8 14811 14812 14817 14816 15116 15117 15122 15121
8 14812 14813 14818 14817 15117 15118 15123 15122
8 14813 11560 11559 14818 15118 11499 11498 15123
8 5657 14814 14819 5658 5596 15119 15124 5597
8 14814 14815 14820 14819 15119 15120 15125 15124
8 14815 14816 14821 14820 15120 15121 15126 15125
8 14816 14817 14822 14821 15121 15122 15127 15126
8 14817 14818 14823 14822 15122 15123 15128 15127
8 14818 11559 11558 14823 15123 11498 11497 15128
8 5658 14819 14824 5659 5597 15124 15129 5598
8 14819 14820 14825 14824 15124 15125 15130 15129
8 14820 14821 14826 14825 15125 15126 15131 15130
8 14821 14822 14827 14826 15126 15127 15132 15131
8 14822 14823 14828 14827 15127 15128 15133 15132
8 14823 11558 11557 14828 15128 11497 11496 15133
8 5659 14824 14829 5660 5598 15129 15134 5599
8 14824 14825 14830 14829 15129 15130 15135 15134
8 14825 14826 14831 14830 15130 15131 15136 15135
8 14826 14827 14832 14831 15131 15132 15137 15136
8 14827 14828 14833 14832 15132 15133 15138 15137
8 14828 11557 11556 14833 15133 11496 11495 15138
8 5660 14829 14834 5661 5599 15134 15139 5600
8 14829 14830 14835 14834 15134 15135 15140 15139
8 14830 14831 14836 14835 15135 15136 15141 15140
8 14831 14832 14837 14836 15136 15137 15142 15141
8 14832 14833 14838 14837 15137 15138 15143 15142
8 14833 11556 11555 14838 15138 11495 11494 15143
8 5661 14834 14839 5662 5600 15139 15144 5601
8 14834 14835 14840 14839 15139 15140 15145 15144
8 14835 14836 14841 14840 15140 15141 15146 15145
8 14836 14837 14842 14841 15141 15142 15147 15146
8 14837 14838 14843 14842 15142 15143 15148 15147
8 14838 11555 11554 14843 15143 11494 11493 15148
8 5662 14839 14844 5663 5601 15144 15149 5602
8 14839 14840 14845 14844 15144 15145 15150 15149
8 14840 14841 14846 14845 15145 15146 15151 15150
8 14841 14842 14847 14846 15146 15147 15152 15151
8 14842 14843 14848 14847 15147 15148 15153 15152
8 14843 11554 11553 14848 15148 11493 11492 15153
8 5663 14844 14849 5664 5602 15149 15154 5603
8 14844 14845 14850 14849 15149 15150 15155 15154
8 14845 14846 14851 14850 15150 15151 15156 15155
8 14846 14847 14852 14851 15151 15152 15157 15156
8 14847 14848 14853 14852 15152 15153 15158 15157
8 14848 11553 11552 14853 15153 11492 11491 15158
8 5664 14849 14854 5665 5603 15154 15159 5604
8 14849 14850 14855 14854 15154 15155 15160 15159
8 14850 14851 14856 14855 15155 15156 15161 15160
8 14851 14852 14857 14856 15156 15157 15162 15161
8 14852 14853 14858 14857 15157 15158 15163 15162
8 14853 11552 11551 14858 15158 11491 11490 15163
8 5665 14854 14859 5666 5604 15159 15164 5605
8 14854 14855 14860 14859 15159 15160 15165 15164
8 14855 14856 14861 14860 15160 15161 15166 15165
8 14856 14857 14862 14861 15161 15162 15167 15166
8 14857 14858 14863 14862 15162 15163 15168 15167
8 14858 11551 11550 14863 15163 11490 11489 15168
8 5666 14859 14864 5667 5605 15164 15169 5606
8 14859 14860 14865 14864 15164 15165 15170 15169
8 14860 14861 14866 14865 15165 15166 15171 15170
8 14861 14862 14867 14866 15166 15167 15172 15171
8 14862 14863 14868 14867 15167 15168 15173 15172
8 14863 11550 11549 14868 15168 11489 11488 15173
8 5667 14864 14869 5668 5606 15169 15174 5607
8 14864 14865 14870 14869 15169 15170 15175 15174
8 14865 14866 14871 14870 15170 15171 15176 15175
8 14866 14867 14872 14871 15171 15172 15177 15176
8 14867 14868 14873 14872 15172 15173 15178 15177
8 14868 11549 11548 14873 15173 11488 11487 15178
8 5668 14869 14874 5669 5607 15174 15179 5608
8 14869 14870 14875 14874 15174 15175 15180 15179
8 14870 14871 14876 14875 15175 15176 15181 15180
8 14871 14872 14877 14876 15176 15177 15182 15181
8 14872 14873 14878 14877 15177 15178 15183 15182
8 14873 11548 11547 14878 15178 11487 11486 15183
8 5669 14874 14879 5670 5608 15179 15184 5609
8 14874 14875 14880 14879 15179 15180 15185 15184
8 14875 14876 14881 14880 15180 15181 15186 15185
8 14876 14877 14882 14881 15181 15182 15187 15186
8 14877 14878 14883 14882 15182 15183 15188 15187
8 14878 11547 11546 14883 15183 11486 11485 15188
8 5670 14879 14884 5671 5609 15184 15189 5610
8 14879 14880 14885 14884 15184 15185 15190 15189
8 14880 14881 14886 14885 15185 15186 15191 15190
8 14881 14882 14887 14886 15186 15187 15192 15191
8 14882 14883 14888 14887 15187 15188 15193 15192
8 14883 11546 11545 14888 15188 11485 11484 15193
8 5671 14884 14889 5672 5610 15189 15194 5611
8 14884 14885 14890 14889 15189 15190 15195 15194
8 14885 14886 14891 14890 15190 15191 15196 15195
8 14886 14887 14892 14891 15191 15192 15197 15196
8 14887 14888 14893 14892 15192 15193 15198 15197
8 14888 11545 11544 14893 15193 11484 11483 15198
8 5672 14889 14894 5673 5611 15194 15199 5612
8 14889 14890 14895 14894 15194 15195 15200 15199
8 14890 14891 14896 14895 15195 15196 15201 15200
8 14891 14892 14897 14896 15196 15197 15202 15201
8 14892 14893 14898 14897 15197 15198 15203 15202
8 14893 11544 11543 14898 15198 11483 11482 15203
8 5673 14894 14899 5674 5612 15199 15204 5613
8 14894 14895 14900 14899 15199 15200 15205 15204
8 14895 14896 14901 14900 15200 15201 15206 15205
8 14896 14897 14902 14901 15201 15202 15207 15206
8 14897 14898 14903 14902 15202 15203 15208 15207
8 14898 11543 11542 14903 15203 11482 11481 15208
8 5674 14899 14904 5675 5613 15204 15209 5614
8 14899 14900 14905 14904 15204 15205 15210 15209
8 14900 14901 14906 14905 15205 15206 15211 15210
8 14901 14902 14907 14906 15206 15207 15212 15211
8 14902 14903 14908 14907 15207 15208 15213 15212
8 14903 11542 11541 14908 15208 11481 11480 15213
8 5675 14904 14909 5676 5614 15209 15214 5615
8 14904 14905 14910 14909 15209 15210 15215 15214
8 14905 14906 14911 14910 15210 15211 15216 15215
8 14906 14907 14912 14911 15211 15212 15217 15216
8 14907 14908 14913 14912 15212 15213 15218 15217
8 14908 11541 11540 14913 15213 11480 11479 15218
8 5676 14909 14914 5677 5615 15214 15219 5616
8 14909 14910 14915 14914 15214 15215 15220 15219
8 14910 14911 14916 14915 15215 15216 15221 15220
8 14911 14912 14917 14916 15216 15217 15222 15221
8 14912 14913 14918 14917 15217 15218 15223 15222
8 14913 11540 11539 14918 15218 11479 11478 15223
8 5677 14914 13064 151 5616 15219 13059 150
8 14914 14915 13065 13064 15219 15220 13060 13059
8 14915 14916 13066 13065 15220 15221 13061 13060
8 14916 14917 13067 13066 15221 15222 13062 13061
8 14917 14918 13068 13067 15222 15223 13063 13062
8 14918 11539 6144 13068 15223 11478 6145 13063
8 223 11879 14919 5556 224 11884 15224 5495
8 11879 11880 14920 14919 11884 11885 15225 15224
8 11880 11881 14921 14920 11885 11886 15226 15225
8 11881 11882 14922 14921 11886 11887 15227 15226
8 11882 11883 14923 14922 11887 11888 15228 15227
8 11883 6072 11538 14923 11888 6071 11477 15228
8 5556 14919 14924 5557 5495 15224 15229 5496
8 14919 14920 14925 14924 15224 15225 15230 15229
8 14920 14921 14926 14925 15225 15226 15231 15230
8 14921 14922 14927 14926 15226 15227 15232 15231
8 14922 14923 14928 14927 15227 15228 15233 15232
8 14923 11538 11537 14928 15228 11477 11476 15233
8 5557 14924 14929 5558 5496 15229 15234 5497
8 14924 14925 14930 14929 15229 15230 15235 15234
8 14925 14926 14931 14930 15230 15231 15236 15235
8 14926 14927 14932 14931 15231 15232 15237 15236
8 14927 14928 14933 14932 15232 15233 15238 15237
8 14928 11537 11536 14933 15233 11476 11475 15238
8 5558 14929 14934 5559 5497 15234 15239 5498
8 14929 14930 14935 14934 15234 15235 15240 15239
8 14930 14931 14936 14935 15235 15236 15241 15240
8 14931 14932 14937 14936 15236 15237 15242 15241
8 14932 14933 14938 14937 15237 15238 15243 15242
8 14933 11536 11535 14938 15238 11475 11474 15243
8 5559 14934 14939 5560 5498 15239 15244 5499
8 14934 14935 14940 14939 15239 15240 15245 15244
8 14935 14936 14941 14940 15240 15241 15246 15245
8 14936 14937 14942 14941 15241 15242 15247 15246
8 14937 14938 14943 14942 15242 15243 15248 15247
8 14938 11535 11534 14943 15243 11474 11473 15248
8 5560 14939 14944 5561 5499 15244 15249 5500
8 14939 14940 14945 14944 15244 15245 15250 15249
8 14940 14941 14946 14945 15245 15246 15251 15250
8 14941 14942 14947 14946 15246 15247 15252 15251
8 14942 14943 14948 14947 15247 15248 15253 15252
8 14943 11534 11533 14948 15248 11473 11472 15253
8 5561 14944 14949 5562 5500 15249 15254 5501
8 14944 14945 14950 14949 15249 15250 15255 15254
8 14945 14946 14951 14950 15250 15251 15256 15255
8 14946 14947 14952 14951 15251 15252 15257 15256
8 14947 14948 14953 14952 15252 15253 15258 15257
8 14948 11533 11532 14953 15253 11472 11471 15258
8 5562 14949 14954 5563 5501 15254 15259 5502
8 14949 14950 14955 14954 15254 15255 15260 15259
8 14950 14951 14956 14955 15255 15256 15261 15260
8 14951 14952 14957 14956 15256 15257 15262 15261
8 14952 14953 14958 14957 15257 15258 15263 15262
8 14953 11532 11531 14958 15258 11471 11470 15263
8 5563 14954 14959 5564 5502 15259 15264 5503
8 14954 14955 14960 14959 15259 15260 15265 15264
8 14955 14956 14961 14960 15260 15261 15266 15265
8 14956 14957 14962 14961 15261 15262 15267 15266
8 14957 14958 14963 14962 15262 15263 15268 15267
8 14958 11531 11530 14963 15263 11470 11469 15268
8 5564 14959 14964 5565 5503 15264 15269 5504
8 14959 14960 14965 14964 15264 15265 15270 15269
8 14960 14961 14966 14965 15265 15266 15271 15270
8 14961 14962 14967 14966 15266 15267 15272 15271
8 14962 14963 14968 14967 15267 15268 15273 15272
8 14963 11530 11529 14968 15268 11469 11468 15273
8 5565 14964 14969 5566 5504 15269 15274 5505
8 14964 14965 14970 14969 15269 15270 15275 15274
8 14965 14966 14971 14970 15270 15271 15276 15275
8 14966 14967 14972 14971 15271 15272 15277 15276
8 14967 14968 14973 14972 15272 15273 15278 15277
8 14968 11529 11528 14973 15273 11468 11467 15278
8 5566 14969 14974 5567 5505 15274 15279 5506
8 14969 14970 14975 14974 15274 15275 15280 15279
8 14970 14971 14976 14975 15275 15276 15281 15280
8 14971 14972 14977 14976 15276 15277 15282 15281
8 14972 14973 14978 14977 15277 15278 15283 15282
8 14973 11528 11527 14978 15278 11467 11466 15283
8 5567 14974 14979 5568 5506 15279 15284 5507
8 14974 14975 14980 14979 15279 15280 15285 15284
8 14975 14976 14981 14980 15280 15281 15286 15285
8 14976 14977 14982 14981 15281 15282 15287 15286
8 14977 14978 14983 14982 15282 15283 15288 15287
8 14978 11527 11526 14983 15283 11466 11465 15288
8 5568 14979 14984 5569 5507 15284 15289 5508
8 14979 14980 14985 14984 15284 15285 15290 15289
8 14980 14981 14986 14985 15285 15286 15291 15290
8 14981 14982 14987 14986 15286 15287 15292 15291
8 14982 14983 14988 14987 15287 15288 15293 15292
8 14983 11526 11525 14988 15288 11465 11464 15293
8 5569 14984 14989 5570 5508 15289 15294 5509
8 14984 14985 14990 14989 15289 15290 15295 15294
8 14985 14986 14991 14990 15290 15291 15296 15295
8 14986 14987 14992 14991 15291 15292 15297 15296
8 14987 14988 14993 14992 15292 15293 15298 15297
8 14988 11525 11524 14993 15293 11464 11463 15298
8 5570 14989 14994 5571 5509 15294 15299 5510
8 14989 14990 14995 14994 15294 15295 15300 15299
8 14990 14991 14996 14995 15295 15296 15301 15300
8 14991 14992 14997 14996 15296 15297 15302 15301
8 14992 14993 14998 14997 15297 15298 15303 15302
8 14993 11524 11523 14998 15298 11463 11462 15303
8 5571 14994 14999 5572 5510 15299 15304 5511
8 14994 14995 15000 14999 15299 15300 15305 15304
8 14995 14996 15001 15000 15300 15301 15306 15305
8 14996 14997 15002 15001 15301 15302 15307 15306
8 14997 14998 15003 15002 15302 15303 15308 15307
8 14998 11523 11522 15003 15303 11462 11461 15308
8 5572 14999 15004 5573 5511 15304 15309 5512
8 14999 15000 15005 15004 15304 15305 15310 15309
8 15000 15001 15006 15005 15305 15306 15311 15310
8 15001 15002 15007 15006 15306 15307 15312 15311
8 15002 15003 15008 15007 15307 15308 15313 15312
8 15003 11522 11521 15008 15308 11461 11460 15313
8 5573 15004 15009 5574 5512 15309 15314 5513
8 15004 15005 15010 15009 15309 15310 15315 15314
8 15005 15006 15011 15010 15310 15311 15316 15315
8 15006 15007 15012 15011 15311 15312 15317 15316
8 15007 15008 15013 15012 15312 15313 15318 15317
8 15008 11521 11520 15013 15313 11460 11459 15318
8 5574 15009 15014 5575 5513 15314 15319 5514
8 15009 15010 15015 15014 15314 15315 15320 15319
8 15010 15011 15016 15015 15315 15316 15321 15320
8 15011 15012 15017 15016 15316 15317 15322 15321
8 15012 15013 15018 15017 15317 15318 15323 15322
8 15013 11520 11519 15018 15318 11459 11458 15323
8 5575 15014 15019 5576 5514 15319 15324 5515
8 15014 15015 15020 15019 15319 15320 15325 15324
8 15015 15016 15021 15020 15320 15321 15326 15325
8 15016 15017 15022 15021 15321 15322 15327 15326
8 15017 15018 15023 15022 15322 15323 15328 15327
8 15018 11519 11518 15023 15323 11458 11457 15328
8 5576 15019 15024 5577 5515 15324 15329 5516
8 15019 15020 15025 15024 15324 15325 15330 15329
8 15020 15021 15026 15025 15325 15326 15331 15330
8 15021 15022 15027 15026 15326 15327 15332 15331
8 15022 15023 15028 15027 15327 15328 15333 15332
8 15023 11518 11517 15028 15328 11457 11456 15333
8 5577 15024 15029 5578 5516 15329 15334 5517
8 15024 15025 15030 15029 15329 15330 15335 15334
8 15025 15026 15031 15030 15330 15331 15336 15335
8 15026 15027 15032 15031 15331 15332 15337 15336
8 15027 15028 15033 15032 15332 15333 15338 15337
8 15028 11517 11516 15033 15333 11456 11455 15338
8 5578 15029 15034 5579 5517 15334 15339 5518
8 15029 15030 15035 15034 15334 15335 15340 15339
8 15030 15031 15036 15035 15335 15336 15341 15340
8 15031 15032 15037 15036 15336 15337 15342 15341
8 15032 15033 15038 15037 15337 15338 15343 15342
8 15033 11516 11515 15038 15338 11455 11454 15343
8 5579 15034 15039 5580 5518 15339 15344 5519
8 15034 15035 15040 15039 15339 15340 15345 15344
8 15035 15036 15041 15040 15340 15341 15346 15345
8 15036 15037 15042 15041 15341 15342 15347 15346
8 15037 15038 15043 15042 15342 15343 15348 15347
8 15038 11515 11514 15043 15343 11454 11453 15348
8 5580 15039 15044 5581 5519 15344 15349 5520
8 15039 15040 15045 15044 15344 15345 15350 15349
8 15040 15041 15046 15045 15345 15346 15351 15350
8 15041 15042 15047 15046 15346 15347 15352 15351
8 15042 15043 15048 15047 15347 15348 15353 15352
8 15043 11514 11513 15048 15348 11453 11452 15353
8 5581 15044 15049 5582 5520 15349 15354 5521
8 15044 15045 15050 15049 15349 15350 15355 15354
8 15045 15046 15051 15050 15350 15351 15356 15355
8 15046 15047 15052 15051 15351 15352 15357 15356
8 15047 15048 15053 15052 15352 15353 15358 15357
8 15048 11513 11512 15053 15353 11452 11451 15358
8 5582 15049 15054 5583 5521 15354 15359 5522
8 15049 15050 15055 15054 15354 15355 15360 15359
8 15050 15051 15056 15055 15355 15356 15361 15360
8 15051 15052 15057 15056 15356 15357 15362 15361
8 15052 15053 15058 15057 15357 15358 15363 15362
8 15053 11512 11511 15058 15358 11451 11450 15363
8 5583 15054 15059 5584 5522 15359 15364 5523
8 15054 15055 15060 15059 15359 15360 15365 15364
8 15055 15056 15061 15060 15360 15361 15366 15365
8 15056 15057 15062 15061 15361 15362 15367 15366
8 15057 15058 15063 15062 15362 15363 15368 15367
8 15058 11511 11510 15063 15363 11450 11449 15368
8 5584 15059 15064 5585 5523 15364 15369 5524
8 15059 15060 15065 15064 15364 15365 15370 15369
8 15060 15061 15066 15065 15365 15366 15371 15370
8 15061 15062 15067 15066 15366 15367 15372 15371
8 15062 15063 15068 15067 15367 15368 15373 15372
8 15063 11510 11509 15068 15368 11449 11448 15373
8 5585 15064 15069 5586 5524 15369 15374 5525
8 15064 15065 15070 15069 15369 15370 15375 15374
8 15065 15066 15071 15070 15370 15371 15376 15375
8 15066 15067 15072 15071 15371 15372 15377 15376
8 15067 15068 15073 15072 15372 15373 15378 15377
8 15068 11509 11508 15073 15373 11448 11447 15378
8 5586 15069 15074 5587 5525 15374 15379 5526
8 15069 15070 15075 15074 15374 15375 15380 15379
8 15070 15071 15076 15075 15375 15376 15381 15380
8 15071 15072 15077 15076 15376 15377 15382 15381
8 15072 15073 15078 15077 15377 15378 15383 15382
8 15073 11508 11507 15078 15378 11447 11446 15383
8 5587 15074 15079 5588 5526 15379 15384 5527
8 15074 15075 15080 15079 15379 15380 15385 15384
8 15075 15076 15081 15080 15380 15381 15386 15385
8 15076 15077 15082 15081 15381 15382 15387 15386
8 15077 15078 15083 15082 15382 15383 15388 15387
8 15078 11507 11506 15083 15383 11446 11445 15388
8 5588 15079 15084 5589 5527 15384 15389 5528
8 15079 15080 15085 15084 15384 15385 15390 15389
8 15080 15081 15086 15085 15385 15386 15391 15390
8 15081 15082 15087 15086 15386 15387 15392 15391
8 15082 15083 15088 15087 15387 15388 15393 15392
8 15083 11506 11505 15088 15388 11445 11444 15393
8 5589 15084 15089 5590 5528 15389 15394 5529
8 15084 15085 15090 15089 15389 15390 15395 15394
8 15085 15086 15091 15090 15390 15391 15396 15395
8 15086 15087 15092 15091 15391 15392 15397 15396
8 15087 15088 15093 15092 15392 15393 15398 15397
8 15088 11505 11504 15093 15393 11444 11443 15398
8 5590 15089 15094 5591 5529 15394 15399 5530
8 15089 15090 15095 15094 15394 15395 15400 15399
8 15090 15091 15096 15095 15395 15396 15401 15400
8 15091 15092 15097 15096 15396 15397 15402 15401
8 15092 15093 15098 15097 15397 15398 15403 15402
8 15093 11504 11503 15098 15398 11443 11442 15403
8 5591 15094 15099 5592 5530 15399 15404 5531
8 15094 15095 15100 15099 15399 15400 15405 15404
8 15095 15096 15101 15100 15400 15401 15406 15405
8 15096 15097 15102 15101 15401 15402 15407 15406
8 15097 15098 15103 15102 15402 15403 15408 15407
8 15098 11503 11502 15103 15403 11442 11441 15408
8 5592 15099 15104 5593 5531 15404 15409 5532
8 15099 15100 15105 15104 15404 15405 15410 15409
8 15100 15101 15106 15105 15405 15406 15411 15410
8 15101 15102 15107 15106 15406 15407 15412 15411
8 15102 15103 15108 15107 15407 15408 15413 15412
8 15103 11502 11501 15108 15408 11441 11440 15413
8 5593 15104 15109 5594 5532 15409 15414 5533
8 15104 15105 15110 15109 15409 15410 15415 15414
8 15105 15106 15111 15110 15410 15411 15416 15415
8 15106 15107 15112 15111 15411 15412 15417 15416
8 15107 15108 15113 15112 15412 15413 15418 15417
8 15108 11501 11500 15113 15413 11440 11439 15418
8 5594 15109 15114 5595 5533 15414 15419 5534
8 15109 15110 15115 15114 15414 15415 15420 15419
8 15110 15111 15116 15115 15415 15416 15421 15420
8 15111 15112 15117 15116 15416 15417 15422 15421
8 15112 15113 15118 15117 15417 15418 15423 15422
8 15113 11500 11499 15118 15418 11439 11438 15423
8 5595 15114 15119 5596 5534 15419 15424 5535
8 15114 15115 15120 15119 15419 15420 15425 15424
8 15115 15116 15121 15120 15420 15421 15426 15425
8 15116 15117 15122 15121 15421 15422 15427 15426
8 15117 15118 15123 15122 15422 15423 15428 15427
8 15118 11499 11498 15123 15423 11438 11437 15428
8 5596 15119 15124 5597 5535 15424 15429 5536
8 15119 15120 15125 15124 15424 15425 15430 15429
8 15120 15121 15126 15125 15425 15426 15431 15430
8 15121 15122 15127 15126 15426 15427 15432 15431
8 15122 15123 15128 15127 15427 15428 15433 15432
8 15123 11498 11497 15128 15428 11437 11436 15433
8 5597 15124 15129 5598 5536 15429 15434 5537
8 15124 15125 15130 15129 15429 15430 15435 15434
8 15125 15126 15131 15130 15430 15431 15436 15435
8 15126 15127 15132 15131 15431 15432 15437 15436
8 15127 15128 15133 15132 15432 15433 15438 15437
8 15128 11497 11496 15133 15433 11436 11435 15438
8 5598 15129 15134 5599 5537 15434 15439 5538
8 15129 15130 15135 15134 15434 15435 15440 15439
8 15130 15131 15136 15135 15435 15436 15441 15440
8 15131 15132 15137 15136 15436 15437 15442 15441
8 15132 15133 15138 15137 15437 15438 15443 15442
8 15133 11496 11495 15138 15438 11435 11434 15443
8 5599 15134 15139 5600 5538 15439 15444 5539
8 15134 15135 15140 15139 15439 15440 15445 15444
8 15135 15136 15141 15140 15440 15441 15446 15445
8 15136 15137 15142 15141 15441 15442 15447 15446
8 15137 15138 15143 15142 15442 15443 15448 15447
8 15138 11495 11494 15143 15443 11434 11433 15448
8 5600 15139 15144 5601 5539 15444 15449 5540
8 15139 15140 15145 15144 15444 15445 15450 15449
8 15140 15141 15146 15145 15445 15446 15451 15450
8 15141 15142 15147 15146 15446 15447 15452 15451
8 15142 15143 15148 15147 15447 15448 15453 15452
8 15143 11494 11493 15148 15448 11433 11432 15453
8 5601 15144 15149 5602 5540 15449 15454 5541
8 15144 15145 15150 15149 15449 15450 15455 15454
8 15145 15146 15151 15150 15450 15451 15456 15455
8 15146 15147 15152 15151 15451 15452 15457 15456
8 15147 15148 15153 15152 15452 15453 15458 15457
8 15148 11493 11492 15153 15453 11432 11431 15458
8 5602 15149 15154 5603 5541 15454 15459 5542
8 15149 15150 15155 15154 15454 15455 15460 15459
8 15150 15151 15156 15155 15455 15456 15461 15460
8 15151 15152 15157 15156 15456 15457 15462 15461
8 15152 15153 15158 15157 15457 15458 15463 15462
8 15153 11492 11491 15158 15458 11431 11430 15463
8 5603 15154 15159 5604 5542 15459 15464 5543
8 15154 15155 15160 15159 15459 15460 15465 15464
8 15155 15156 15161 15160 15460 15461 15466 15465
8 15156 15157 15162 15161 15461 15462 15467 15466
8 15157 15158 15163 15162 15462 15463 15468 15467
8 15158 11491 11490 15163 15463 11430 11429 15468
8 5604 15159 15164 5605 5543 15464 15469 5544
8 15159 15160 15165 15164 15464 15465 15470 15469
8 15160 15161 15166 15165 15465 15466 15471 15470
8 15161 15162 15167 15166 15466 15467 15472 15471
8 15162 15163 15168 15167 15467 15468 15473 15472
8 15163 11490 11489 15168 15468 11429 11428 15473
8 5605 15164 15169 5606 5544 15469 15474 5545
8 15164 15165 15170 15169 15469 15470 15475 15474
8 15165 15166 15171 15170 15470 15471 15476 15475
8 15166 15167 15172 15171 15471 15472 15477 15476
8 15167 15168 15173 15172 15472 15473 15478 15477
8 15168 11489 11488 15173 15473 11428 11427 15478
8 5606 15169 15174 5607 5545 15474 15479 5546
8 15169 15170 15175 15174 15474 15475 15480 15479
8 15170 15171 15176 15175 15475 15476 15481 15480
8 15171 15172 15177 15176 15476 15477 15482 15481
8 15172 15173 15178 15177 15477 15478 15483 15482
8 15173 11488 11487 15178 15478 11427 11426 15483
8 5607 15174 15179 5608 5546 15479 15484 5547
8 15174 15175 15180 15179 15479 15480 15485 15484
8 15175 15176 15181 15180 15480 15481 15486 15485
8 15176 15177 15182 15181 15481 15482 15487 15486
8 15177 15178 15183 15182 15482 15483 15488 15487
8 15178 11487 11486 15183 15483 11426 11425 15488
8 5608 15179 15184 5609 5547 15484 15489 5548
8 15179 15180 15185 15184 15484 15485 15490 15489
8 15180 15181 15186 15185 15485 15486 15491 15490
8 15181 15182 15187 15186 15486 15487 15492 15491
8 15182 15183 15188 15187 15487 15488 15493 15492
8 15183 11486 11485 15188 15488 11425 11424 15493
8 5609 15184 15189 5610 5548 15489 15494 5549
8 15184 15185 15190 15189 15489 15490 15495 15494
8 15185 15186 15191 15190 15490 15491 15496 15495
8 15186 15187 15192 15191 15491 15492 15497 15496
8 15187 15188 15193 15192 15492 15493 15498 15497
8 15188 11485 11484 15193 15493 11424 11423 15498
8 5610 15189 15194 5611 5549 15494 15499 5550
8 15189 15190 15195 15194 15494 15495 15500 15499
8 15190 15191 15196 15195 15495 15496 15501 15500
8 15191 15192 15197 15196 15496 15497 15502 15501
8 15192 15193 15198 15197 15497 15498 15503 15502
8 15193 11484 11483 15198 15498 11423 11422 15503
8 5611 15194 15199 5612 5550 15499 15504 5551
8 15194 15195 15200 15199 15499 15500 15505 15504
8 15195 15196 15201 15200 15500 15501 15506 15505
8 15196 15197 15202 15201 15501 15502 15507 15506
8 15197 15198 15203 15202 15502 15503 15508 15507
8 15198 11483 11482 15203 15503 11422 11421 15508
8 5612 15199 15204 5613 5551 15504 15509 5552
8 15199 15200 15205 15204 15504 15505 15510 15509
8 15200 15201 15206 15205 15505 15506 15511 15510
8 15201 15202 15207 15206 15506 15507 15512 15511
8 15202 15203 15208 15207 15507 15508 15513 15512
8 15203 11482 11481 15208 15508 11421 11420 15513
8 5613 15204 15209 5614 5552 15509 15514 5553
8 15204 15205 15210 15209 15509 15510 15515 15514
8 15205 15206 15211 15210 15510 15511 15516 15515
8 15206 15207 15212 15211 15511 15512 15517 15516
8 15207 15208 15213 15212 15512 15513 15518 15517
8 15208 11481 11480 15213 15513 11420 11419 15518
8 5614 15209 15214 5615 5553 15514 15519 5554
8 15209 15210 15215 15214 15514 15515 15520 15519
8 15210 15211 15216 15215 15515 15516 15521 15520
8 15211 15212 15217 15216 15516 15517 15522 15521
8 15212 15213 15218 15217 15517 15518 15523 15522
8 15213 11480 11479 15218 15518 11419 11418 15523
8 5615 15214 15219 5616 5554 15519 15524 5555
8 15214 15215 15220 15219 15519 15520 15525 15524
8 15215 15216 15221 15220 15520 15521 15526 15525
8 15216 15217 15222 15221 15521 15522 15527 15526
8 15217 15218 15223 15222 15522 15523 15528 15527
8 15218 11479 11478 15223 15523 11418 11417 15528
8 5616 15219 13059 150 5555 15524 13054 149
8 15219 15220 13060 13059 15524 15525 13055 13054
8 15220 15221 13061 13060 15525 15526 13056 13055
8 15221 15222 13062 13061 15526 15527 13057 13056
8 15222 15223 13063 13062 15527 15528 13058 13057
8 15223 11478 6145 13063 15528 11417 6146 13058
8 224 11884 15224 5495 225 11889 15529 5434
8 11884 11885 15225 15224 11889 11890 15530 15529
8 11885 11886 15226 15225 11890 11891 15531 15530
8 11886 11887 15227 15226 11891 11892 15532 15531
8 11887 11888 15228 15227 11892 11893 15533 15532
8 11888 6071 11477 15228 11893 6070 11416 15533
8 5495 15224 15229 5496 5434 15529 15534 5435
8 15224 15225 15230 15229 15529 15530 15535 15534
8 15225 15226 15231 15230 15530 15531 15536 15535
8 15226 15227 15232 15231 15531 15532 15537 15536
8 15227 15228 15233 15232 15532 15533 15538 15537
8 15228 11477 11476 15233 15533 11416 11415 15538
8 5496 15229 15234 5497 5435 15534 15539 5436
8 15229 15230 15235 15234 15534 15535 15540 15539
8 15230 15231 15236 15235 15535 15536 15541 15540
8 15231 15232 15237 15236 15536 15537 15542 15541
8 15232 15233 15238 15237 15537 15538 15543 15542
8 15233 11476 11475 15238 15538 11415 11414 15543
8 5497 15234 15239 5498 5436 15539 15544 5437
8 15234 15235 15240 15239 15539 15540 15545 15544
8 15235 15236 15241 15240 15540 15541 15546 15545
8 15236 15237 15242 15241 15541 15542 15547 15546
8 15237 15238 15243 15242 15542 15543 15548 15547
8 15238 11475 11474 15243 15543 11414 11413 15548
8 5498 15239 15244 5499 5437 15544 15549 5438
8 15239 15240 15245 15244 15544 15545 15550 15549
8 15240 15241 15246 15245 15545 15546 15551 15550
8 15241 15242 15247 15246 15546 15547 15552 15551
8 15242 15243 15248 15247 15547 15548 15553 15552
8 15243 11474 11473 15248 15548 11413 11412 15553
8 5499 15244 15249 5500 5438 15549 15554 5439
8 15244 15245 15250 15249 15549 15550 15555 15554
8 15245 15246 15251 15250 15550 15551 15556 15555
8 15246 15247 15252 15251 15551 15552 15557 15556
8 15247 15248 15253 15252 15552 15553 15558 15557
8 15248 11473 11472 15253 15553 11412 11411 15558
8 5500 15249 15254 5501 5439 15554 15559 5440
8 15249 15250 15255 15254 15554 15555 15560 15559
8 15250 15251 15256 15255 15555 15556 15561 15560
8 15251 15252 15257 15256 15556 15557 15562 15561
8 15252 15253 15258 15257 15557 15558 15563 15562
8 15253 11472 11471 15258 15558 11411 11410 15563
8 5501 15254 15259 5502 5440 15559 15564 5441
8 15254 15255 15260 15259 15559 15560 15565 15564
8 15255 15256 15261 15260 15560 15561 15566 15565
8 15256 15257 15262 15261 15561 15562 15567 15566
8 15257 15258 15263 15262 15562 15563 15568 15567
8 15258 11471 11470 15263 15563 11410 11409 15568
8 5502 15259 15264 5503 5441 15564 15569 5442
8 15259 15260 15265 15264 15564 15565 15570 15569
8 15260 15261 15266 15265 15565 15566 15571 15570
8 15261 15262 15267 15266 15566 15567 15572 15571
8 15262 15263 15268 15267 15567 15568 15573 15572
8 15263 11470 11469 15268 15568 11409 11408 15573
8 5503 15264 15269 5504 5442 15569 15574 5443
8 15264 15265 15270 15269 15569 15570 15575 15574
8 15265 15266 15271 15270 15570 15571 15576 15575
8 15266 15267 15272 15271 15571 15572 15577 15576
8 15267 15268 15273 15272 15572 15573 15578 15577
8 15268 11469 11468 15273 15573 11408 11407 15578
8 5504 15269 15274 5505 5443 15574 15579 5444
8 15269 15270 15275 15274 15574 15575 15580 15579
8 15270 15271 15276 15275 15575 15576 15581 15580
8 15271 15272 15277 15276 15576 15577 15582 15581
8 15272 15273 15278 15277 15577 15578 15583 15582
8 15273 11468 11467 15278 15578 11407 11406 15583
8 5505 15274 15279 5506 5444 15579 15584 5445
8 15274 15275 15280 15279 15579 15580 15585 15584
8 15275 15276 15281 15280 15580 15581 15586 15585
8 15276 15277 15282 15281 15581 15582 15587 15586
8 15277 15278 15283 15282 15582 15583 15588 15587
8 15278 11467 11466 15283 15583 11406 11405 15588
8 5506 15279 15284 5507 5445 15584 15589 5446
8 15279 15280 15285 15284 15584 15585 15590 15589
8 15280 15281 15286 15285 15585 15586 15591 15590
8 15281 15282 15287 15286 15586 15587 15592 15591
8 15282 15283 15288 15287 15587 15588 15593 15592
8 15283 11466 11465 15288 15588 11405 11404 15593
8 5507 15284 15289 5508 5446 15589 15594 5447
8 15284 15285 15290 15289 15589 15590 15595 15594
8 15285 15286 15291 15290 15590 15591 15596 15595
8 15286 15287 15292 15291 15591 15592 15597 15596
8 15287 15288 15293 15292 15592 15593 15598 15597
8 15288 11465 11464 15293 15593 11404 11403 15598
8 5508 15289 15294 5509 5447 15594 15599 5448
8 15289 15290 15295 15294 15594 15595 15600 15599
8 15290 15291 15296 15295 15595 15596 15601 15600
8 15291 15292 15297 15296 15596 15597 15602 15601
8 15292 15293 15298 15297 15597 15598 15603 15602
8 15293 11464 11463 15298 15598 11403 11402 15603
8 5509 15294 15299 5510 5448 15599 15604 5449
8 15294 15295 15300 15299 15599 15600 15605 15604
8 15295 15296 15301 15300 15600 15601 15606 15605
8 15296 15297 15302 15301 15601 15602 15607 15606
8 15297 15298 15303 15302 15602 15603 15608 15607
8 15298 11463 11462 15303 15603 11402 11401 15608
8 5510 15299 15304 5511 5449 15604 15609 5450
8 15299 15300 15305 15304 15604 15605 15610 15609
8 15300 15301 15306 15305 15605 15606 15611 15610
8 15301 15302 15307 15306 15606 15607 15612 15611
8 15302 15303 15308 15307 15607 15608 15613 15612
8 15303 11462 11461 15308 15608 11401 11400 15613
8 5511 15304 15309 5512 5450 15609 15614 5451
8 15304 15305 15310 15309 15609 15610 15615 15614
8 15305 15306 15311 15310 15610 15611 15616 15615
8 15306 15307 15312 15311 15611 15612 15617 15616
8 15307 15308 15313 15312 15612 15613 15618 15617
8 15308 11461 11460 15313 15613 11400 11399 15618
8 5512 15309 15314 5513 5451 15614 15619 5452
8 15309 15310 15315 15314 15614 15615 15620 15619
8 15310 15311 15316 15315 15615 15616 15621 15620
8 15311 15312 15317 15316 15616 15617 15622 15621
8 15312 15313 15318 15317 15617 15618 15623 15622
8 15313 11460 11459 15318 15618 11399 11398 15623
8 5513 15314 15319 5514 5452 15619 15624 5453
8 15314 15315 15320 15319 15619 15620 15625 15624
8 15315 15316 15321 15320 15620 15621 15626 15625
8 15316 15317 15322 15321 15621 15622 15627 15626
8 15317 15318 15323 15322 15622 15623 15628 15627
8 15318 11459 11458 15323 15623 11398 11397 15628
8 5514 15319 15324 5515 5453 15624 15629 5454
8 15319 15320 15325 15324 15624 15625 15630 15629
8 15320 15321 15326 15325 15625 15626 15631 15630
8 15321 15322 15327 15326 15626 15627 15632 15631
8 15322 15323 15328 15327 15627 15628 15633 15632
8 15323 11458 11457 15328 15628 11397 11396 15633
8 15324 15325 15330 15329 15629 15630 15635 15634
8 15325 15326 15331 15330 15630 15631 15636 15635
8 15326 15327 15332 15331 15631 15632 15637 15636
8 15327 15328 15333 15332 15632 15633 15638 15637
8 15328 11457 11456 15333 15633 11396 11395 15638
8 15329 15330 15335 15334 15634 15635 15640 15639
8 15330 15331 15336 15335 15635 15636 15641 15640
8 15331 15332 15337 15336 15636 15637 15642 15641
8 15332 15333 15338 15337 15637 15638 15643 15642
8 15333 11456 11455 15338 15638 11395 11394 15643
8 15334 15335 15340 15339 15639 15640 15645 15644
8 15335 15336 15341 15340 15640 15641 15646 15645
8 15336 15337 15342 15341 15641 15642 15647 15646
8 15337 15338 15343 15342 15642 15643 15648 15647
8 15338 11455 11454 15343 15643 11394 11393 15648
8 15339 15340 15345 15344 15644 15645 15650 15649
8 15340 15341 15346 15345 15645 15646 15651 15650
8 15341 15342 15347 15346 15646 15647 15652 15651
8 15342 15343 15348 15347 15647 15648 15653 15652
8 15343 11454 11453 15348 15648 11393 11392 15653
8 15344 15345 15350 15349 15649 15650 15655 15654
8 15345 15346 15351 15350 15650 15651 15656 15655
8 15346 15347 15352 15351 15651 15652 15657 15656
8 15347 15348 15353 15352 15652 15653 15658 15657
8 15348 11453 11452 15353 15653 11392 11391 15658
8 5520 15349 15354 5521 5459 15654 15659 5460
8 15349 15350 15355 15354 15654 15655 15660 15659
8 15350 15351 15356 15355 15655 15656 15661 15660
8 15351 15352 15357 15356 15656 15657 15662 15661
8 15352 15353 15358 15357 15657 15658 15663 15662
8 15353 11452 11451 15358 15658 11391 11390 15663
8 5521 15354 15359 5522 5460 15659 15664 5461
8 15354 15355 15360 15359 15659 15660 15665 15664
8 15355 15356 15361 15360 15660 15661 15666 15665
8 15356 15357 15362 15361 15661 15662 15667 15666
8 15357 15358 15363 15362 15662 15663 15668 15667
8 15358 11451 11450 15363 15663 11390 11389 15668
8 5522 15359 15364 5523 5461 15664 15669 5462
8 15359 15360 15365 15364 15664 15665 15670 15669
8 15360 15361 15366 15365 15665 15666 15671 15670
8 15361 15362 15367 15366 15666 15667 15672 15671
8 15362 15363 15368 15367 15667 15668 15673 15672
8 15363 11450 11449 15368 15668 11389 11388 15673
8 5523 15364 15369 5524 5462 15669 15674 5463
8 15364 15365 15370 15369 15669 15670 15675 15674
8 15365 15366 15371 15370 15670 15671 15676 15675
8 15366 15367 15372 15371 15671 15672 15677 15676
8 15367 15368 15373 15372 15672 15673 15678 15677
8 15368 11449 11448 15373 15673 11388 11387 15678
8 5524 15369 15374 5525 5463 15674 15679 5464
8 15369 15370 15375 15374 15674 15675 15680 15679
8 15370 15371 15376 15375 15675 15676 15681 15680
8 15371 15372 15377 15376 15676 15677 15682 15681
8 15372 15373 15378 15377 15677 15678 15683 15682
8 15373 11448 11447 15378 15678 11387 11386 15683
8 5525 15374 15379 5526 5464 15679 15684 5465
8 15374 15375 15380 15379 15679 15680 15685 15684
8 15375 15376 15381 15380 15680 15681 15686 15685
8 15376 15377 15382 15381 15681 15682 15687 15686
8 15377 15378 15383 15382 15682 15683 15688 15687
8 15378 11447 11446 15383 15683 11386 11385 15688
8 5526 15379 15384 5527 5465 15684 15689 5466
8 15379 15380 15385 15384 15684 15685 15690 15689
8 15380 15381 15386 15385 15685 15686 15691 15690
8 15381 15382 15387 15386 15686 15687 15692 15691
8 15382 15383 15388 15387 15687 15688 15693 15692
8 15383 11446 11445 15388 15688 11385 11384 15693
8 15384 15385 15390 15389 15689 15690 15695 15694
8 15385 15386 15391 15390 15690 15691 15696 15695
8 15386 15387 15392 15391 15691 15692 15697 15696
8 15387 15388 15393 15392 15692 15693 15698 15697
8 15388 11445 11444 15393 15693 11384 11383 15698
8 15389 15390 15395 15394 15694 15695 15700 15699
8 15390 15391 15396 15395 15695 15696 15701 15700
8 15391 15392 15397 15396 15696 15697 15702 15701
8 15392 15393 15398 15397 15697 15698 15703 15702
8 15393 11444 11443 15398 15698 11383 11382 15703
8 15394 15395 15400 15399 15699 15700 15705 15704
8 15395 15396 15401 15400 15700 15701 15706 15705
8 15396 15397 15402 15401 15701 15702 15707 15706
8 15397 15398 15403 15402 15702 15703 15708 15707
8 15398 11443 11442 15403 15703 11382 11381 15708
8 15399 15400 15405 15404 15704 15705 15710 15709
8 15400 15401 15406 15405 15705 15706 15711 15710
8 15401 15402 15407 15406 15706 15707 15712 15711
8 15402 15403 15408 15407 15707 15708 15713 15712
8 15403 11442 11441 15408 15708 11381 11380 15713
8 15404 15405 15410 15409 15709 15710 15715 15714
8 15405 15406 15411 15410 15710 15711 15716 15715
8 15406 15407 15412 15411 15711 15712 15717 15716
8 15407 15408 15413 15412 15712 15713 15718 15717
8 15408 11441 11440 15413 15713 11380 11379 15718
8 15409 15410 15415 15414 15714 15715 15720 15719
8 15410 15411 15416 15415 15715 15716 15721 15720
8 15411 15412 15417 15416 15716 15717 15722 15721
8 15412 15413 15418 15417 15717 15718 15723 15722
8 15413 11440 11439 15418 15718 11379 11378 15723
8 15414 15415 15420 15419 15719 15720 15725 15724
8 15415 15416 15421 15420 15720 15721 15726 15725
8 15416 15417 15422 15421 15721 15722 15727 15726
8 15417 15418 15423 15422 15722 15723 15728 15727
8 15418 11439 11438 15423 15723 11378 11377 15728
8 15419 15420 15425 15424 15724 15725 15730 15729
8 15420 15421 15426 15425 15725 15726 15731 15730
8 15421 15422 15427 15426 15726 15727 15732 15731
8 15422 15423 15428 15427 15727 15728 15733 15732
8 15423 11438 11437 15428 15728 11377 11376 15733
8 15424 15425 15430 15429 15729 15730 15735 15734
8 15425 15426 15431 15430 15730 15731 15736 15735
8 15426 15427 15432 15431 15731 15732 15737 15736
8 15427 15428 15433 15432 15732 15733 15738 15737
8 15428 11437 11436 15433 15733 11376 11375 15738
8 15429 15430 15435 15434 15734 15735 15740 15739
8 15430 15431 15436 15435 15735 15736 15741 15740
8 15431 15432 15437 15436 15736 15737 15742 15741
8 15432 15433 15438 15437 15737 15738 15743 15742
8 15433 11436 11435 15438 15738 11375 11374 15743
8 15434 15435 15440 15439 15739 15740 15745 15744
8 15435 15436 15441 15440 15740 15741 15746 15745
8 15436 15437 15442 15441 15741 15742 15747 15746
8 15437 15438 15443 15442 15742 15743 15748 15747
8 15438 11435 11434 15443 15743 11374 11373 15748
8 15439 15440 15445 15444 15744 15745 15750 15749
8 15440 15441 15446 15445 15745 15746 15751 15750
8 15441 15442 15447 15446 15746 15747 15752 15751
8 15442 15443 15448 15447 15747 15748 15753 15752
8 15443 11434 11433 15448 15748 11373 11372 15753
8 15444 15445 15450 15449 15749 15750 15755 15754
8 15445 15446 15451 15450 15750 15751 15756 15755
8 15446 15447 15452 15451 15751 15752 15757 15756
8 15447 15448 15453 15452 15752 15753 15758 15757
8 15448 11433 11432 15453 15753 11372 11371 15758
8 15449 15450 15455 15454 15754 15755 15760 15759
8 15450 15451 15456 15455 15755 15756 15761 15760
8 15451 15452 15457 15456 15756 15757 15762 15761
8 15452 15453 15458 15457 15757 15758 15763 15762
8 15453 11432 11431 15458 15758 11371 11370 15763
8 15454 15455 15460 15459 15759 15760 15765 15764
8 15455 15456 15461 15460 15760 15761 15766 15765
8 15456 15457 15462 15461 15761 15762 15767 15766
8 15457 15458 15463 15462 15762 15763 15768 15767
8 15458 11431 11430 15463 15763 11370 11369 15768
8 15459 15460 15465 15464 15764 15765 15770 15769
8 15460 15461 15466 15465 15765 15766 15771 15770
8 15461 15462 15467 15466 15766 15767 15772 15771
8 15462 15463 15468 15467 15767 15768 15773 15772
8 15463 11430 11429 15468 15768 11369 11368 15773
8 15464 15465 15470 15469 15769 15770 15775 15774
8 15465 15466 15471 15470 15770 15771 15776 15775
8 15466 15467 15472 15471 15771 15772 15777 15776
8 15467 15468 15473 15472 15772 15773 15778 15777
8 15468 11429 11428 15473 15773 11368 11367 15778
8 15469 15470 15475 15474 15774 15775 15780 15779
8 15470 15471 15476 15475 15775 15776 15781 15780
8 15471 15472 15477 15476 15776 15777 15782 15781
8 15472 15473 15478 15477 15777 15778 15783 15782
8 15473 11428 11427 15478 15778 11367 11366 15783
8 5545 15474 15479 5546 5484 15779 15784 5485
8 15474 15475 15480 15479 15779 15780 15785 15784
8 15475 15476 15481 15480 15780 15781 15786 15785
8 15476 15477 15482 15481 15781 15782 15787 15786
8 15477 15478 15483 15482 15782 15783 15788 15787
8 15478 11427 11426 15483 15783 11366 11365 15788
8 5546 15479 15484 5547 5485 15784 15789 5486
8 15479 15480 15485 15484 15784 15785 15790 15789
8 15480 15481 15486 15485 15785 15786 15791 15790
8 15481 15482 15487 15486 15786 15787 15792 15791
8 15482 15483 15488 15487 15787 15788 15793 15792
8 15483 11426 11425 15488 15788 11365 11364 15793
8 5547 15484 15489 5548 5486 15789 15794 5487
8 15484 15485 15490 15489 15789 15790 15795 15794
8 15485 15486 15491 15490 15790 15791 15796 15795
8 15486 15487 15492 15491 15791 15792 15797 15796
8 15487 15488 15493 15492 15792 15793 15798 15797
8 15488 11425 11424 15493 15793 11364 11363 15798
8 5548 15489 15494 5549 5487 15794 15799 5488
8 15489 15490 15495 15494 15794 15795 15800 15799
8 15490 15491 15496 15495 15795 15796 15801 15800
8 15491 15492 15497 15496 15796 15797 15802 15801
8 15492 15493 15498 15497 15797 15798 15803 15802
8 15493 11424 11423 15498 15798 11363 11362 15803
8 5549 15494 15499 5550 5488 15799 15804 5489
8 15494 15495 15500 15499 15799 15800 15805 15804
8 15495 15496 15501 15500 15800 15801 15806 15805
8 15496 15497 15502 15501 15801 15802 15807 15806
8 15497 15498 15503 15502 15802 15803 15808 15807
8 15498 11423 11422 15503 15803 11362 11361 15808
8 5550 15499 15504 5551 5489 15804 15809 5490
8 15499 15500 15505 15504 15804 15805 15810 15809
8 15500 15501 15506 15505 15805 15806 15811 15810
8 15501 15502 15507 15506 15806 15807 15812 15811
8 15502 15503 15508 15507 15807 15808 15813 15812
8 15503 11422 11421 15508 15808 11361 11360 15813
8 5551 15504 15509 5552 5490 15809 15814 5491
8 15504 15505 15510 15509 15809 15810 15815 15814
8 15505 15506 15511 15510 15810 15811 15816 15815
8 15506 15507 15512 15511 15811 15812 15817 15816
8 15507 15508 15513 15512 15812 15813 15818 15817
8 15508 11421 11420 15513 15813 11360 11359 15818
8 5552 15509 15514 5553 5491 15814 15819 5492
8 15509 15510 15515 15514 15814 15815 15820 15819
8 15510 15511 15516 15515 15815 15816 15821 15820
8 15511 15512 15517 15516 15816 15817 15822 15821
8 15512 15513 15518 15517 15817 15818 15823 15822
8 15513 11420 11419 15518 15818 11359 11358 15823
8 5553 15514 15519 5554 5492 15819 15824 5493
8 15514 15515 15520 15519 15819 15820 15825 15824
8 15515 15516 15521 15520 15820 15821 15826 15825
8 15516 15517 15522 15521 15821 15822 15827 15826
8 15517 15518 15523 15522 15822 15823 15828 15827
8 15518 11419 11418 15523 15823 11358 11357 15828
8 5554 15519 15524 5555 5493 15824 15829 5494
8 15519 15520 15525 15524 15824 15825 15830 15829
8 15520 15521 15526 15525 15825 15826 15831 15830
8 15521 15522 15527 15526 15826 15827 15832 15831
8 15522 15523 15528 15527 15827 15828 15833 15832
8 15523 11418 11417 15528 15828 11357 11356 15833
8 5555 15524 13054 149 5494 15829 13049 148
8 15524 15525 13055 13054 15829 15830 13050 13049
8 15525 15526 13056 13055 15830 15831 13051 13050
8 15526 15527 13057 13056 15831 15832 13052 13051
8 15527 15528 13058 13057 15832 15833 13053 13052
8 15528 11417 6146 13058 15833 11356 6147 13053
8 225 11889 15529 5434 226 11894 15834 5373
8 11889 11890 15530 15529 11894 11895 15835 15834
8 11890 11891 15531 15530 11895 11896 15836 15835
8 11891 11892 15532 15531 11896 11897 15837 15836
8 11892 11893 15533 15532 11897 11898 15838 15837
8 11893 6070 11416 15533 11898 6069 11355 15838
8 5434 15529 15534 5435 5373 15834 15839 5374
8 15529 15530 15535 15534 15834 15835 15840 15839
8 15530 15531 15536 15535 15835 15836 15841 15840
8 15531 15532 15537 15536 15836 15837 15842 15841
8 15532 15533 15538 15537 15837 15838 15843 15842
8 15533 11416 11415 15538 15838 11355 11354 15843
8 5435 15534 15539 5436 5374 15839 15844 5375
8 15534 15535 15540 15539 15839 15840 15845 15844
8 15535 15536 15541 15540 15840 15841 15846 15845
8 15536 15537 15542 15541 15841 15842 15847 15846
8 15537 15538 15543 15542 15842 15843 15848 15847
8 15538 11415 11414 15543 15843 11354 11353 15848
8 5436 15539 15544 5437 5375 15844 15849 5376
8 15539 15540 15545 15544 15844 15845 15850 15849
8 15540 15541 15546 15545 15845 15846 15851 15850
8 15541 15542 15547 15546 15846 15847 15852 15851
8 15542 15543 15548 15547 15847 15848 15853 15852
8 15543 11414 11413 15548 15848 11353 11352 15853
8 5437 15544 15549 5438 5376 15849 15854 5377
8 15544 15545 15550 15549 15849 15850 15855 15854
8 15545 15546 15551 15550 15850 15851 15856 15855
8 15546 15547 15552 15551 15851 15852 15857 15856
8 15547 15548 15553 15552 15852 15853 15858 15857
8 15548 11413 11412 15553 15853 11352 11351 15858
8 5438 15549 15554 5439 5377 15854 15859 5378
8 15549 15550 15555 15554 15854 15855 15860 15859
8 15550 15551 15556 15555 15855 15856 15861 15860
8 15551 15552 15557 15556 15856 15857 15862 15861
8 15552 15553 15558 15557 15857 15858 15863 15862
8 15553 11412 11411 15558 15858 11351 11350 15863
8 5439 15554 15559 5440 5378 15859 15864 5379
8 15554 15555 15560 15559 15859 15860 15865 15864
8 15555 15556 15561 15560 15860 15861 15866 15865
8 15556 15557 15562 15561 15861 15862 15867 15866
8 15557 15558 15563 15562 15862 15863 15868 15867
8 15558 11411 11410 15563 15863 11350 11349 15868
8 5440 15559 15564 5441 5379 15864 15869 5380
8 15559 15560 15565 15564 15864 15865 15870 15869
8 15560 15561 15566 15565 15865 15866 15871 15870
8 15561 15562 15567 15566 15866 15867 15872 15871
8 15562 15563 15568 15567 15867 15868 15873 15872
8 15563 11410 11409 15568 15868 11349 11348 15873
8 5441 15564 15569 5442 5380 15869 15874 5381
8 15564 15565 15570 15569 15869 15870 15875 15874
8 15565 15566 15571 15570 15870 15871 15876 15875
8 15566 15567 15572 15571 15871 15872 15877 15876
8 15567 15568 15573 15572 15872 15873 15878 15877
8 15568 11409 11408 15573 15873 11348 11347 15878
8 5442 15569 15574 5443 5381 15874 15879 5382
8 15569 15570 15575 15574 15874 15875 15880 15879
8 15570 15571 15576 15575 15875 15876 15881 15880
8 15571 15572 15577 15576 15876 15877 15882 15881
8 15572 15573 15578 15577 15877 15878 15883 15882
8 15573 11408 11407 15578 15878 11347 11346 15883
8 5443 15574 15579 5444 5382 15879 15884 5383
8 15574 15575 15580 15579 15879 15880 15885 15884
8 15575 15576 15581 15580 15880 15881 15886 15885
8 15576 15577 15582 15581 15881 15882 15887 15886
8 15577 15578 15583 15582 15882 15883 15888 15887
8 15578 11407 11406 15583 15883 11346 11345 15888
8 5444 15579 15584 5445 5383 15884 15889 5384
8 15579 15580 15585 15584 15884 15885 15890 15889
8 15580 15581 15586 15585 15885 15886 15891 15890
8 15581 15582 15587 15586 15886 15887 15892 15891
8 15582 15583 15588 15587 15887 15888 15893 15892
8 15583 11406 11405 15588 15888 11345 11344 15893
8 5445 15584 15589 5446 5384 15889 15894 5385
8 15584 15585 15590 15589 15889 15890 15895 15894
8 15585 15586 15591 15590 15890 15891 15896 15895
8 15586 15587 15592 15591 15891 15892 15897 15896
8 15587 15588 15593 15592 15892 15893 15898 15897
8 15588 11405 11404 15593 15893 11344 11343 15898
8 5446 15589 15594 5447 5385 15894 15899 5386
8 15589 15590 15595 15594 15894 15895 15900 15899
8 15590 15591 15596 15595 15895 15896 15901 15900
8 15591 15592 15597 15596 15896 15897 15902 15901
8 15592 15593 15598 15597 15897 15898 15903 15902
8 15593 11404 11403 15598 15898 11343 11342 15903
8 5447 15594 15599 5448 5386 15899 15904 5387
8 15594 15595 15600 15599 15899 15900 15905 15904
8 15595 15596 15601 15600 15900 15901 15906 15905
8 15596 15597 15602 15601 15901 15902 15907 15906
8 15597 15598 15603 15602 15902 15903 15908 15907
8 15598 11403 11402 15603 15903 11342 11341 15908
8 5448 15599 15604 5449 5387 15904 15909 5388
8 15599 15600 15605 15604 15904 15905 15910 15909
8 15600 15601 15606 15605 15905 15906 15911 15910
8 15601 15602 15607 15606 15906 15907 15912 15911
8 15602 15603 15608 15607 15907 15908 15913 15912
8 15603 11402 11401 15608 15908 11341 11340 15913
8 5449 15604 15609 5450 5388 15909 15914 5389
8 15604 15605 15610 15609 15909 15910 15915 15914
8 15605 15606 15611 15610 15910 15911 15916 15915
8 15606 15607 15612 15611 15911 15912 15917 15916
8 15607 15608 15613 15612 15912 15913 15918 15917
8 15608 11401 11400 15613 15913 11340 11339 15918
8 5450 15609 15614 5451 5389 15914 15919 5390
8 15609 15610 15615 15614 15914 15915 15920 15919
8 15610 15611 15616 15615 15915 15916 15921 15920
8 15611 15612 15617 15616 15916 15917 15922 15921
8 15612 15613 15618 15617 15917 15918 15923 15922
8 15613 11400 11399 15618 15918 11339 11338 15923
8 5451 15614 15619 5452 5390 15919 15924 5391
8 15614 15615 15620 15619 15919 15920 15925 15924
8 15615 15616 15621 15620 15920 15921 15926 15925
8 15616 15617 15622 15621 15921 15922 15927 15926
8 15617 15618 15623 15622 15922 15923 15928 15927
8 15618 11399 11398 15623 15923 11338 11337 15928
8 5452 15619 15624 5453 5391 15924 15929 5392
8 15619 15620 15625 15624 15924 15925 15930 15929
8 15620 15621 15626 15625 15925 15926 15931 15930
8 15621 15622 15627 15626 15926 15927 15932 15931
8 15622 15623 15628 15627 15927 15928 15933 15932
8 15623 11398 11397 15628 15928 11337 11336 15933
8 5453 15624 15629 5454 5392 15929 15934 5393
8 15624 15625 15630 15629 15929 15930 15935 15934
8 15625 15626 15631 15630 15930 15931 15936 15935
8 15626 15627 15632 15631 15931 15932 15937 15936
8 15627 15628 15633 15632 15932 15933 15938 15937
8 15628 11397 11396 15633 15933 11336 11335 15938
8 15629 15630 15635 15634 15934 15935 15940 15939
8 15630 15631 15636 15635 15935 15936 15941 15940
8 15631 15632 15637 15636 15936 15937 15942 15941
8 15632 15633 15638 15637 15937 15938 15943 15942
8 15633 11396 11395 15638 15938 11335 11334 15943
8 15634 15635 15640 15639 15939 15940 15945 15944
8 15635 15636 15641 15640 15940 15941 15946 15945
8 15636 15637 15642 15641 15941 15942 15947 15946
8 15637 15638 15643 15642 15942 15943 15948 15947
8 15638 11395 11394 15643 15943 11334 11333 15948
8 15639 15640 15645 15644 15944 15945 15950 15949
8 15640 15641 15646 15645 15945 15946 15951 15950
8 15641 15642 15647 15646 15946 15947 15952 15951
8 15642 15643 15648 15647 15947 15948 15953 15952
8 15643 11394 11393 15648 15948 11333 11332 15953
8 15644 15645 15650 15649 15949 15950 15955 15954
8 15645 15646 15651 15650 15950 15951 15956 15955
8 15646 15647 15652 15651 15951 15952 15957 15956
8 15647 15648 15653 15652 15952 15953 15958 15957
8 15648 11393 11392 15653 15953 11332 11331 15958
8 15649 15650 15655 15654 15954 15955 15960 15959
8 15650 15651 15656 15655 15955 15956 15961 15960
8 15651 15652 15657 15656 15956 15957 15962 15961
8 15652 15653 15658 15657 15957 15958 15963 15962
8 15653 11392 11391 15658 15958 11331 11330 15963
8 5459 15654 15659 5460 5398 15959 15964 5399
8 15654 15655 15660 15659 15959 15960 15965 15964
8 15655 15656 15661 15660 15960 15961 15966 15965
8 15656 15657 15662 15661 15961 15962 15967 15966
8 15657 15658 15663 15662 15962 15963 15968 15967
8 15658 11391 11390 15663 15963 11330 11329 15968
8 5460 15659 15664 5461 5399 15964 15969 5400
8 15659 15660 15665 15664 15964 15965 15970 15969
8 15660 15661 15666 15665 15965 15966 15971 15970
8 15661 15662 15667 15666 15966 15967 15972 15971
8 15662 15663 15668 15667 15967 15968 15973 15972
8 15663 11390 11389 15668 15968 11329 11328 15973
8 5461 15664 15669 5462 5400 15969 15974 5401
8 15664 15665 15670 15669 15969 15970 15975 15974
8 15665 15666 15671 15670 15970 15971 15976 15975
8 15666 15667 15672 15671 15971 15972 15977 15976
8 15667 15668 15673 15672 15972 15973 15978 15977
8 15668 11389 11388 15673 15973 11328 11327 15978
8 5462 15669 15674 5463 5401 15974 15979 5402
8 15669 15670 15675 15674 15974 15975 15980 15979
8 15670 15671 15676 15675 15975 15976 15981 15980
8 15671 15672 15677 15676 15976 15977 15982 15981
8 15672 15673 15678 15677 15977 15978 15983 15982
8 15673 11388 11387 15678 15978 11327 11326 15983
8 5463 15674 15679 5464 5402 15979 15984 5403
8 15674 15675 15680 15679 15979 15980 15985 15984
8 15675 15676 15681 15680 15980 15981 15986 15985
8 15676 15677 15682 15681 15981 15982 15987 15986
8 15677 15678 15683 15682 15982 15983 15988 15987
8 15678 11387 11386 15683 15983 11326 11325 15988
8 5464 15679 15684 5465 5403 15984 15989 5404
8 15679 15680 15685 15684 15984 15985 15990 15989
8 15680 15681 15686 15685 15985 15986 15991 15990
8 15681 15682 15687 15686 15986 15987 15992 15991
8 15682 15683 15688 15687 15987 15988 15993 15992
8 15683 11386 11385 15688 15988 11325 11324 15993
8 5465 15684 15689 5466 5404 15989 15994 5405
8 15684 15685 15690 15689 15989 15990 15995 15994
8 15685 15686 15691 15690 15990 15991 15996 15995
8 15686 15687 15692 15691 15991 15992 15997 15996
8 15687 15688 15693 15692 15992 15993 15998 15997
8 15688 11385 11384 15693 15993 11324 11323 15998
8 15689 15690 15695 15694 15994 15995 16000 15999
8 15690 15691 15696 15695 15995 15996 16001 16000
8 15691 15692 15697 15696 15996 15997 16002 16001
8 15692 15693 15698 15697 15997 15998 16003 16002
8 15693 11384 11383 15698 15998 11323 11322 16003
8 15694 15695 15700 15699 15999 16000 16005 16004
8 15695 15696 15701 15700 16000 16001 16006 16005
8 15696 15697 15702 15701 16001 16002 16007 16006
8 15697 15698 15703 15702 16002 16003 16008 16007
8 15698 11383 11382 15703 16003 11322 11321 16008
8 15699 15700 15705 15704 16004 16005 16010 16009
8 15700 15701 15706 15705 16005 16006 16011 16010
8 15701 15702 15707 15706 16006 16007 16012 16011
8 15702 15703 15708 15707 16007 16008 16013 16012
8 15703 11382 11381 15708 16008 11321 11320 16013
8 15704 15705 15710 15709 16009 16010 16015 16014
8 15705 15706 15711 15710 16010 16011 16016 16015
8 15706 15707 15712 15711 16011 16012 16017 16016
8 15707 15708 15713 15712 16012 16013 16018 16017
8 15708 11381 11380 15713 16013 11320 11319 16018
8 15709 15710 15715 15714 16014 16015 16020 16019
8 15710 15711 15716 15715 16015 16016 16021 16020
8 15711 15712 15717 15716 16016 16017 16022 16021
8 15712 15713 15718 15717 16017 16018 16023 16022
8 15713 11380 11379 15718 16018 11319 11318 16023
8 15714 15715 15720 15719 16019 16020 16025 16024
8 15715 15716 15721 15720 16020 16021 16026 16025
8 15716 15717 15722 15721 16021 16022 16027 16026
8 15717 15718 15723 15722 16022 16023 16028 16027
8 15718 11379 11378 15723 16023 11318 11317 16028
8 15719 15720 15725 15724 16024 16025 16030 16029
8 15720 15721 15726 15725 16025 16026 16031 16030
8 15721 15722 15727 15726 16026 16027 16032 16031
8 15722 15723 15728 15727 16027 16028 16033 16032
8 15723 11378 11377 15728 16028 11317 11316 16033
8 15724 15725 15730 15729 16029 16030 16035 16034
8 15725 15726 15731 15730 16030 16031 16036 16035
8 15726 15727 15732 15731 16031 16032 16037 16036
8 15727 15728 15733 15732 16032 16033 16038 16037
8 15728 11377 11376 15733 16033 11316 11315 16038
8 15729 15730 15735 15734 16034 16035 16040 16039
8 15730 15731 15736 15735 16035 16036 16041 16040
8 15731 15732 15737 15736 16036 16037 16042 16041
8 15732 15733 15738 15737 16037 16038 16043 16042
8 15733 11376 11375 15738 16038 11315 11314 16043
8 15734 15735 15740 15739 16039 16040 16045 16044
8 15735 15736 15741 15740 16040 16041 16046 16045
8 15736 15737 15742 15741 16041 16042 16047 16046
8 15737 15738 15743 15742 16042 16043 16048 16047
8 15738 11375 11374 15743 16043 11314 11313 16048
8 15739 15740 15745 15744 16044 16045 16050 16049
8 15740 15741 15746 15745 16045 16046 16051 16050
8 15741 15742 15747 15746 16046 16047 16052 16051
8 15742 15743 15748 15747 16047 16048 16053 16052
8 15743 11374 11373 15748 16048 11313 11312 16053
8 15744 15745 15750 15749 16049 16050 16055 16054
8 15745 15746 15751 15750 16050 16051 16056 16055
8 15746 15747 15752 15751 16051 16052 16057 16056
8 15747 15748 15753 15752 16052 16053 16058 16057
8 15748 11373 11372 15753 16053 11312 11311 16058
8 15749 15750 15755 15754 16054 16055 16060 16059
8 15750 15751 15756 15755 16055 16056 16061 16060
8 15751 15752 15757 15756 16056 16057 16062 16061
8 15752 15753 15758 15757 16057 16058 16063 16062
8 15753 11372 11371 15758 16058 11311 11310 16063
8 15754 15755 15760 15759 16059 16060 16065 16064
8 15755 15756 15761 15760 16060 16061 16066 16065
8 15756 15757 15762 15761 16061 16062 16067 16066
8 15757 15758 15763 15762 16062 16063 16068 16067
8 15758 11371 11370 15763 16063 11310 11309 16068
8 15759 15760 15765 15764 16064 16065 16070 16069
8 15760 15761 15766 15765 16065 16066 16071 16070
8 15761 15762 15767 15766 16066 16067 16072 16071
8 15762 15763 15768 15767 16067 16068 16073 16072
8 15763 11370 11369 15768 16068 11309 11308 16073
8 15764 15765 15770 15769 16069 16070 16075 16074
8 15765 15766 15771 15770 16070 16071 16076 16075
8 15766 15767 15772 15771 16071 16072 16077 16076
8 15767 15768 15773 15772 16072 16073 16078 16077
8 15768 11369 11368 15773 16073 11308 11307 16078
8 15769 15770 15775 15774 16074 16075 16080 16079
8 15770 15771 15776 15775 16075 16076 16081 16080
8 15771 15772 15777 15776 16076 16077 16082 16081
8 15772 15773 15778 15777 16077 16078 16083 16082
8 15773 11368 11367 15778 16078 11307 11306 16083
8 15774 15775 15780 15779 16079 16080 16085 16084
8 15775 15776 15781 15780 16080 16081 16086 16085
8 15776 15777 15782 15781 16081 16082 16087 16086
8 15777 15778 15783 15782 16082 16083 16088 16087
8 15778 11367 11366 15783 16083 11306 11305 16088
8 5484 15779 15784 5485 5423 16084 16089 5424
8 15779 15780 15785 15784 16084 16085 16090 16089
8 15780 15781 15786 15785 16085 16086 16091 16090
8 15781 15782 15787 15786 16086 16087 16092 16091
8 15782 15783 15788 15787 16087 16088 16093 16092
8 15783 11366 11365 15788 16088 11305 11304 16093
8 5485 15784 15789 5486 5424 16089 16094 5425
8 15784 15785 15790 15789 16089 16090 16095 16094
8 15785 15786 15791 15790 16090 16091 16096 16095
8 15786 15787 15792 15791 16091 16092 16097 16096
8 15787 15788 15793 15792 16092 16093 16098 16097
8 15788 11365 11364 15793 16093 11304 11303 16098
8 5486 15789 15794 5487 5425 16094 16099 5426
8 15789 15790 15795 15794 16094 16095 16100 16099
8 15790 15791 15796 15795 16095 16096 16101 16100
8 15791 15792 15797 15796 16096 16097 16102 16101
8 15792 15793 15798 15797 16097 16098 16103 16102
8 15793 11364 11363 15798 16098 11303 11302 16103
8 5487 15794 15799 5488 5426 16099 16104 5427
8 15794 15795 15800 15799 16099 16100 16105 16104
8 15795 15796 15801 15800 16100 16101 16106 16105
8 15796 15797 15802 15801 16101 16102 16107 16106
8 15797 15798 15803 15802 16102 16103 16108 16107
8 15798 11363 11362 15803 16103 11302 11301 16108
8 5488 15799 15804 5489 5427 16104 16109 5428
8 15799 15800 15805 15804 16104 16105 16110 16109
8 15800 15801 15806 15805 16105 16106 16111 16110
8 15801 15802 15807 15806 16106 16107 16112 16111
8 15802 15803 15808 15807 16107 16108 16113 16112
8 15803 11362 11361 15808 16108 11301 11300 16113
8 5489 15804 15809 5490 5428 16109 16114 5429
8 15804 15805 15810 15809 16109 16110 16115 16114
8 15805 15806 15811 15810 16110 16111 16116 16115
8 15806 15807 15812 15811 16111 16112 16117 16116
8 15807 15808 15813 15812 16112 16113 16118 16117
8 15808 11361 11360 15813 16113 11300 11299 16118
8 5490 15809 15814 5491 5429 16114 16119 5430
8 15809 15810 15815 15814 16114 16115 16120 16119
8 15810 15811 15816 15815 16115 16116 16121 16120
8 15811 15812 15817 15816 16116 16117 16122 16121
8 15812 15813 15818 15817 16117 16118 16123 16122
8 15813 11360 11359 15818 16118 11299 11298 16123
8 5491 15814 15819 5492 5430 16119 16124 5431
8 15814 15815 15820 15819 16119 16120 16125 16124
8 15815 15816 15821 15820 16120 16121 16126 16125
8 15816 15817 15822 15821 16121 16122 16127 16126
8 15817 15818 15823 15822 16122 16123 16128 16127
8 15818 11359 11358 15823 16123 11298 11297 16128
8 5492 15819 15824 5493 5431 16124 16129 5432
8 15819 15820 15825 15824 16124 16125 16130 16129
8 15820 15821 15826 15825 16125 16126 16131 16130
8 15821 15822 15827 15826 16126 16127 16132 16131
8 15822 15823 15828 15827 16127 16128 16133 16132
8 15823 11358 11357 15828 16128 11297 11296 16133
8 5493 15824 15829 5494 5432 16129 16134 5433
8 15824 15825 15830 15829 16129 16130 16135 16134
8 15825 15826 15831 15830 16130 16131 16136 16135
8 15826 15827 15832 15831 16131 16132 16137 16136
8 15827 15828 15833 15832 16132 16133 16138 16137
8 15828 11357 11356 15833 16133 11296 11295 16138
8 5494 15829 13049 148 5433 16134 13044 147
8 15829 15830 13050 13049 16134 16135 13045 13044
8 15830 15831 13051 13050 16135 16136 13046 13045
8 15831 15832 13052 13051 16136 16137 13047 13046
8 15832 15833 13053 13052 16137 16138 13048 13047
8 15833 11356 6147 13053 16138 11295 6148 13048
8 226 11894 15834 5373 227 11899 16139 5312
8 11894 11895 15835 15834 11899 11900 16140 16139
8 11895 11896 15836 15835 11900 11901 16141 16140
8 11896 11897 15837 15836 11901 11902 16142 16141
8 11897 11898 15838 15837 11902 11903 16143 16142
8 11898 6069 11355 15838 11903 6068 11294 16143
8 5373 15834 15839 5374 5312 16139 16144 5313
8 15834 15835 15840 15839 16139 16140 16145 16144
8 15835 15836 15841 15840 16140 16141 16146 16145
8 15836 15837 15842 15841 16141 16142 16147 16146
8 15837 15838 15843 15842 16142 16143 16148 16147
8 15838 11355 11354 15843 16143 11294 11293 16148
8 5374 15839 15844 5375 5313 16144 16149 5314
8 15839 15840 15845 15844 16144 16145 16150 16149
8 15840 15841 15846 15845 16145 16146 16151 16150
8 15841 15842 15847 15846 16146 16147 16152 16151
8 15842 15843 15848 15847 16147 16148 16153 16152
8 15843 11354 11353 15848 16148 11293 11292 16153
8 5375 15844 15849 5376 5314 16149 16154 5315
8 15844 15845 15850 15849 16149 16150 16155 16154
8 15845 15846 15851 15850 16150 16151 16156 16155
8 15846 15847 15852 15851 16151 16152 16157 16156
8 15847 15848 15853 15852 16152 16153 16158 16157
8 15848 11353 11352 15853 16153 11292 11291 16158
8 5376 15849 15854 5377 5315 16154 16159 5316
8 15849 15850 15855 15854 16154 16155 16160 16159
8 15850 15851 15856 15855 16155 16156 16161 16160
8 15851 15852 15857 15856 16156 16157 16162 16161
8 15852 15853 15858 15857 16157 16158 16163 16162
8 15853 11352 11351 15858 16158 11291 11290 16163
8 5377 15854 15859 5378 5316 16159 16164 5317
8 15854 15855 15860 15859 16159 16160 16165 16164
8 15855 15856 15861 15860 16160 16161 16166 16165
8 15856 15857 15862 15861 16161 16162 16167 16166
8 15857 15858 15863 15862 16162 16163 16168 16167
8 15858 11351 11350 15863 16163 11290 11289 16168
8 5378 15859 15864 5379 5317 16164 16169 5318
8 15859 15860 15865 15864 16164 16165 16170 16169
8 15860 15861 15866 15865 16165 16166 16171 16170
8 15861 15862 15867 15866 16166 16167 16172 16171
8 15862 15863 15868 15867 16167 16168 16173 16172
8 15863 11350 11349 15868 16168 11289 11288 16173
8 5379 15864 15869 5380 5318 16169 16174 5319
8 15864 15865 15870 15869 16169 16170 16175 16174
8 15865 15866 15871 15870 16170 16171 16176 16175
8 15866 15867 15872 15871 16171 16172 16177 16176
8 15867 15868 15873 15872 16172 16173 16178 16177
8 15868 11349 11348 15873 16173 11288 11287 16178
8 5380 15869 15874 5381 5319 16174 16179 5320
8 15869 15870 15875 15874 16174 16175 16180 16179
8 15870 15871 15876 15875 16175 16176 16181 16180
8 15871 15872 15877 15876 16176 16177 16182 16181
8 15872 15873 15878 15877 16177 16178 16183 16182
8 15873 11348 11347 15878 16178 11287 11286 16183
8 5381 15874 15879 5382 5320 16179 16184 5321
8 15874 15875 15880 15879 16179 16180 16185 16184
8 15875 15876 15881 15880 16180 16181 16186 16185
8 15876 15877 15882 15881 16181 16182 16187 16186
8 15877 15878 15883 15882 16182 16183 16188 16187
8 15878 11347 11346 15883 16183 11286 11285 16188
8 5382 15879 15884 5383 5321 16184 16189 5322
8 15879 15880 15885 15884 16184 16185 16190 16189
8 15880 15881 15886 15885 16185 16186 16191 16190
8 15881 15882 15887 15886 16186 16187 16192 16191
8 15882 15883 15888 15887 16187 16188 16193 16192
8 15883 11346 11345 15888 16188 11285 11284 16193
8 5383 15884 15889 5384 5322 16189 16194 5323
8 15884 15885 15890 15889 16189 16190 16195 16194
8 15885 15886 15891 15890 16190 16191 16196 16195
8 15886 15887 15892 15891 16191 16192 16197 16196
8 15887 15888 15893 15892 16192 16193 16198 16197
8 15888 11345 11344 15893 16193 11284 11283 16198
8 5384 15889 15894 5385 5323 16194 16199 5324
8 15889 15890 15895 15894 16194 16195 16200 16199
8 15890 15891 15896 15895 16195 16196 16201 16200
8 15891 15892 15897 15896 16196 16197 16202 16201
8 15892 15893 15898 15897 16197 16198 16203 16202
8 15893 11344 11343 15898 16198 11283 11282 16203
8 5385 15894 15899 5386 5324 16199 16204 5325
8 15894 15895 15900 15899 16199 16200 16205 16204
8 15895 15896 15901 15900 16200 16201 16206 16205
8 15896 15897 15902 15901 16201 16202 16207 16206
8 15897 15898 15903 15902 16202 16203 16208 16207
8 15898 11343 11342 15903 16203 11282 11281 16208
8 5386 15899 15904 5387 5325 16204 16209 5326
8 15899 15900 15905 15904 16204 16205 16210 16209
8 15900 15901 15906 15905 16205 16206 16211 16210
8 15901 15902 15907 15906 16206 16207 16212 16211
8 15902 15903 15908 15907 16207 16208 16213 16212
8 15903 11342 11341 15908 16208 11281 11280 16213
8 5387 15904 15909 5388 5326 16209 16214 5327
8 15904 15905 15910 15909 16209 16210 16215 16214
8 15905 15906 15911 15910 16210 16211 16216 16215
8 15906 15907 15912 15911 16211 16212 16217 16216
8 15907 15908 15913 15912 16212 16213 16218 16217
8 15908 11341 11340 15913 16213 11280 11279 16218
8 5388 15909 15914 5389 5327 16214 16219 5328
8 15909 15910 15915 15914 16214 16215 16220 16219
8 15910 15911 15916 15915 16215 16216 16221 16220
8 15911 15912 15917 15916 16216 16217 16222 16221
8 15912 15913 15918 15917 16217 16218 16223 16222
8 15913 11340 11339 15918 16218 11279 11278 16223
8 5389 15914 15919 5390 5328 16219 16224 5329
8 15914 15915 15920 15919 16219 16220 16225 16224
8 15915 15916 15921 15920 16220 16221 16226 16225
8 15916 15917 15922 15921 16221 16222 16227 16226
8 15917 15918 15923 15922 16222 16223 16228 16227
8 15918 11339 11338 15923 16223 11278 11277 16228
8 5390 15919 15924 5391 5329 16224 16229 5330
8 15919 15920 15925 15924 16224 16225 16230 16229
8 15920 15921 15926 15925 16225 16226 16231 16230
8 15921 15922 15927 15926 16226 16227 16232 16231
8 15922 15923 15928 15927 16227 16228 16233 16232
8 15923 11338 11337 15928 16228 11277 11276 16233
8 5391 15924 15929 5392 5330 16229 16234 5331
8 15924 15925 15930 15929 16229 16230 16235 16234
8 15925 15926 15931 15930 16230 16231 16236 16235
8 15926 15927 15932 15931 16231 16232 16237 16236
8 15927 15928 15933 15932 16232 16233 16238 16237
8 15928 11337 11336 15933 16233 11276 11275 16238
8 5392 15929 15934 5393 5331 16234 16239 5332
8 15929 15930 15935 15934 16234 16235 16240 16239
8 15930 15931 15936 15935 16235 16236 16241 16240
8 15931 15932 15937 15936 16236 16237 16242 16241
8 15932 15933 15938 15937 16237 16238 16243 16242
8 15933 11336 11335 15938 16238 11275 11274 16243
8 15934 15935 15940 15939 16239 16240 16245 16244
8 15935 15936 15941 15940 16240 16241 16246 16245
8 15936 15937 15942 15941 16241 16242 16247 16246
8 15937 15938 15943 15942 16242 16243 16248 16247
8 15938 11335 11334 15943 16243 11274 11273 16248
8 15939 15940 15945 15944 16244 16245 16250 16249
8 15940 15941 15946 15945 16245 16246 16251 16250
8 15941 15942 15947 15946 16246 16247 16252 16251
8 15942 15943 15948 15947 16247 16248 16253 16252
8 15943 11334 11333 15948 16248 11273 11272 16253
8 15944 15945 15950 15949 16249 16250 16255 16254
8 15945 15946 15951 15950 16250 16251 16256 16255
8 15946 15947 15952 15951 16251 16252 16257 16256
8 15947 15948 15953 15952 16252 16253 16258 16257
8 15948 11333 11332 15953 16253 11272 11271 16258
8 15949 15950 15955 15954 16254 16255 16260 16259
8 15950 15951 15956 15955 16255 16256 16261 16260
8 15951 15952 15957 15956 16256 16257 16262 16261
8 15952 15953 15958 15957 16257 16258 16263 16262
8 15953 11332 11331 15958 16258 11271 11270 16263
8 15954 15955 15960 15959 16259 16260 16265 16264
8 15955 15956 15961 15960 16260 16261 16266 16265
8 15956 15957 15962 15961 16261 16262 16267 16266
8 15957 15958 15963 15962 16262 16263 16268 16267
8 15958 11331 11330 15963 16263 11270 11269 16268
8 5398 15959 15964 5399 5337 16264 16269 5338
8 15959 15960 15965 15964 16264 16265 16270 16269
8 15960 15961 15966 15965 16265 16266 16271 16270
8 15961 15962 15967 15966 16266 16267 16272 16271
8 15962 15963 15968 15967 16267 16268 16273 16272
8 15963 11330 11329 15968 16268 11269 11268 16273
8 5399 15964 15969 5400 5338 16269 16274 5339
8 15964 15965 15970 15969 16269 16270 16275 16274
8 15965 15966 15971 15970 16270 16271 16276 16275
8 15966 15967 15972 15971 16271 16272 16277 16276
8 15967 15968 15973 15972 16272 16273 16278 16277
8 15968 11329 11328 15973 16273 11268 11267 16278
8 5400 15969 15974 5401 5339 16274 16279 5340
8 15969 15970 15975 15974 16274 16275 16280 16279
8 15970 15971 15976 15975 16275 16276 16281 16280
8 15971 15972 15977 15976 16276 16277 16282 16281
8 15972 15973 15978 15977 16277 16278 16283 16282
8 15973 11328 11327 15978 16278 11267 11266 16283
8 5401 15974 15979 5402 5340 16279 16284 5341
8 15974 15975 15980 15979 16279 16280 16285 16284
8 15975 15976 15981 15980 16280 16281 16286 16285
8 15976 15977 15982 15981 16281 16282 16287 16286
8 15977 15978 15983 15982 16282 16283 16288 16287
8 15978 11327 11326 15983 16283 11266 11265 16288
8 5402 15979 15984 5403 5341 16284 16289 5342
8 15979 15980 15985 15984 16284 16285 16290 16289
8 15980 15981 15986 15985 16285 16286 16291 16290
8 15981 15982 15987 15986 16286 16287 16292 16291
8 15982 15983 15988 15987 16287 16288 16293 16292
8 15983 11326 11325 15988 16288 11265 11264 16293
8 5403 15984 15989 5404 5342 16289 16294 5343
8 15984 15985 15990 15989 16289 16290 16295 16294
8 15985 15986 15991 15990 16290 16291 16296 16295
8 15986 15987 15992 15991 16291 16292 16297 16296
8 15987 15988 15993 15992 16292 16293 16298 16297
8 15988 11325 11324 15993 16293 11264 11263 16298
8 5404 15989 15994 5405 5343 16294 16299 5344
8 15989 15990 15995 15994 16294 16295 16300 16299
8 15990 15991 15996 15995 16295 16296 16301 16300
8 15991 15992 15997 15996 16296 16297 16302 16301
8 15992 15993 15998 15997 16297 16298 16303 16302
8 15993 11324 11323 15998 16298 11263 11262 16303
8 15994 15995 16000 15999 16299 16300 16305 16304
8 15995 15996 16001 16000 16300 16301 16306 16305
8 15996 15997 16002 16001 16301 16302 16307 16306
8 15997 15998 16003 16002 16302 16303 16308 16307
8 15998 11323 11322 16003 16303 11262 11261 16308
8 15999 16000 16005 16004 16304 16305 16310 16309
8 16000 16001 16006 16005 16305 16306 16311 16310
8 16001 16002 16007 16006 16306 16307 16312 16311
8 16002 16003 16008 16007 16307 16308 16313 16312
8 16003 11322 11321 16008 16308 11261 11260 16313
8 16004 16005 16010 16009 16309 16310 16315 16314
8 16005 16006 16011 16010 16310 16311 16316 16315
8 16006 16007 16012 16011 16311 16312 16317 16316
8 16007 16008 16013 16012 16312 16313 16318 16317
8 16008 11321 11320 16013 16313 11260 11259 16318
8 16009 16010 16015 16014 16314 16315 16320 16319
8 16010 16011 16016 16015 16315 16316 16321 16320
8 16011 16012 16017 16016 16316 16317 16322 16321
8 16012 16013 16018 16017 16317 16318 16323 16322
8 16013 11320 11319 16018 16318 11259 11258 16323
8 16014 16015 16020 16019 16319 16320 16325 16324
8 16015 16016 16021 16020 16320 16321 16326 16325
8 16016 16017 16022 16021 16321 16322 16327 16326
8 16017 16018 16023 16022 16322 16323 16328 16327
8 16018 11319 11318 16023 16323 11258 11257 16328
8 16019 16020 16025 16024 16324 16325 16330 16329
8 16020 16021 16026 16025 16325 16326 16331 16330
8 16021 16022 16027 16026 16326 16327 16332 16331
8 16022 16023 16028 16027 16327 16328 16333 16332
8 16023 11318 11317 16028 16328 11257 11256 16333
8 16024 16025 16030 16029 16329 16330 16335 16334
8 16025 16026 16031 16030 16330 16331 16336 16335
8 16026 16027 16032 16031 16331 16332 16337 16336
8 16027 16028 16033 16032 16332 16333 16338 16337
8 16028 11317 11316 16033 16333 11256 11255 16338
8 16029 16030 16035 16034 16334 16335 16340 16339
8 16030 16031 16036 16035 16335 16336 16341 16340
8 16031 16032 16037 16036 16336 16337 16342 16341
8 16032 16033 16038 16037 16337 16338 16343 16342
8 16033 11316 11315 16038 16338 11255 11254 16343
8 16034 16035 16040 16039 16339 16340 16345 16344
8 16035 16036 16041 16040 16340 16341 16346 16345
8 16036 16037 16042 16041 16341 16342 16347 16346
8 16037 16038 16043 16042 16342 16343 16348 16347
8 16038 11315 11314 16043 16343 11254 11253 16348
8 16039 16040 16045 16044 16344 16345 16350 16349
8 16040 16041 16046 16045 16345 16346 16351 16350
8 16041 16042 16047 16046 16346 16347 16352 16351
8 16042 16043 16048 16047 16347 16348 16353 16352
8 16043 11314 11313 16048 16348 11253 11252 16353
8 16044 16045 16050 16049 16349 16350 16355 16354
8 16045 16046 16051 16050 16350 16351 16356 16355
8 16046 16047 16052 16051 16351 16352 16357 16356
8 16047 16048 16053 16052 16352 16353 16358 16357
8 16048 11313 11312 16053 16353 11252 11251 16358
8 16049 16050 16055 16054 16354 16355 16360 16359
8 16050 16051 16056 16055 16355 16356 16361 16360
8 16051 16052 16057 16056 16356 16357 16362 16361
8 16052 16053 16058 16057 16357 16358 16363 16362
8 16053 11312 11311 16058 16358 11251 11250 16363
8 16054 16055 16060 16059 16359 16360 16365 16364
8 16055 16056 16061 16060 16360 16361 16366 16365
8 16056 16057 16062 16061 16361 16362 16367 16366
8 16057 16058 16063 16062 16362 16363 16368 16367
8 16058 11311 11310 16063 16363 11250 11249 16368
8 16059 16060 16065 16064 16364 16365 16370 16369
8 16060 16061 16066 16065 16365 16366 16371 16370
8 16061 16062 16067 16066 16366 16367 16372 16371
8 16062 16063 16068 16067 16367 16368 16373 16372
8 16063 11310 11309 16068 16368 11249 11248 16373
8 16064 16065 16070 16069 16369 16370 16375 16374
8 16065 16066 16071 16070 16370 16371 16376 16375
8 16066 16067 16072 16071 16371 16372 16377 16376
8 16067 16068 16073 16072 16372 16373 16378 16377
8 16068 11309 11308 16073 16373 11248 11247 16378
8 16069 16070 16075 16074 16374 16375 16380 16379
8 16070 16071 16076 16075 16375 16376 16381 16380
8 16071 16072 16077 16076 16376 16377 16382 16381
8 16072 16073 16078 16077 16377 16378 16383 16382
8 16073 11308 11307 16078 16378 11247 11246 16383
8 16074 16075 16080 16079 16379 16380 16385 16384
8 16075 16076 16081 16080 16380 16381 16386 16385
8 16076 16077 16082 16081 16381 16382 16387 16386
8 16077 16078 16083 16082 16382 16383 16388 16387
8 16078 11307 11306 16083 16383 11246 11245 16388
8 16079 16080 16085 16084 16384 16385 16390 16389
8 16080 16081 16086 16085 16385 16386 16391 16390
8 16081 16082 16087 16086 16386 16387 16392 16391
8 16082 16083 16088 16087 16387 16388 16393 16392
8 16083 11306 11305 16088 16388 11245 11244 16393
8 5423 16084 16089 5424 5362 16389 16394 5363
8 16084 16085 16090 16089 16389 16390 16395 16394
8 16085 16086 16091 16090 16390 16391 16396 16395
8 16086 16087 16092 16091 16391 16392 16397 16396
8 16087 16088 16093 16092 16392 16393 16398 16397
8 16088 11305 11304 16093 16393 11244 11243 16398
8 5424 16089 16094 5425 5363 16394 16399 5364
8 16089 16090 16095 16094 16394 16395 16400 16399
8 16090 16091 16096 16095 16395 16396 16401 16400
8 16091 16092 16097 16096 16396 16397 16402 16401
8 16092 16093 16098 16097 16397 16398 16403 16402
8 16093 11304 11303 16098 16398 11243 11242 16403
8 5425 16094 16099 5426 5364 16399 16404 5365
8 16094 16095 16100 16099 16399 16400 16405 16404
8 16095 16096 16101 16100 16400 16401 16406 16405
8 16096 16097 16102 16101 16401 16402 16407 16406
8 16097 16098 16103 16102 16402 16403 16408 16407
8 16098 11303 11302 16103 16403 11242 11241 16408
8 5426 16099 16104 5427 5365 16404 16409 5366
8 16099 16100 16105 16104 16404 16405 16410 16409
8 16100 16101 16106 16105 16405 16406 16411 16410
8 16101 16102 16107 16106 16406 16407 16412 16411
8 16102 16103 16108 16107 16407 16408 16413 16412
8 16103 11302 11301 16108 16408 11241 11240 16413
8 5427 16104 16109 5428 5366 16409 16414 5367
8 16104 16105 16110 16109 16409 16410 16415 16414
8 16105 16106 16111 16110 16410 16411 16416 16415
8 16106 16107 16112 16111 16411 16412 16417 16416
8 16107 16108 16113 16112 16412 16413 16418 16417
8 16108 11301 11300 16113 16413 11240 11239 16418
8 5428 16109 16114 5429 5367 16414 16419 5368
8 16109 16110 16115 16114 16414 16415 16420 16419
8 16110 16111 16116 16115 16415 16416 16421 16420
8 16111 16112 16117 16116 16416 16417 16422 16421
8 16112 16113 16118 16117 16417 16418 16423 16422
8 16113 11300 11299 16118 16418 11239 11238 16423
8 5429 16114 16119 5430 5368 16419 16424 5369
8 16114 16115 16120 16119 16419 16420 16425 16424
8 16115 16116 16121 16120 16420 16421 16426 16425
8 16116 16117 16122 16121 16421 16422 16427 16426
8 16117 16118 16123 16122 16422 16423 16428 16427
8 16118 11299 11298 16123 16423 11238 11237 16428
8 5430 16119 16124 5431 5369 16424 16429 5370
8 16119 16120 16125 16124 16424 16425 16430 16429
8 16120 16121 16126 16125 16425 16426 16431 16430
8 16121 16122 16127 16126 16426 16427 16432 16431
8 16122 16123 16128 16127 16427 16428 16433 16432
8 16123 11298 11297 16128 16428 11237 11236 16433
8 5431 16124 16129 5432 5370 16429 16434 5371
8 16124 16125 16130 16129 16429 16430 16435 16434
8 16125 16126 16131 16130 16430 16431 16436 16435
8 16126 16127 16132 16131 16431 16432 16437 16436
8 16127 16128 16133 16132 16432 16433 16438 16437
8 16128 11297 11296 16133 16433 11236 11235 16438
8 5432 16129 16134 5433 5371 16434 16439 5372
8 16129 16130 16135 16134 16434 16435 16440 16439
8 16130 16131 16136 16135 16435 16436 16441 16440
8 16131 16132 16137 16136 16436 16437 16442 16441
8 16132 16133 16138 16137 16437 16438 16443 16442
8 16133 11296 11295 16138 16438 11235 11234 16443
8 5433 16134 13044 147 5372 16439 13039 146
8 16134 16135 13045 13044 16439 16440 13040 13039
8 16135 16136 13046 13045 16440 16441 13041 13040
8 16136 16137 13047 13046 16441 16442 13042 13041
8 16137 16138 13048 13047 16442 16443 13043 13042
8 16138 11295 6148 13048 16443 11234 6149 13043
8 227 11899 16139 5312 228 11904 16444 5251
8 11899 11900 16140 16139 11904 11905 16445 16444
8 11900 11901 16141 16140 11905 11906 16446 16445
8 11901 11902 16142 16141 11906 11907 16447 16446
8 11902 11903 16143 16142 11907 11908 16448 16447
8 11903 6068 11294 16143 11908 6067 11233 16448
8 5312 16139 16144 5313 5251 16444 16449 5252
8 16139 16140 16145 16144 16444 16445 16450 16449
8 16140 16141 16146 16145 16445 16446 16451 16450
8 16141 16142 16147 16146 16446 16447 16452 16451
8 16142 16143 16148 16147 16447 16448 16453 16452
8 16143 11294 11293 16148 16448 11233 11232 16453
8 5313 16144 16149 5314 5252 16449 16454 5253
8 16144 16145 16150 16149 16449 16450 16455 16454
8 16145 16146 16151 16150 16450 16451 16456 16455
8 16146 16147 16152 16151 16451 16452 16457 16456
8 16147 16148 16153 16152 16452 16453 16458 16457
8 16148 11293 11292 16153 16453 11232 11231 16458
8 5314 16149 16154 5315 5253 16454 16459 5254
8 16149 16150 16155 16154 16454 16455 16460 16459
8 16150 16151 16156 16155 16455 16456 16461 16460
8 16151 16152 16157 16156 16456 16457 16462 16461
8 16152 16153 16158 16157 16457 16458 16463 16462
8 16153 11292 11291 16158 16458 11231 11230 16463
8 5315 16154 16159 5316 5254 16459 16464 5255
8 16154 16155 16160 16159 16459 16460 16465 16464
8 16155 16156 16161 16160 16460 16461 16466 16465
8 16156 16157 16162 16161 16461 16462 16467 16466
8 16157 16158 16163 16162 16462 16463 16468 16467
8 16158 11291 11290 16163 16463 11230 11229 16468
8 5316 16159 16164 5317 5255 16464 16469 5256
8 16159 16160 16165 16164 16464 16465 16470 16469
8 16160 16161 16166 16165 16465 16466 16471 16470
8 16161 16162 16167 16166 16466 16467 16472 16471
8 16162 16163 16168 16167 16467 16468 16473 16472
8 16163 11290 11289 16168 16468 11229 11228 16473
8 5317 16164 16169 5318 5256 16469 16474 5257
8 16164 16165 16170 16169 16469 16470 16475 16474
8 16165 16166 16171 16170 16470 16471 16476 16475
8 16166 16167 16172 16171 16471 16472 16477 16476
8 16167 16168 16173 16172 16472 16473 16478 16477
8 16168 11289 11288 16173 16473 11228 11227 16478
8 5318 16169 16174 5319 5257 16474 16479 5258
8 16169 16170 16175 16174 16474 16475 16480 16479
8 16170 16171 16176 16175 16475 16476 16481 16480
8 16171 16172 16177 16176 16476 16477 16482 16481
8 16172 16173 16178 16177 16477 16478 16483 16482
8 16173 11288 11287 16178 16478 11227 11226 16483
8 5319 16174 16179 5320 5258 16479 16484 5259
8 16174 16175 16180 16179 16479 16480 16485 16484
8 16175 16176 16181 16180 16480 16481 16486 16485
8 16176 16177 16182 16181 16481 16482 16487 16486
8 16177 16178 16183 16182 16482 16483 16488 16487
8 16178 11287 11286 16183 16483 11226 11225 16488
8 5320 16179 16184 5321 5259 16484 16489 5260
8 16179 16180 16185 16184 16484 16485 16490 16489
8 16180 16181 16186 16185 16485 16486 16491 16490
8 16181 16182 16187 16186 16486 16487 16492 16491
8 16182 16183 16188 16187 16487 16488 16493 16492
8 16183 11286 11285 16188 16488 11225 11224 16493
8 5321 16184 16189 5322 5260 16489 16494 5261
8 16184 16185 16190 16189 16489 16490 16495 16494
8 16185 16186 16191 16190 16490 16491 16496 16495
8 16186 16187 16192 16191 16491 16492 16497 16496
8 16187 16188 16193 16192 16492 16493 16498 16497
8 16188 11285 11284 16193 16493 11224 11223 16498
8 5322 16189 16194 5323 5261 16494 16499 5262
8 16189 16190 16195 16194 16494 16495 16500 16499
8 16190 16191 16196 16195 16495 16496 16501 16500
8 16191 16192 16197 16196 16496 16497 16502 16501
8 16192 16193 16198 16197 16497 16498 16503 16502
8 16193 11284 11283 16198 16498 11223 11222 16503
8 5323 16194 16199 5324 5262 16499 16504 5263
8 16194 16195 16200 16199 16499 16500 16505 16504
8 16195 16196 16201 16200 16500 16501 16506 16505
8 16196 16197 16202 16201 16501 16502 16507 16506
8 16197 16198 16203 16202 16502 16503 16508 16507
8 16198 11283 11282 16203 16503 11222 11221 16508
8 5324 16199 16204 5325 5263 16504 16509 5264
8 16199 16200 16205 16204 16504 16505 16510 16509
8 16200 16201 16206 16205 16505 16506 16511 16510
8 16201 16202 16207 16206 16506 16507 16512 16511
8 16202 16203 16208 16207 16507 16508 16513 16512
8 16203 11282 11281 16208 16508 11221 11220 16513
8 5325 16204 16209 5326 5264 16509 16514 5265
8 16204 16205 16210 16209 16509 16510 16515 16514
8 16205 16206 16211 16210 16510 16511 16516 16515
8 16206 16207 16212 16211 16511 16512 16517 16516
8 16207 16208 16213 16212 16512 16513 16518 16517
8 16208 11281 11280 16213 16513 11220 11219 16518
8 5326 16209 16214 5327 5265 16514 16519 5266
8 16209 16210 16215 16214 16514 16515 16520 16519
8 16210 16211 16216 16215 16515 16516 16521 16520
8 16211 16212 16217 16216 16516 16517 16522 16521
8 16212 16213 16218 16217 16517 16518 16523 16522
8 16213 11280 11279 16218 16518 11219 11218 16523
8 5327 16214 16219 5328 5266 16519 16524 5267
8 16214 16215 16220 16219 16519 16520 16525 16524
8 16215 16216 16221 16220 16520 16521 16526 16525
8 16216 16217 16222 16221 16521 16522 16527 16526
8 16217 16218 16223 16222 16522 16523 16528 16527
8 16218 11279 11278 16223 16523 11218 11217 16528
8 5328 16219 16224 5329 5267 16524 16529 5268
8 16219 16220 16225 16224 16524 16525 16530 16529
8 16220 16221 16226 16225 16525 16526 16531 16530
8 16221 16222 16227 16226 16526 16527 16532 16531
8 16222 16223 16228 16227 16527 16528 16533 16532
8 16223 11278 11277 16228 16528 11217 11216 16533
8 5329 16224 16229 5330 5268 16529 16534 5269
8 16224 16225 16230 16229 16529 16530 16535 16534
8 16225 16226 16231 16230 16530 16531 16536 16535
8 16226 16227 16232 16231 16531 16532 16537 16536
8 16227 16228 16233 16232 16532 16533 16538 16537
8 16228 11277 11276 16233 16533 11216 11215 16538
8 5330 16229 16234 5331 5269 16534 16539 5270
8 16229 16230 16235 16234 16534 16535 16540 16539
8 16230 16231 16236 16235 16535 16536 16541 16540
8 16231 16232 16237 16236 16536 16537 16542 16541
8 16232 16233 16238 16237 16537 16538 16543 16542
8 16233 11276 11275 16238 16538 11215 11214 16543
8 5331 16234 16239 5332 5270 16539 16544 5271
8 16234 16235 16240 16239 16539 16540 16545 16544
8 16235 16236 16241 16240 16540 16541 16546 16545
8 16236 16237 16242 16241 16541 16542 16547 16546
8 16237 16238 16243 16242 16542 16543 16548 16547
8 16238 11275 11274 16243 16543 11214 11213 16548
8 16239 16240 16245 16244 16544 16545 16550 16549
8 16240 16241 16246 16245 16545 16546 16551 16550
8 16241 16242 16247 16246 16546 16547 16552 16551
8 16242 16243 16248 16247 16547 16548 16553 16552
8 16243 11274 11273 16248 16548 11213 11212 16553
8 16244 16245 16250 16249 16549 16550 16555 16554
8 16245 16246 16251 16250 16550 16551 16556 16555
8 16246 16247 16252 16251 16551 16552 16557 16556
8 16247 16248 16253 16252 16552 16553 16558 16557
8 16248 11273 11272 16253 16553 11212 11211 16558
8 16249 16250 16255 16254 16554 16555 16560 16559
8 16250 16251 16256 16255 16555 16556 16561 16560
8 16251 16252 16257 16256 16556 16557 16562 16561
8 16252 16253 16258 16257 16557 16558 16563 16562
8 16253 11272 11271 16258 16558 11211 11210 16563
8 16254 16255 16260 16259 16559 16560 16565 16564
8 16255 16256 16261 16260 16560 16561 16566 16565
8 16256 16257 16262 16261 16561 16562 16567 16566
8 16257 16258 16263 16262 16562 16563 16568 16567
8 16258 11271 11270 16263 16563 11210 11209 16568
8 16259 16260 16265 16264 16564 16565 16570 16569
8 16260 16261 16266 16265 16565 16566 16571 16570
8 16261 16262 16267 16266 16566 16567 16572 16571
8 16262 16263 16268 16267 16567 16568 16573 16572
8 16263 11270 11269 16268 16568 11209 11208 16573
8 5337 16264 16269 5338 5276 16569 16574 5277
8 16264 16265 16270 16269 16569 16570 16575 16574
8 16265 16266 16271 16270 16570 16571 16576 16575
8 16266 16267 16272 16271 16571 16572 16577 16576
8 16267 16268 16273 16272 16572 16573 16578 16577
8 16268 11269 11268 16273 16573 11208 11207 16578
8 5338 16269 16274 5339 5277 16574 16579 5278
8 16269 16270 16275 16274 16574 16575 16580 16579
8 16270 16271 16276 16275 16575 16576 16581 16580
8 16271 16272 16277 16276 16576 16577 16582 16581
8 16272 16273 16278 16277 16577 16578 16583 16582
8 16273 11268 11267 16278 16578 11207 11206 16583
8 5339 16274 16279 5340 5278 16579 16584 5279
8 16274 16275 16280 16279 16579 16580 16585 16584
8 16275 16276 16281 16280 16580 16581 16586 16585
8 16276 16277 16282 16281 16581 16582 16587 16586
8 16277 16278 16283 16282 16582 16583 16588 16587
8 16278 11267 11266 16283 16583 11206 11205 16588
8 5340 16279 16284 5341 5279 16584 16589 5280
8 16279 16280 16285 16284 16584 16585 16590 16589
8 16280 16281 16286 16285 16585 16586 16591 16590
8 16281 16282 16287 16286 16586 16587 16592 16591
8 16282 16283 16288 16287 16587 16588 16593 16592
8 16283 11266 11265 16288 16588 11205 11204 16593
8 5341 16284 16289 5342 5280 16589 16594 5281
8 16284 16285 16290 16289 16589 16590 16595 16594
8 16285 16286 16291 16290 16590 16591 16596 16595
8 16286 16287 16292 16291 16591 16592 16597 16596
8 16287 16288 16293 16292 16592 16593 16598 16597
8 16288 11265 11264 16293 16593 11204 11203 16598
8 5342 16289 16294 5343 5281 16594 16599 5282
8 16289 16290 16295 16294 16594 16595 16600 16599
8 16290 16291 16296 16295 16595 16596 16601 16600
8 16291 16292 16297 16296 16596 16597 16602 16601
8 16292 16293 16298 16297 16597 16598 16603 16602
8 16293 11264 11263 16298 16598 11203 11202 16603
8 5343 16294 16299 5344 5282 16599 16604 5283
8 16294 16295 16300 16299 16599 16600 16605 16604
8 16295 16296 16301 16300 16600 16601 16606 16605
8 16296 16297 16302 16301 16601 16602 16607 16606
8 16297 16298 16303 16302 16602 16603 16608 16607
8 16298 11263 11262 16303 16603 11202 11201 16608
8 16299 16300 16305 16304 16604 16605 16610 16609
8 16300 16301 16306 16305 16605 16606 16611 16610
8 16301 16302 16307 16306 16606 16607 16612 16611
8 16302 16303 16308 16307 16607 16608 16613 16612
8 16303 11262 11261 16308 16608 11201 11200 16613
8 16304 16305 16310 16309 16609 16610 16615 16614
8 16305 16306 16311 16310 16610 16611 16616 16615
8 16306 16307 16312 16311 16611 16612 16617 16616
8 16307 16308 16313 16312 16612 16613 16618 16617
8 16308 11261 11260 16313 16613 11200 11199 16618
8 16309 16310 16315 16314 16614 16615 16620 16619
8 16310 16311 16316 16315 16615 16616 16621 16620
8 16311 16312 16317 16316 16616 16617 16622 16621
8 16312 16313 16318 16317 16617 16618 16623 16622
8 16313 11260 11259 16318 16618 11199 11198 16623
8 16314 16315 16320 16319 16619 16620 16625 16624
8 16315 16316 16321 16320 16620 16621 16626 16625
8 16316 16317 16322 16321 16621 16622 16627 16626
8 16317 16318 16323 16322 16622 16623 16628 16627
8 16318 11259 11258 16323 16623 11198 11197 16628
8 16319 16320 16325 16324 16624 16625 16630 16629
8 16320 16321 16326 16325 16625 16626 16631 16630
8 16321 16322 16327 16326 16626 16627 16632 16631
8 16322 16323 16328 16327 16627 16628 16633 16632
8 16323 11258 11257 16328 16628 11197 11196 16633
8 16324 16325 16330 16329 16629 16630 16635 16634
8 16325 16326 16331 16330 16630 16631 16636 16635
8 16326 16327 16332 16331 16631 16632 16637 16636
8 16327 16328 16333 16332 16632 16633 16638 16637
8 16328 11257 11256 16333 16633 11196 11195 16638
8 16329 16330 16335 16334 16634 16635 16640 16639
8 16330 16331 16336 16335 16635 16636 16641 16640
8 16331 16332 16337 16336 16636 16637 16642 16641
8 16332 16333 16338 16337 16637 16638 16643 16642
8 16333 11256 11255 16338 16638 11195 11194 16643
8 16334 16335 16340 16339 16639 16640 16645 16644
8 16335 16336 16341 16340 16640 16641 16646 16645
8 16336 16337 16342 16341 16641 16642 16647 16646
8 16337 16338 16343 16342 16642 16643 16648 16647
8 16338 11255 11254 16343 16643 11194 11193 16648
8 16339 16340 16345 16344 16644 16645 16650 16649
8 16340 16341 16346 16345 16645 16646 16651 16650
8 16341 16342 16347 16346 16646 16647 16652 16651
8 16342 16343 16348 16347 16647 16648 16653 16652
8 16343 11254 11253 16348 16648 11193 11192 16653
8 16344 16345 16350 16349 16649 16650 16655 16654
8 16345 16346 16351 16350 16650 16651 16656 16655
8 16346 16347 16352 16351 16651 16652 16657 16656
8 16347 16348 16353 16352 16652 16653 16658 16657
8 16348 11253 11252 16353 16653 11192 11191 16658
8 16349 16350 16355 16354 16654 16655 16660 16659
8 16350 16351 16356 16355 16655 16656 16661 16660
8 16351 16352 16357 16356 16656 16657 16662 16661
8 16352 16353 16358 16357 16657 16658 16663 16662
8 16353 11252 11251 16358 16658 11191 11190 16663
8 16354 16355 16360 16359 16659 16660 16665 16664
8 16355 16356 16361 16360 16660 16661 16666 16665
8 16356 16357 16362 16361 16661 16662 16667 16666
8 16357 16358 16363 16362 16662 16663 16668 16667
8 16358 11251 11250 16363 16663 11190 11189 16668
8 16359 16360 16365 16364 16664 16665 16670 16669
8 16360 16361 16366 16365 16665 16666 16671 16670
8 16361 16362 16367 16366 16666 16667 16672 16671
8 16362 16363 16368 16367 16667 16668 16673 16672
8 16363 11250 11249 16368 16668 11189 11188 16673
8 16364 16365 16370 16369 16669 16670 16675 16674
8 16365 16366 16371 16370 16670 16671 16676 16675
8 16366 16367 16372 16371 16671 16672 16677 16676
8 16367 16368 16373 16372 16672 16673 16678 16677
8 16368 11249 11248 16373 16673 11188 11187 16678
8 16369 16370 16375 16374 16674 16675 16680 16679
8 16370 16371 16376 16375 16675 16676 16681 16680
8 16371 16372 16377 16376 16676 16677 16682 16681
8 16372 16373 16378 16377 16677 16678 16683 16682
8 16373 11248 11247 16378 16678 11187 11186 16683
8 16374 16375 16380 16379 16679 16680 16685 16684
8 16375 16376 16381 16380 16680 16681 16686 16685
8 16376 16377 16382 16381 16681 16682 16687 16686
8 16377 16378 16383 16382 16682 16683 16688 16687
8 16378 11247 11246 16383 16683 11186 11185 16688
8 16379 16380 16385 16384 16684 16685 16690 16689
8 16380 16381 16386 16385 16685 16686 16691 16690
8 16381 16382 16387 16386 16686 16687 16692 16691
8 16382 16383 16388 16387 16687 16688 16693 16692
8 16383 11246 11245 16388 16688 11185 11184 16693
8 16384 16385 16390 16389 16689 16690 16695 16694
8 16385 16386 16391 16390 16690 16691 16696 16695
8 16386 16387 16392 16391 16691 16692 16697 16696
8 16387 16388 16393 16392 16692 16693 16698 16697
8 16388 11245 11244 16393 16693 11184 11183 16698
8 5362 16389 16394 5363 5301 16694 16699 5302
8 16389 16390 16395 16394 16694 16695 16700 16699
8 16390 16391 16396 16395 16695 16696 16701 16700
8 16391 16392 16397 16396 16696 16697 16702 16701
8 16392 16393 16398 16397 16697 16698 16703 16702
8 16393 11244 11243 16398 16698 11183 11182 16703
8 5363 16394 16399 5364 5302 16699 16704 5303
8 16394 16395 16400 16399 16699 16700 16705 16704
8 16395 16396 16401 16400 16700 16701 16706 16705
8 16396 16397 16402 16401 16701 16702 16707 16706
8 16397 16398 16403 16402 16702 16703 16708 16707
8 16398 11243 11242 16403 16703 11182 11181 16708
8 5364 16399 16404 5365 5303 16704 16709 5304
8 16399 16400 16405 16404 16704 16705 16710 16709
8 16400 16401 16406 16405 16705 16706 16711 16710
8 16401 16402 16407 16406 16706 16707 16712 16711
8 16402 16403 16408 16407 16707 16708 16713 16712
8 16403 11242 11241 16408 16708 11181 11180 16713
8 5365 16404 16409 5366 5304 16709 16714 5305
8 16404 16405 16410 16409 16709 16710 16715 16714
8 16405 16406 16411 16410 16710 16711 16716 16715
8 16406 16407 16412 16411 16711 16712 16717 16716
8 16407 16408 16413 16412 16712 16713 16718 16717
8 16408 11241 11240 16413 16713 11180 11179 16718
8 5366 16409 16414 5367 5305 16714 16719 5306
8 16409 16410 16415 16414 16714 16715 16720 16719
8 16410 16411 16416 16415 16715 16716 16721 16720
8 16411 16412 16417 16416 16716 16717 16722 16721
8 16412 16413 16418 16417 16717 16718 16723 16722
8 16413 11240 11239 16418 16718 11179 11178 16723
8 5367 16414 16419 5368 5306 16719 16724 5307
8 16414 16415 16420 16419 16719 16720 16725 16724
8 16415 16416 16421 16420 16720 16721 16726 16725
8 16416 16417 16422 16421 16721 16722 16727 16726
8 16417 16418 16423 16422 16722 16723 16728 16727
8 16418 11239 11238 16423 16723 11178 11177 16728
8 5368 16419 16424 5369 5307 16724 16729 5308
8 16419 16420 16425 16424 16724 16725 16730 16729
8 16420 16421 16426 16425 16725 16726 16731 16730
8 16421 16422 16427 16426 16726 16727 16732 16731
8 16422 16423 16428 16427 16727 16728 16733 16732
8 16423 11238 11237 16428 16728 11177 11176 16733
8 5369 16424 16429 5370 5308 16729 16734 5309
8 16424 16425 16430 16429 16729 16730 16735 16734
8 16425 16426 16431 16430 16730 16731 16736 16735
8 16426 16427 16432 16431 16731 16732 16737 16736
8 16427 16428 16433 16432 16732 16733 16738 16737
8 16428 11237 11236 16433 16733 11176 11175 16738
8 5370 16429 16434 5371 5309 16734 16739 5310
8 16429 16430 16435 16434 16734 16735 16740 16739
8 16430 16431 16436 16435 16735 16736 16741 16740
8 16431 16432 16437 16436 16736 16737 16742 16741
8 16432 16433 16438 16437 16737 16738 16743 16742
8 16433 11236 11235 16438 16738 11175 11174 16743
8 5371 16434 16439 5372 5310 16739 16744 5311
8 16434 16435 16440 16439 16739 16740 16745 16744
8 16435 16436 16441 16440 16740 16741 16746 16745
8 16436 16437 16442 16441 16741 16742 16747 16746
8 16437 16438 16443 16442 16742 16743 16748 16747
8 16438 11235 11234 16443 16743 11174 11173 16748
8 5372 16439 13039 146 5311 16744 13034 145
8 16439 16440 13040 13039 16744 16745 13035 13034
8 16440 16441 13041 13040 16745 16746 13036 13035
8 16441 16442 13042 13041 16746 16747 13037 13036
8 16442 16443 13043 13042 16747 16748 13038 13037
8 16443 11234 6149 13043 16748 11173 6150 13038
8 228 11904 16444 5251 229 11909 16749 5190
8 11904 11905 16445 16444 11909 11910 16750 16749
8 11905 11906 16446 16445 11910 11911 16751 16750
8 11906 11907 16447 16446 11911 11912 16752 16751
8 11907 11908 16448 16447 11912 11913 16753 16752
8 11908 6067 11233 16448 11913 6066 11172 16753
8 5251 16444 16449 5252 5190 16749 16754 5191
8 16444 16445 16450 16449 16749 16750 16755 16754
8 16445 16446 16451 16450 16750 16751 16756 16755
8 16446 16447 16452 16451 16751 16752 16757 16756
8 16447 16448 16453 16452 16752 16753 16758 16757
8 16448 11233 11232 16453 16753 11172 11171 16758
8 5252 16449 16454 5253 5191 16754 16759 5192
8 16449 16450 16455 16454 16754 16755 16760 16759
8 16450 16451 16456 16455 16755 16756 16761 16760
8 16451 16452 16457 16456 16756 16757 16762 16761
8 16452 16453 16458 16457 16757 16758 16763 16762
8 16453 11232 11231 16458 16758 11171 11170 16763
8 5253 16454 16459 5254 5192 16759 16764 5193
8 16454 16455 16460 16459 16759 16760 16765 16764
8 16455 16456 16461 16460 16760 16761 16766 16765
8 16456 16457 16462 16461 16761 16762 16767 16766
8 16457 16458 16463 16462 16762 16763 16768 16767
8 16458 11231 11230 16463 16763 11170 11169 16768
8 5254 16459 16464 5255 5193 16764 16769 5194
8 16459 16460 16465 16464 16764 16765 16770 16769
8 16460 16461 16466 16465 16765 16766 16771 16770
8 16461 16462 16467 16466 16766 16767 16772 16771
8 16462 16463 16468 16467 16767 16768 16773 16772
8 16463 11230 11229 16468 16768 11169 11168 16773
8 5255 16464 16469 5256 5194 16769 16774 5195
8 16464 16465 16470 16469 16769 16770 16775 16774
8 16465 16466 16471 16470 16770 16771 16776 16775
8 16466 16467 16472 16471 16771 16772 16777 16776
8 16467 16468 16473 16472 16772 16773 16778 16777
8 16468 11229 11228 16473 16773 11168 11167 16778
8 5256 16469 16474 5257 5195 16774 16779 5196
8 16469 16470 16475 16474 16774 16775 16780 16779
8 16470 16471 16476 16475 16775 16776 16781 16780
8 16471 16472 16477 16476 16776 16777 16782 16781
8 16472 16473 16478 16477 16777 16778 16783 16782
8 16473 11228 11227 16478 16778 11167 11166 16783
8 5257 16474 16479 5258 5196 16779 16784 5197
8 16474 16475 16480 16479 16779 16780 16785 16784
8 16475 16476 16481 16480 16780 16781 16786 16785
8 16476 16477 16482 16481 16781 16782 16787 16786
8 16477 16478 16483 16482 16782 16783 16788 16787
8 16478 11227 11226 16483 16783 11166 11165 16788
8 5258 16479 16484 5259 5197 16784 16789 5198
8 16479 16480 16485 16484 16784 16785 16790 16789
8 16480 16481 16486 16485 16785 16786 16791 16790
8 16481 16482 16487 16486 16786 16787 16792 16791
8 16482 16483 16488 16487 16787 16788 16793 16792
8 16483 11226 11225 16488 16788 11165 11164 16793
8 5259 16484 16489 5260 5198 16789 16794 5199
8 16484 16485 16490 16489 16789 16790 16795 16794
8 16485 16486 16491 16490 16790 16791 16796 16795
8 16486 16487 16492 16491 16791 16792 16797 16796
8 16487 16488 16493 16492 16792 16793 16798 16797
8 16488 11225 11224 16493 16793 11164 11163 16798
8 5260 16489 16494 5261 5199 16794 16799 5200
8 16489 16490 16495 16494 16794 16795 16800 16799
8 16490 16491 16496 16495 16795 16796 16801 16800
8 16491 16492 16497 16496 16796 16797 16802 16801
8 16492 16493 16498 16497 16797 16798 16803 16802
8 16493 11224 11223 16498 16798 11163 11162 16803
8 5261 16494 16499 5262 5200 16799 16804 5201
8 16494 16495 16500 16499 16799 16800 16805 16804
8 16495 16496 16501 16500 16800 16801 16806 16805
8 16496 16497 16502 16501 16801 16802 16807 16806
8 16497 16498 16503 16502 16802 16803 16808 16807
8 16498 11223 11222 16503 16803 11162 11161 16808
8 5262 16499 16504 5263 5201 16804 16809 5202
8 16499 16500 16505 16504 16804 16805 16810 16809
8 16500 16501 16506 16505 16805 16806 16811 16810
8 16501 16502 16507 16506 16806 16807 16812 16811
8 16502 16503 16508 16507 16807 16808 16813 16812
8 16503 11222 11221 16508 16808 11161 11160 16813
8 5263 16504 16509 5264 5202 16809 16814 5203
8 16504 16505 16510 16509 16809 16810 16815 16814
8 16505 16506 16511 16510 16810 16811 16816 16815
8 16506 16507 16512 16511 16811 16812 16817 16816
8 16507 16508 16513 16512 16812 16813 16818 16817
8 16508 11221 11220 16513 16813 11160 11159 16818
8 5264 16509 16514 5265 5203 16814 16819 5204
8 16509 16510 16515 16514 16814 16815 16820 16819
8 16510 16511 16516 16515 16815 16816 16821 16820
8 16511 16512 16517 16516 16816 16817 16822 16821
8 16512 16513 16518 16517 16817 16818 16823 16822
8 16513 11220 11219 16518 16818 11159 11158 16823
8 5265 16514 16519 5266 5204 16819 16824 5205
8 16514 16515 16520 16519 16819 16820 16825 16824
8 16515 16516 16521 16520 16820 16821 16826 16825
8 16516 16517 16522 16521 16821 16822 16827 16826
8 16517 16518 16523 16522 16822 16823 16828 16827
8 16518 11219 11218 16523 16823 11158 11157 16828
8 5266 16519 16524 5267 5205 16824 16829 5206
8 16519 16520 16525 16524 16824 16825 16830 16829
8 16520 16521 16526 16525 16825 16826 16831 16830
8 16521 16522 16527 16526 16826 16827 16832 16831
8 16522 16523 16528 16527 16827 16828 16833 16832
8 16523 11218 11217 16528 16828 11157 11156 16833
8 5267 16524 16529 5268 5206 16829 16834 5207
8 16524 16525 16530 16529 16829 16830 16835 16834
8 16525 16526 16531 16530 16830 16831 16836 16835
8 16526 16527 16532 16531 16831 16832 16837 16836
8 16527 16528 16533 16532 16832 16833 16838 16837
8 16528 11217 11216 16533 16833 11156 11155 16838
8 5268 16529 16534 5269 5207 16834 16839 5208
8 16529 16530 16535 16534 16834 16835 16840 16839
8 16530 16531 16536 16535 16835 16836 16841 16840
8 16531 16532 16537 16536 16836 16837 16842 16841
8 16532 16533 16538 16537 16837 16838 16843 16842
8 16533 11216 11215 16538 16838 11155 11154 16843
8 5269 16534 16539 5270 5208 16839 16844 5209
8 16534 16535 16540 16539 16839 16840 16845 16844
8 16535 16536 16541 16540 16840 16841 16846 16845
8 16536 16537 16542 16541 16841 16842 16847 16846
8 16537 16538 16543 16542 16842 16843 16848 16847
8 16538 11215 11214 16543 16843 11154 11153 16848
8 5270 16539 16544 5271 5209 16844 16849 5210
8 16539 16540 16545 16544 16844 16845 16850 16849
8 16540 16541 16546 16545 16845 16846 16851 16850
8 16541 16542 16547 16546 16846 16847 16852 16851
8 16542 16543 16548 16547 16847 16848 16853 16852
8 16543 11214 11213 16548 16848 11153 11152 16853
8 16544 16545 16550 16549 16849 16850 16855 16854
8 16545 16546 16551 16550 16850 16851 16856 16855
8 16546 16547 16552 16551 16851 16852 16857 16856
8 16547 16548 16553 16552 16852 16853 16858 16857
8 16548 11213 11212 16553 16853 11152 11151 16858
8 16549 16550 16555 16554 16854 16855 16860 16859
8 16550 16551 16556 16555 16855 16856 16861 16860
8 16551 16552 16557 16556 16856 16857 16862 16861
8 16552 16553 16558 16557 16857 16858 16863 16862
8 16553 11212 11211 16558 16858 11151 11150 16863
8 16554 16555 16560 16559 16859 16860 16865 16864
8 16555 16556 16561 16560 16860 16861 16866 16865
8 16556 16557 16562 16561 16861 16862 16867 16866
8 16557 16558 16563 16562 16862 16863 16868 16867
8 16558 11211 11210 16563 16863 11150 11149 16868
8 16559 16560 16565 16564 16864 16865 16870 16869
8 16560 16561 16566 16565 16865 16866 16871 16870
8 16561 16562 16567 16566 16866 16867 16872 16871
8 16562 16563 16568 16567 16867 16868 16873 16872
8 16563 11210 11209 16568 16868 11149 11148 16873
8 16564 16565 16570 16569 16869 16870 16875 16874
8 16565 16566 16571 16570 16870 16871 16876 16875
8 16566 16567 16572 16571 16871 16872 16877 16876
8 16567 16568 16573 16572 16872 16873 16878 16877
8 16568 11209 11208 16573 16873 11148 11147 16878
8 5276 16569 16574 5277 5215 16874 16879 5216
8 16569 16570 16575 16574 16874 16875 16880 16879
8 16570 16571 16576 16575 16875 16876 16881 16880
8 16571 16572 16577 16576 16876 16877 16882 16881
8 16572 16573 16578 16577 16877 16878 16883 16882
8 16573 11208 11207 16578 16878 11147 11146 16883
8 5277 16574 16579 5278 5216 16879 16884 5217
8 16574 16575 16580 16579 16879 16880 16885 16884
8 16575 16576 16581 16580 16880 16881 16886 16885
8 16576 16577 16582 16581 16881 16882 16887 16886
8 16577 16578 16583 16582 16882 16883 16888 16887
8 16578 11207 11206 16583 16883 11146 11145 16888
8 5278 16579 16584 5279 5217 16884 16889 5218
8 16579 16580 16585 16584 16884 16885 16890 16889
8 16580 16581 16586 16585 16885 16886 16891 16890
8 16581 16582 16587 16586 16886 16887 16892 16891
8 16582 16583 16588 16587 16887 16888 16893 16892
8 16583 11206 11205 16588 16888 11145 11144 16893
8 5279 16584 16589 5280 5218 16889 16894 5219
8 16584 16585 16590 16589 16889 16890 16895 16894
8 16585 16586 16591 16590 16890 16891 16896 16895
8 16586 16587 16592 16591 16891 16892 16897 16896
8 16587 16588 16593 16592 16892 16893 16898 16897
8 16588 11205 11204 16593 16893 11144 11143 16898
8 5280 16589 16594 5281 5219 16894 16899 5220
8 16589 16590 16595 16594 16894 16895 16900 16899
8 16590 16591 16596 16595 16895 16896 16901 16900
8 16591 16592 16597 16596 16896 16897 16902 16901
8 16592 16593 16598 16597 16897 16898 16903 16902
8 16593 11204 11203 16598 16898 11143 11142 16903
8 5281 16594 16599 5282 5220 16899 16904 5221
8 16594 16595 16600 16599 16899 16900 16905 16904
8 16595 16596 16601 16600 16900 16901 16906 16905
8 16596 16597 16602 16601 16901 16902 16907 16906
8 16597 16598 16603 16602 16902 16903 16908 16907
8 16598 11203 11202 16603 16903 11142 11141 16908
8 5282 16599 16604 5283 5221 16904 16909 5222
8 16599 16600 16605 16604 16904 16905 16910 16909
8 16600 16601 16606 16605 16905 16906 16911 16910
8 16601 16602 16607 16606 16906 16907 16912 16911
8 16602 16603 16608 16607 16907 16908 16913 16912
8 16603 11202 11201 16608 16908 11141 11140 16913
8 16604 16605 16610 16609 16909 16910 16915 16914
8 16605 16606 16611 16610 16910 16911 16916 16915
8 16606 16607 16612 16611 16911 16912 16917 16916
8 16607 16608 16613 16612 16912 16913 16918 16917
8 16608 11201 11200 16613 16913 11140 11139 16918
8 16609 16610 16615 16614 16914 16915 16920 16919
8 16610 16611 16616 16615 16915 16916 16921 16920
8 16611 16612 16617 16616 16916 16917 16922 16921
8 16612 16613 16618 16617 16917 16918 16923 16922
8 16613 11200 11199 16618 16918 11139 11138 16923
8 16614 16615 16620 16619 16919 16920 16925 16924
8 16615 16616 16621 16620 16920 16921 16926 16925
8 16616 16617 16622 16621 16921 16922 16927 16926
8 16617 16618 16623 16622 16922 16923 16928 16927
8 16618 11199 11198 16623 16923 11138 11137 16928
8 16619 16620 16625 16624 16924 16925 16930 16929
8 16620 16621 16626 16625 16925 16926 16931 16930
8 16621 16622 16627 16626 16926 16927 16932 16931
8 16622 16623 16628 16627 16927 16928 16933 16932
8 16623 11198 11197 16628 16928 11137 11136 16933
8 16624 16625 16630 16629 16929 16930 16935 16934
8 16625 16626 16631 16630 16930 16931 16936 16935
8 16626 16627 16632 16631 16931 16932 16937 16936
8 16627 16628 16633 16632 16932 16933 16938 16937
8 16628 11197 11196 16633 16933 11136 11135 16938
8 5288 16629 16634 5289 5227 16934 16939 5228
8 16629 16630 16635 16634 16934 16935 16940 16939
8 16630 16631 16636 16635 16935 16936 16941 16940
8 16631 16632 16637 16636 16936 16937 16942 16941
8 16632 16633 16638 16637 16937 16938 16943 16942
8 16633 11196 11195 16638 16938 11135 11134 16943
8 5289 16634 16639 5290 5228 16939 16944 5229
8 16634 16635 16640 16639 16939 16940 16945 16944
8 16635 16636 16641 16640 16940 16941 16946 16945
8 16636 16637 16642 16641 16941 16942 16947 16946
8 16637 16638 16643 16642 16942 16943 16948 16947
8 16638 11195 11194 16643 16943 11134 11133 16948
8 5290 16639 16644 5291 5229 16944 16949 5230
8 16639 16640 16645 16644 16944 16945 16950 16949
8 16640 16641 16646 16645 16945 16946 16951 16950
8 16641 16642 16647 16646 16946 16947 16952 16951
8 16642 16643 16648 16647 16947 16948 16953 16952
8 16643 11194 11193 16648 16948 11133 11132 16953
8 5291 16644 16649 5292 5230 16949 16954 5231
8 16644 16645 16650 16649 16949 16950 16955 16954
8 16645 16646 16651 16650 16950 16951 16956 16955
8 16646 16647 16652 16651 16951 16952 16957 16956
8 16647 16648 16653 16652 16952 16953 16958 16957
8 16648 11193 11192 16653 16953 11132 11131 16958
8 5292 16649 16654 5293 5231 16954 16959 5232
8 16649 16650 16655 16654 16954 16955 16960 16959
8 16650 16651 16656 16655 16955 16956 16961 16960
8 16651 16652 16657 16656 16956 16957 16962 16961
8 16652 16653 16658 16657 16957 16958 16963 16962
8 16653 11192 11191 16658 16958 11131 11130 16963
8 5293 16654 16659 5294 5232 16959 16964 5233
8 16654 16655 16660 16659 16959 16960 16965 16964
8 16655 16656 16661 16660 16960 16961 16966 16965
8 16656 16657 16662 16661 16961 16962 16967 16966
8 16657 16658 16663 16662 16962 16963 16968 16967
8 16658 11191 11190 16663 16963 11130 11129 16968
8 5294 16659 16664 5295 5233 16964 16969 5234
8 16659 16660 16665 16664 16964 16965 16970 16969
8 16660 16661 16666 16665 16965 16966 16971 16970
8 16661 16662 16667 16666 16966 16967 16972 16971
8 16662 16663 16668 16667 16967 16968 16973 16972
8 16663 11190 11189 16668 16968 11129 11128 16973
8 5295 16664 16669 5296 5234 16969 16974 5235
8 16664 16665 16670 16669 16969 16970 16975 16974
8 16665 16666 16671 16670 16970 16971 16976 16975
8 16666 16667 16672 16671 16971 16972 16977 16976
8 16667 16668 16673 16672 16972 16973 16978 16977
8 16668 11189 11188 16673 16973 11128 11127 16978
8 16669 16670 16675 16674 16974 16975 16980 16979
8 16670 16671 16676 16675 16975 16976 16981 16980
8 16671 16672 16677 16676 16976 16977 16982 16981
8 16672 16673 16678 16677 16977 16978 16983 16982
8 16673 11188 11187 16678 16978 11127 11126 16983
8 16674 16675 16680 16679 16979 16980 16985 16984
8 16675 16676 16681 16680 16980 16981 16986 16985
8 16676 16677 16682 16681 16981 16982 16987 16986
8 16677 16678 16683 16682 16982 16983 16988 16987
8 16678 11187 11186 16683 16983 11126 11125 16988
8 16679 16680 16685 16684 16984 16985 16990 16989
8 16680 16681 16686 16685 16985 16986 16991 16990
8 16681 16682 16687 16686 16986 16987 16992 16991
8 16682 16683 16688 16687 16987 16988 16993 16992
8 16683 11186 11185 16688 16988 11125 11124 16993
8 16684 16685 16690 16689 16989 16990 16995 16994
8 16685 16686 16691 16690 16990 16991 16996 16995
8 16686 16687 16692 16691 16991 16992 16997 16996
8 16687 16688 16693 16692 16992 16993 16998 16997
8 16688 11185 11184 16693 16993 11124 11123 16998
8 16689 16690 16695 16694 16994 16995 17000 16999
8 16690 16691 16696 16695 16995 16996 17001 17000
8 16691 16692 16697 16696 16996 16997 17002 17001
8 16692 16693 16698 16697 16997 16998 17003 17002
8 16693 11184 11183 16698 16998 11123 11122 17003
8 5301 16694 16699 5302 5240 16999 17004 5241
8 16694 16695 16700 16699 16999 17000 17005 17004
8 16695 16696 16701 16700 17000 17001 17006 17005
8 16696 16697 16702 16701 17001 17002 17007 17006
8 16697 16698 16703 16702 17002 17003 17008 17007
8 16698 11183 11182 16703 17003 11122 11121 17008
8 5302 16699 16704 5303 5241 17004 17009 5242
8 16699 16700 16705 16704 17004 17005 17010 17009
8 16700 16701 16706 16705 17005 17006 17011 17010
8 16701 16702 16707 16706 17006 17007 17012 17011
8 16702 16703 16708 16707 17007 17008 17013 17012
8 16703 11182 11181 16708 17008 11121 11120 17013
8 5303 16704 16709 5304 5242 17009 17014 5243
8 16704 16705 16710 16709 17009 17010 17015 17014
8 16705 16706 16711 16710 17010 17011 17016 17015
8 16706 16707 16712 16711 17011 17012 17017 17016
8 16707 16708 16713 16712 17012 17013 17018 17017
8 16708 11181 11180 16713 17013 11120 11119 17018
8 5304 16709 16714 5305 5243 17014 17019 5244
8 16709 16710 16715 16714 17014 17015 17020 17019
8 16710 16711 16716 16715 17015 17016 17021 17020
8 16711 16712 16717 16716 17016 17017 17022 17021
8 16712 16713 16718 16717 17017 17018 17023 17022
8 16713 11180 11179 16718 17018 11119 11118 17023
8 5305 16714 16719 5306 5244 17019 17024 5245
8 16714 16715 16720 16719 17019 17020 17025 17024
8 16715 16716 16721 16720 17020 17021 17026 17025
8 16716 16717 16722 16721 17021 17022 17027 17026
8 16717 16718 16723 16722 17022 17023 17028 17027
8 16718 11179 11178 16723 17023 11118 11117 17028
8 5306 16719 16724 5307 5245 17024 17029 5246
8 16719 16720 16725 16724 17024 17025 17030 17029
8 16720 16721 16726 16725 17025 17026 17031 17030
8 16721 16722 16727 16726 17026 17027 17032 17031
8 16722 16723 16728 16727 17027 17028 17033 17032
8 16723 11178 11177 16728 17028 11117 11116 17033
8 5307 16724 16729 5308 5246 17029 17034 5247
8 16724 16725 16730 16729 17029 17030 17035 17034
8 16725 16726 16731 16730 17030 17031 17036 17035
8 16726 16727 16732 16731 17031 17032 17037 17036
8 16727 16728 16733 16732 17032 17033 17038 17037
8 16728 11177 11176 16733 17033 11116 11115 17038
8 5308 16729 16734 5309 5247 17034 17039 5248
8 16729 16730 16735 16734 17034 17035 17040 17039
8 16730 16731 16736 16735 17035 17036 17041 17040
8 16731 16732 16737 16736 17036 17037 17042 17041
8 16732 16733 16738 16737 17037 17038 17043 17042
8 16733 11176 11175 16738 17038 11115 11114 17043
8 5309 16734 16739 5310 5248 17039 17044 5249
8 16734 16735 16740 16739 17039 17040 17045 17044
8 16735 16736 16741 16740 17040 17041 17046 17045
8 16736 16737 16742 16741 17041 17042 17047 17046
8 16737 16738 16743 16742 17042 17043 17048 17047
8 16738 11175 11174 16743 17043 11114 11113 17048
8 5310 16739 16744 5311 5249 17044 17049 5250
8 16739 16740 16745 16744 17044 17045 17050 17049
8 16740 16741 16746 16745 17045 17046 17051 17050
8 16741 16742 16747 16746 17046 17047 17052 17051
8 16742 16743 16748 16747 17047 17048 17053 17052
8 16743 11174 11173 16748 17048 11113 11112 17053
8 5311 16744 13034 145 5250 17049 13029 144
8 16744 16745 13035 13034 17049 17050 13030 13029
8 16745 16746 13036 13035 17050 17051 13031 13030
8 16746 16747 13037 13036 17051 17052 13032 13031
8 16747 16748 13038 13037 17052 17053 13033 13032
8 16748 11173 6150 13038 17053 11112 6151 13033
8 229 11909 16749 5190 230 11914 17054 5129
8 11909 11910 16750 16749 11914 11915 17055 17054
8 11910 11911 16751 16750 11915 11916 17056 17055
8 11911 11912 16752 16751 11916 11917 17057 17056
8 11912 11913 16753 16752 11917 11918 17058 17057
8 11913 6066 11172 16753 11918 6065 11111 17058
8 5190 16749 16754 5191 5129 17054 17059 5130
8 16749 16750 16755 16754 17054 17055 17060 17059
8 16750 16751 16756 16755 17055 17056 17061 17060
8 16751 16752 16757 16756 17056 17057 17062 17061
8 16752 16753 16758 16757 17057 17058 17063 17062
8 16753 11172 11171 16758 17058 11111 11110 17063
8 5191 16754 16759 5192 5130 17059 17064 5131
8 16754 16755 16760 16759 17059 17060 17065 17064
8 16755 16756 16761 16760 17060 17061 17066 17065
8 16756 16757 16762 16761 17061 17062 17067 17066
8 16757 16758 16763 16762 17062 17063 17068 17067
8 16758 11171 11170 16763 17063 11110 11109 17068
8 5192 16759 16764 5193 5131 17064 17069 5132
8 16759 16760 16765 16764 17064 17065 17070 17069
8 16760 16761 16766 16765 17065 17066 17071 17070
8 16761 16762 16767 16766 17066 17067 17072 17071
8 16762 16763 16768 16767 17067 17068 17073 17072
8 16763 11170 11169 16768 17068 11109 11108 17073
8 5193 16764 16769 5194 5132 17069 17074 5133
8 16764 16765 16770 16769 17069 17070 17075 17074
8 16765 16766 16771 16770 17070 17071 17076 17075
8 16766 16767 16772 16771 17071 17072 17077 17076
8 16767 16768 16773 16772 17072 17073 17078 17077
8 16768 11169 11168 16773 17073 11108 11107 17078
8 5194 16769 16774 5195 5133 17074 17079 5134
8 16769 16770 16775 16774 17074 17075 17080 17079
8 16770 16771 16776 16775 17075 17076 17081 17080
8 16771 16772 16777 16776 17076 17077 17082 17081
8 16772 16773 16778 16777 17077 17078 17083 17082
8 16773 11168 11167 16778 17078 11107 11106 17083
8 5195 16774 16779 5196 5134 17079 17084 5135
8 16774 16775 16780 16779 17079 17080 17085 17084
8 16775 16776 16781 16780 17080 17081 17086 17085
8 16776 16777 16782 16781 17081 17082 17087 17086
8 16777 16778 16783 16782 17082 17083 17088 17087
8 16778 11167 11166 16783 17083 11106 11105 17088
8 5196 16779 16784 5197 5135 17084 17089 5136
8 16779 16780 16785 16784 17084 17085 17090 17089
8 16780 16781 16786 16785 17085 17086 17091 17090
8 16781 16782 16787 16786 17086 17087 17092 17091
8 16782 16783 16788 16787 17087 17088 17093 17092
8 16783 11166 11165 16788 17088 11105 11104 17093
8 5197 16784 16789 5198 5136 17089 17094 5137
8 16784 16785 16790 16789 17089 17090 17095 17094
8 16785 16786 16791 16790 17090 17091 17096 17095
8 16786 16787 16792 16791 17091 17092 17097 17096
8 16787 16788 16793 16792 17092 17093 17098 17097
8 16788 11165 11164 16793 17093 11104 11103 17098
8 5198 16789 16794 5199 5137 17094 17099 5138
8 16789 16790 16795 16794 17094 17095 17100 17099
8 16790 16791 16796 16795 17095 17096 17101 17100
8 16791 16792 16797 16796 17096 17097 17102 17101
8 16792 16793 16798 16797 17097 17098 17103 17102
8 16793 11164 11163 16798 17098 11103 11102 17103
8 5199 16794 16799 5200 5138 17099 17104 5139
8 16794 16795 16800 16799 17099 17100 17105 17104
8 16795 16796 16801 16800 17100 17101 17106 17105
8 16796 16797 16802 16801 17101 17102 17107 17106
8 16797 16798 16803 16802 17102 17103 17108 17107
8 16798 11163 11162 16803 17103 11102 11101 17108
8 5200 16799 16804 5201 5139 17104 17109 5140
8 16799 16800 16805 16804 17104 17105 17110 17109
8 16800 16801 16806 16805 17105 17106 17111 17110
8 16801 16802 16807 16806 17106 17107 17112 17111
8 16802 16803 16808 16807 17107 17108 17113 17112
8 16803 11162 11161 16808 17108 11101 11100 17113
8 5201 16804 16809 5202 5140 17109 17114 5141
8 16804 16805 16810 16809 17109 17110 17115 17114
8 16805 16806 16811 16810 17110 17111 17116 17115
8 16806 16807 16812 16811 17111 17112 17117 17116
8 16807 16808 16813 16812 17112 17113 17118 17117
8 16808 11161 11160 16813 17113 11100 11099 17118
8 5202 16809 16814 5203 5141 17114 17119 5142
8 16809 16810 16815 16814 17114 17115 17120 17119
8 16810 16811 16816 16815 17115 17116 17121 17120
8 16811 16812 16817 16816 17116 17117 17122 17121
8 16812 16813 16818 16817 17117 17118 17123 17122
8 16813 11160 11159 16818 17118 11099 11098 17123
8 5203 16814 16819 5204 5142 17119 17124 5143
8 16814 16815 16820 16819 17119 17120 17125 17124
8 16815 16816 16821 16820 17120 17121 17126 17125
8 16816 16817 16822 16821 17121 17122 17127 17126
8 16817 16818 16823 16822 17122 17123 17128 17127
8 16818 11159 11158 16823 17123 11098 11097 17128
8 5204 16819 16824 5205 5143 17124 17129 5144
8 16819 16820 16825 16824 17124 17125 17130 17129
8 16820 16821 16826 16825 17125 17126 17131 17130
8 16821 16822 16827 16826 17126 17127 17132 17131
8 16822 16823 16828 16827 17127 17128 17133 17132
8 16823 11158 11157 16828 17128 11097 11096 17133
8 5205 16824 16829 5206 5144 17129 17134 5145
8 16824 16825 16830 16829 17129 17130 17135 17134
8 16825 16826 16831 16830 17130 17131 17136 17135
8 16826 16827 16832 16831 17131 17132 17137 17136
8 16827 16828 16833 16832 17132 17133 17138 17137
8 16828 11157 11156 16833 17133 11096 11095 17138
8 5206 16829 16834 5207 5145 17134 17139 5146
8 16829 16830 16835 16834 17134 17135 17140 17139
8 16830 16831 16836 16835 17135 17136 17141 17140
8 16831 16832 16837 16836 17136 17137 17142 17141
8 16832 16833 16838 16837 17137 17138 17143 17142
8 16833 11156 11155 16838 17138 11095 11094 17143
8 5207 16834 16839 5208 5146 17139 17144 5147
8 16834 16835 16840 16839 17139 17140 17145 17144
8 16835 16836 16841 16840 17140 17141 17146 17145
8 16836 16837 16842 16841 17141 17142 17147 17146
8 16837 16838 16843 16842 17142 17143 17148 17147
8 16838 11155 11154 16843 17143 11094 11093 17148
8 5208 16839 16844 5209 5147 17144 17149 5148
8 16839 16840 16845 16844 17144 17145 17150 17149
8 16840 16841 16846 16845 17145 17146 17151 17150
8 16841 16842 16847 16846 17146 17147 17152 17151
8 16842 16843 16848 16847 17147 17148 17153 17152
8 16843 11154 11153 16848 17148 11093 11092 17153
8 5209 16844 16849 5210 5148 17149 17154 5149
8 16844 16845 16850 16849 17149 17150 17155 17154
8 16845 16846 16851 16850 17150 17151 17156 17155
8 16846 16847 16852 16851 17151 17152 17157 17156
8 16847 16848 16853 16852 17152 17153 17158 17157
8 16848 11153 11152 16853 17153 11092 11091 17158
8 16849 16850 16855 16854 17154 17155 17160 17159
8 16850 16851 16856 16855 17155 17156 17161 17160
8 16851 16852 16857 16856 17156 17157 17162 17161
8 16852 16853 16858 16857 17157 17158 17163 17162
8 16853 11152 11151 16858 17158 11091 11090 17163
8 16854 16855 16860 16859 17159 17160 17165 17164
8 16855 16856 16861 16860 17160 17161 17166 17165
8 16856 16857 16862 16861 17161 17162 17167 17166
8 16857 16858 16863 16862 17162 17163 17168 17167
8 16858 11151 11150 16863 17163 11090 11089 17168
8 16859 16860 16865 16864 17164 17165 17170 17169
8 16860 16861 16866 16865 17165 17166 17171 17170
8 16861 16862 16867 16866 17166 17167 17172 17171
8 16862 16863 16868 16867 17167 17168 17173 17172
8 16863 11150 11149 16868 17168 11089 11088 17173
8 16864 16865 16870 16869 17169 17170 17175 17174
8 16865 16866 16871 16870 17170 17171 17176 17175
8 16866 16867 16872 16871 17171 17172 17177 17176
8 16867 16868 16873 16872 17172 17173 17178 17177
8 16868 11149 11148 16873 17173 11088 11087 17178
8 16869 16870 16875 16874 17174 17175 17180 17179
8 16870 16871 16876 16875 17175 17176 17181 17180
8 16871 16872 16877 16876 17176 17177 17182 17181
8 16872 16873 16878 16877 17177 17178 17183 17182
8 16873 11148 11147 16878 17178 11087 11086 17183
8 5215 16874 16879 5216 5154 17179 17184 5155
8 16874 16875 16880 16879 17179 17180 17185 17184
8 16875 16876 16881 16880 17180 17181 17186 17185
8 16876 16877 16882 16881 17181 17182 17187 17186
8 16877 16878 16883 16882 17182 17183 17188 17187
8 16878 11147 11146 16883 17183 11086 11085 17188
8 5216 16879 16884 5217 5155 17184 17189 5156
8 16879 16880 16885 16884 17184 17185 17190 17189
8 16880 16881 16886 16885 17185 17186 17191 17190
8 16881 16882 16887 16886 17186 17187 17192 17191
8 16882 16883 16888 16887 17187 17188 17193 17192
8 16883 11146 11145 16888 17188 11085 11084 17193
8 5217 16884 16889 5218 5156 17189 17194 5157
8 16884 16885 16890 16889 17189 17190 17195 17194
8 16885 16886 16891 16890 17190 17191 17196 17195
8 16886 16887 16892 16891 17191 17192 17197 17196
8 16887 16888 16893 16892 17192 17193 17198 17197
8 16888 11145 11144 16893 17193 11084 11083 17198
8 5218 16889 16894 5219 5157 17194 17199 5158
8 16889 16890 16895 16894 17194 17195 17200 17199
8 16890 16891 16896 16895 17195 17196 17201 17200
8 16891 16892 16897 16896 17196 17197 17202 17201
8 16892 16893 16898 16897 17197 17198 17203 17202
8 16893 11144 11143 16898 17198 11083 11082 17203
8 5219 16894 16899 5220 5158 17199 17204 5159
8 16894 16895 16900 16899 17199 17200 17205 17204
8 16895 16896 16901 16900 17200 17201 17206 17205
8 16896 16897 16902 16901 17201 17202 17207 17206
8 16897 16898 16903 16902 17202 17203 17208 17207
8 16898 11143 11142 16903 17203 11082 11081 17208
8 5220 16899 16904 5221 5159 17204 17209 5160
8 16899 16900 16905 16904 17204 17205 17210 17209
8 16900 16901 16906 16905 17205 17206 17211 17210
8 16901 16902 16907 16906 17206 17207 17212 17211
8 16902 16903 16908 16907 17207 17208 17213 17212
8 16903 11142 11141 16908 17208 11081 11080 17213
8 5221 16904 16909 5222 5160 17209 17214 5161
8 16904 16905 16910 16909 17209 17210 17215 17214
8 16905 16906 16911 16910 17210 17211 17216 17215
8 16906 16907 16912 16911 17211 17212 17217 17216
8 16907 16908 16913 16912 17212 17213 17218 17217
8 16908 11141 11140 16913 17213 11080 11079 17218
8 16909 16910 16915 16914 17214 17215 17220 17219
8 16910 16911 16916 16915 17215 17216 17221 17220
8 16911 16912 16917 16916 17216 17217 17222 17221
8 16912 16913 16918 16917 17217 17218 17223 17222
8 16913 11140 11139 16918 17218 11079 11078 17223
8 16914 16915 16920 16919 17219 17220 17225 17224
8 16915 16916 16921 16920 17220 17221 17226 17225
8 16916 16917 16922 16921 17221 17222 17227 17226
8 16917 16918 16923 16922 17222 17223 17228 17227
8 16918 11139 11138 16923 17223 11078 11077 17228
8 16919 16920 16925 16924 17224 17225 17230 17229
8 16920 16921 16926 16925 17225 17226 17231 17230
8 16921 16922 16927 16926 17226 17227 17232 17231
8 16922 16923 16928 16927 17227 17228 17233 17232
8 16923 11138 11137 16928 17228 11077 11076 17233
8 16924 16925 16930 16929 17229 17230 17235 17234
8 16925 16926 16931 16930 17230 17231 17236 17235
8 16926 16927 16932 16931 17231 17232 17237 17236
8 16927 16928 16933 16932 17232 17233 17238 17237
8 16928 11137 11136 16933 17233 11076 11075 17238
8 16929 16930 16935 16934 17234 17235 17240 17239
8 16930 16931 16936 16935 17235 17236 17241 17240
8 16931 16932 16937 16936 17236 17237 17242 17241
8 16932 16933 16938 16937 17237 17238 17243 17242
8 16933 11136 11135 16938 17238 11075 11074 17243
8 5227 16934 16939 5228 5166 17239 17244 5167
8 16934 16935 16940 16939 17239 17240 17245 17244
8 16935 16936 16941 16940 17240 17241 17246 17245
8 16936 16937 16942 16941 17241 17242 17247 17246
8 16937 16938 16943 16942 17242 17243 17248 17247
8 16938 11135 11134 16943 17243 11074 11073 17248
8 5228 16939 16944 5229 5167 17244 17249 5168
8 16939 16940 16945 16944 17244 17245 17250 17249
8 16940 16941 16946 16945 17245 17246 17251 17250
8 16941 16942 16947 16946 17246 17247 17252 17251
8 16942 16943 16948 16947 17247 17248 17253 17252
8 16943 11134 11133 16948 17248 11073 11072 17253
8 5229 16944 16949 5230 5168 17249 17254 5169
8 16944 16945 16950 16949 17249 17250 17255 17254
8 16945 16946 16951 16950 17250 17251 17256 17255
8 16946 16947 16952 16951 17251 17252 17257 17256
8 16947 16948 16953 16952 17252 17253 17258 17257
8 16948 11133 11132 16953 17253 11072 11071 17258
8 5230 16949 16954 5231 5169 17254 17259 5170
8 16949 16950 16955 16954 17254 17255 17260 17259
8 16950 16951 16956 16955 17255 17256 17261 17260
8 16951 16952 16957 16956 17256 17257 17262 17261
8 16952 16953 16958 16957 17257 17258 17263 17262
8 16953 11132 11131 16958 17258 11071 11070 17263
8 5231 16954 16959 5232 5170 17259 17264 5171
8 16954 16955 16960 16959 17259 17260 17265 17264
8 16955 16956 16961 16960 17260 17261 17266 17265
8 16956 16957 16962 16961 17261 17262 17267 17266
8 16957 16958 16963 16962 17262 17263 17268 17267
8 16958 11131 11130 16963 17263 11070 11069 17268
8 5232 16959 16964 5233 5171 17264 17269 5172
8 16959 16960 16965 16964 17264 17265 17270 17269
8 16960 16961 16966 16965 17265 17266 17271 17270
8 16961 16962 16967 16966 17266 17267 17272 17271
8 16962 16963 16968 16967 17267 17268 17273 17272
8 16963 11130 11129 16968 17268 11069 11068 17273
8 5233 16964 16969 5234 5172 17269 17274 5173
8 16964 16965 16970 16969 17269 17270 17275 17274
8 16965 16966 16971 16970 17270 17271 17276 17275
8 16966 16967 16972 16971 17271 17272 17277 17276
8 16967 16968 16973 16972 17272 17273 17278 17277
8 16968 11129 11128 16973 17273 11068 11067 17278
8 5234 16969 16974 5235 5173 17274 17279 5174
8 16969 16970 16975 16974 17274 17275 17280 17279
8 16970 16971 16976 16975 17275 17276 17281 17280
8 16971 16972 16977 16976 17276 17277 17282 17281
8 16972 16973 16978 16977 17277 17278 17283 17282
8 16973 11128 11127 16978 17278 11067 11066 17283
8 16974 16975 16980 16979 17279 17280 17285 17284
8 16975 16976 16981 16980 17280 17281 17286 17285
8 16976 16977 16982 16981 17281 17282 17287 17286
8 16977 16978 16983 16982 17282 17283 17288 17287
8 16978 11127 11126 16983 17283 11066 11065 17288
8 16979 16980 16985 16984 17284 17285 17290 17289
8 16980 16981 16986 16985 17285 17286 17291 17290
8 16981 16982 16987 16986 17286 17287 17292 17291
8 16982 16983 16988 16987 17287 17288 17293 17292
8 16983 11126 11125 16988 17288 11065 11064 17293
8 16984 16985 16990 16989 17289 17290 17295 17294
8 16985 16986 16991 16990 17290 17291 17296 17295
8 16986 16987 16992 16991 17291 17292 17297 17296
8 16987 16988 16993 16992 17292 17293 17298 17297
8 16988 11125 11124 16993 17293 11064 11063 17298
8 16989 16990 16995 16994 17294 17295 17300 17299
8 16990 16991 16996 16995 17295 17296 17301 17300
8 16991 16992 16997 16996 17296 17297 17302 17301
8 16992 16993 16998 16997 17297 17298 17303 17302
8 16993 11124 11123 16998 17298 11063 11062 17303
8 16994 16995 17000 16999 17299 17300 17305 17304
8 16995 16996 17001 17000 17300 17301 17306 17305
8 16996 16997 17002 17001 17301 17302 17307 17306
8 16997 16998 17003 17002 17302 17303 17308 17307
8 16998 11123 11122 17003 17303 11062 11061 17308
8 5240 16999 17004 5241 5179 17304 17309 5180
8 16999 17000 17005 17004 17304 17305 17310 17309
8 17000 17001 17006 17005 17305 17306 17311 17310
8 17001 17002 17007 17006 17306 17307 17312 17311
8 17002 17003 17008 17007 17307 17308 17313 17312
8 17003 11122 11121 17008 17308 11061 11060 17313
8 5241 17004 17009 5242 5180 17309 17314 5181
8 17004 17005 17010 17009 17309 17310 17315 17314
8 17005 17006 17011 17010 17310 17311 17316 17315
8 17006 17007 17012 17011 17311 17312 17317 17316
8 17007 17008 17013 17012 17312 17313 17318 17317
8 17008 11121 11120 17013 17313 11060 11059 17318
8 5242 17009 17014 5243 5181 17314 17319 5182
8 17009 17010 17015 17014 17314 17315 17320 17319
8 17010 17011 17016 17015 17315 17316 17321 17320
8 17011 17012 17017 17016 17316 17317 17322 17321
8 17012 17013 17018 17017 17317 17318 17323 17322
8 17013 11120 11119 17018 17318 11059 11058 17323
8 5243 17014 17019 5244 5182 17319 17324 5183
8 17014 17015 17020 17019 17319 17320 17325 17324
8 17015 17016 17021 17020 17320 17321 17326 17325
8 17016 17017 17022 17021 17321 17322 17327 17326
8 17017 17018 17023 17022 17322 17323 17328 17327
8 17018 11119 11118 17023 17323 11058 11057 17328
8 5244 17019 17024 5245 5183 17324 17329 5184
8 17019 17020 17025 17024 17324 17325 17330 17329
8 17020 17021 17026 17025 17325 17326 17331 17330
8 17021 17022 17027 17026 17326 17327 17332 17331
8 17022 17023 17028 17027 17327 17328 17333 17332
8 17023 11118 11117 17028 17328 11057 11056 17333
8 5245 17024 17029 5246 5184 17329 17334 5185
8 17024 17025 17030 17029 17329 17330 17335 17334
8 17025 17026 17031 17030 17330 17331 17336 17335
8 17026 17027 17032 17031 17331 17332 17337 17336
8 17027 17028 17033 17032 17332 17333 17338 17337
8 17028 11117 11116 17033 17333 11056 11055 17338
8 5246 17029 17034 5247 5185 17334 17339 5186
8 17029 17030 17035 17034 17334 17335 17340 17339
8 17030 17031 17036 17035 17335 17336 17341 17340
8 17031 17032 17037 17036 17336 17337 17342 17341
8 17032 17033 17038 17037 17337 17338 17343 17342
8 17033 11116 11115 17038 17338 11055 11054 17343
8 5247 17034 17039 5248 5186 17339 17344 5187
8 17034 17035 17040 17039 17339 17340 17345 17344
8 17035 17036 17041 17040 17340 17341 17346 17345
8 17036 17037 17042 17041 17341 17342 17347 17346
8 17037 17038 17043 17042 17342 17343 17348 17347
8 17038 11115 11114 17043 17343 11054 11053 17348
8 5248 17039 17044 5249 5187 17344 17349 5188
8 17039 17040 17045 17044 17344 17345 17350 17349
8 17040 17041 17046 17045 17345 17346 17351 17350
8 17041 17042 17047 17046 17346 17347 17352 17351
8 17042 17043 17048 17047 17347 17348 17353 17352
8 17043 11114 11113 17048 17348 11053 11052 17353
8 5249 17044 17049 5250 5188 17349 17354 5189
8 17044 17045 17050 17049 17349 17350 17355 17354
8 17045 17046 17051 17050 17350 17351 17356 17355
8 17046 17047 17052 17051 17351 17352 17357 17356
8 17047 17048 17053 17052 17352 17353 17358 17357
8 17048 11113 11112 17053 17353 11052 11051 17358
8 5250 17049 13029 144 5189 17354 13024 143
8 17049 17050 13030 13029 17354 17355 13025 13024
8 17050 17051 13031 13030 17355 17356 13026 13025
8 17051 17052 13032 13031 17356 17357 13027 13026
8 17052 17053 13033 13032 17357 17358 13028 13027
8 17053 11112 6151 13033 17358 11051 6152 13028
8 230 11914 17054 5129 231 11919 17359 5068
8 11914 11915 17055 17054 11919 11920 17360 17359
8 11915 11916 17056 17055 11920 11921 17361 17360
8 11916 11917 17057 17056 11921 11922 17362 17361
8 11917 11918 17058 17057 11922 11923 17363 17362
8 11918 6065 11111 17058 11923 6064 11050 17363
8 5129 17054 17059 5130 5068 17359 17364 5069
8 17054 17055 17060 17059 17359 17360 17365 17364
8 17055 17056 17061 17060 17360 17361 17366 17365
8 17056 17057 17062 17061 17361 17362 17367 17366
8 17057 17058 17063 17062 17362 17363 17368 17367
8 17058 11111 11110 17063 17363 11050 11049 17368
8 5130 17059 17064 5131 5069 17364 17369 5070
8 17059 17060 17065 17064 17364 17365 17370 17369
8 17060 17061 17066 17065 17365 17366 17371 17370
8 17061 17062 17067 17066 17366 17367 17372 17371
8 17062 17063 17068 17067 17367 17368 17373 17372
8 17063 11110 11109 17068 17368 11049 11048 17373
8 5131 17064 17069 5132 5070 17369 17374 5071
8 17064 17065 17070 17069 17369 17370 17375 17374
8 17065 17066 17071 17070 17370 17371 17376 17375
8 17066 17067 17072 17071 17371 17372 17377 17376
8 17067 17068 17073 17072 17372 17373 17378 17377
8 17068 11109 11108 17073 17373 11048 11047 17378
8 5132 17069 17074 5133 5071 17374 17379 5072
8 17069 17070 17075 17074 17374 17375 17380 17379
8 17070 17071 17076 17075 17375 17376 17381 17380
8 17071 17072 17077 17076 17376 17377 17382 17381
8 17072 17073 17078 17077 17377 17378 17383 17382
8 17073 11108 11107 17078 17378 11047 11046 17383
8 5133 17074 17079 5134 5072 17379 17384 5073
8 17074 17075 17080 17079 17379 17380 17385 17384
8 17075 17076 17081 17080 17380 17381 17386 17385
8 17076 17077 17082 17081 17381 17382 17387 17386
8 17077 17078 17083 17082 17382 17383 17388 17387
8 17078 11107 11106 17083 17383 11046 11045 17388
8 5134 17079 17084 5135 5073 17384 17389 5074
8 17079 17080 17085 17084 17384 17385 17390 17389
8 17080 17081 17086 17085 17385 17386 17391 17390
8 17081 17082 17087 17086 17386 17387 17392 17391
8 17082 17083 17088 17087 17387 17388 17393 17392
8 17083 11106 11105 17088 17388 11045 11044 17393
8 5135 17084 17089 5136 5074 17389 17394 5075
8 17084 17085 17090 17089 17389 17390 17395 17394
8 17085 17086 17091 17090 17390 17391 17396 17395
8 17086 17087 17092 17091 17391 17392 17397 17396
8 17087 17088 17093 17092 17392 17393 17398 17397
8 17088 11105 11104 17093 17393 11044 11043 17398
8 5136 17089 17094 5137 5075 17394 17399 5076
8 17089 17090 17095 17094 17394 17395 17400 17399
8 17090 17091 17096 17095 17395 17396 17401 17400
8 17091 17092 17097 17096 17396 17397 17402 17401
8 17092 17093 17098 17097 17397 17398 17403 17402
8 17093 11104 11103 17098 17398 11043 11042 17403
8 5137 17094 17099 5138 5076 17399 17404 5077
8 17094 17095 17100 17099 17399 17400 17405 17404
8 17095 17096 17101 17100 17400 17401 17406 17405
8 17096 17097 17102 17101 17401 17402 17407 17406
8 17097 17098 17103 17102 17402 17403 17408 17407
8 17098 11103 11102 17103 17403 11042 11041 17408
8 5138 17099 17104 5139 5077 17404 17409 5078
8 17099 17100 17105 17104 17404 17405 17410 17409
8 17100 17101 17106 17105 17405 17406 17411 17410
8 17101 17102 17107 17106 17406 17407 17412 17411
8 17102 17103 17108 17107 17407 17408 17413 17412
8 17103 11102 11101 17108 17408 11041 11040 17413
8 5139 17104 17109 5140 5078 17409 17414 5079
8 17104 17105 17110 17109 17409 17410 17415 17414
8 17105 17106 17111 17110 17410 17411 17416 17415
8 17106 17107 17112 17111 17411 17412 17417 17416
8 17107 17108 17113 17112 17412 17413 17418 17417
8 17108 11101 11100 17113 17413 11040 11039 17418
8 5140 17109 17114 5141 5079 17414 17419 5080
8 17109 17110 17115 17114 17414 17415 17420 17419
8 17110 17111 17116 17115 17415 17416 17421 17420
8 17111 17112 17117 17116 17416 17417 17422 17421
8 17112 17113 17118 17117 17417 17418 17423 17422
8 17113 11100 11099 17118 17418 11039 11038 17423
8 5141 17114 17119 5142 5080 17419 17424 5081
8 17114 17115 17120 17119 17419 17420 17425 17424
8 17115 17116 17121 17120 17420 17421 17426 17425
8 17116 17117 17122 17121 17421 17422 17427 17426
8 17117 17118 17123 17122 17422 17423 17428 17427
8 17118 11099 11098 17123 17423 11038 11037 17428
8 5142 17119 17124 5143 5081 17424 17429 5082
8 17119 17120 17125 17124 17424 17425 17430 17429
8 17120 17121 17126 17125 17425 17426 17431 17430
8 17121 17122 17127 17126 17426 17427 17432 17431
8 17122 17123 17128 17127 17427 17428 17433 17432
8 17123 11098 11097 17128 17428 11037 11036 17433
8 5143 17124 17129 5144 5082 17429 17434 5083
8 17124 17125 17130 17129 17429 17430 17435 17434
8 17125 17126 17131 17130 17430 17431 17436 17435
8 17126 17127 17132 17131 17431 17432 17437 17436
8 17127 17128 17133 17132 17432 17433 17438 17437
8 17128 11097 11096 17133 17433 11036 11035 17438
8 5144 17129 17134 5145 5083 17434 17439 5084
8 17129 17130 17135 17134 17434 17435 17440 17439
8 17130 17131 17136 17135 17435 17436 17441 17440
8 17131 17132 17137 17136 17436 17437 17442 17441
8 17132 17133 17138 17137 17437 17438 17443 17442
8 17133 11096 11095 17138 17438 11035 11034 17443
8 5145 17134 17139 5146 5084 17439 17444 5085
8 17134 17135 17140 17139 17439 17440 17445 17444
8 17135 17136 17141 17140 17440 17441 17446 17445
8 17136 17137 17142 17141 17441 17442 17447 17446
8 17137 17138 17143 17142 17442 17443 17448 17447
8 17138 11095 11094 17143 17443 11034 11033 17448
8 5146 17139 17144 5147 5085 17444 17449 5086
8 17139 17140 17145 17144 17444 17445 17450 17449
8 17140 17141 17146 17145 17445 17446 17451 17450
8 17141 17142 17147 17146 17446 17447 17452 17451
8 17142 17143 17148 17147 17447 17448 17453 17452
8 17143 11094 11093 17148 17448 11033 11032 17453
8 5147 17144 17149 5148 5086 17449 17454 5087
8 17144 17145 17150 17149 17449 17450 17455 17454
8 17145 17146 17151 17150 17450 17451 17456 17455
8 17146 17147 17152 17151 17451 17452 17457 17456
8 17147 17148 17153 17152 17452 17453 17458 17457
8 17148 11093 11092 17153 17453 11032 11031 17458
8 5148 17149 17154 5149 5087 17454 17459 5088
8 17149 17150 17155 17154 17454 17455 17460 17459
8 17150 17151 17156 17155 17455 17456 17461 17460
8 17151 17152 17157 17156 17456 17457 17462 17461
8 17152 17153 17158 17157 17457 17458 17463 17462
8 17153 11092 11091 17158 17458 11031 11030 17463
8 17154 17155 17160 17159 17459 17460 17465 17464
8 17155 17156 17161 17160 17460 17461 17466 17465
8 17156 17157 17162 17161 17461 17462 17467 17466
8 17157 17158 17163 17162 17462 17463 17468 17467
8 17158 11091 11090 17163 17463 11030 11029 17468
8 17159 17160 17165 17164 17464 17465 17470 17469
8 17160 17161 17166 17165 17465 17466 17471 17470
8 17161 17162 17167 17166 17466 17467 17472 17471
8 17162 17163 17168 17167 17467 17468 17473 17472
8 17163 11090 11089 17168 17468 11029 11028 17473
8 17164 17165 17170 17169 17469 17470 17475 17474
8 17165 17166 17171 17170 17470 17471 17476 17475
8 17166 17167 17172 17171 17471 17472 17477 17476
8 17167 17168 17173 17172 17472 17473 17478 17477
8 17168 11089 11088 17173 17473 11028 11027 17478
8 17169 17170 17175 17174 17474 17475 17480 17479
8 17170 17171 17176 17175 17475 17476 17481 17480
8 17171 17172 17177 17176 17476 17477 17482 17481
8 17172 17173 17178 17177 17477 17478 17483 17482
8 17173 11088 11087 17178 17478 11027 11026 17483
8 17174 17175 17180 17179 17479 17480 17485 17484
8 17175 17176 17181 17180 17480 17481 17486 17485
8 17176 17177 17182 17181 17481 17482 17487 17486
8 17177 17178 17183 17182 17482 17483 17488 17487
8 17178 11087 11086 17183 17483 11026 11025 17488
8 5154 17179 17184 5155 5093 17484 17489 5094
8 17179 17180 17185 17184 17484 17485 17490 17489
8 17180 17181 17186 17185 17485 17486 17491 17490
8 17181 17182 17187 17186 17486 17487 17492 17491
8 17182 17183 17188 17187 17487 17488 17493 17492
8 17183 11086 11085 17188 17488 11025 11024 17493
8 5155 17184 17189 5156 5094 17489 17494 5095
8 17184 17185 17190 17189 17489 17490 17495 17494
8 17185 17186 17191 17190 17490 17491 17496 17495
8 17186 17187 17192 17191 17491 17492 17497 17496
8 17187 17188 17193 17192 17492 17493 17498 17497
8 17188 11085 11084 17193 17493 11024 11023 17498
8 5156 17189 17194 5157 5095 17494 17499 5096
8 17189 17190 17195 17194 17494 17495 17500 17499
8 17190 17191 17196 17195 17495 17496 17501 17500
8 17191 17192 17197 17196 17496 17497 17502 17501
8 17192 17193 17198 17197 17497 17498 17503 17502
8 17193 11084 11083 17198 17498 11023 11022 17503
8 5157 17194 17199 5158 5096 17499 17504 5097
8 17194 17195 17200 17199 17499 17500 17505 17504
8 17195 17196 17201 17200 17500 17501 17506 17505
8 17196 17197 17202 17201 17501 17502 17507 17506
8 17197 17198 17203 17202 17502 17503 17508 17507
8 17198 11083 11082 17203 17503 11022 11021 17508
8 5158 17199 17204 5159 5097 17504 17509 5098
8 17199 17200 17205 17204 17504 17505 17510 17509
8 17200 17201 17206 17205 17505 17506 17511 17510
8 17201 17202 17207 17206 17506 17507 17512 17511
8 17202 17203 17208 17207 17507 17508 17513 17512
8 17203 11082 11081 17208 17508 11021 11020 17513
8 5159 17204 17209 5160 5098 17509 17514 5099
8 17204 17205 17210 17209 17509 17510 17515 17514
8 17205 17206 17211 17210 17510 17511 17516 17515
8 17206 17207 17212 17211 17511 17512 17517 17516
8 17207 17208 17213 17212 17512 17513 17518 17517
8 17208 11081 11080 17213 17513 11020 11019 17518
8 5160 17209 17214 5161 5099 17514 17519 5100
8 17209 17210 17215 17214 17514 17515 17520 17519
8 17210 17211 17216 17215 17515 17516 17521 17520
8 17211 17212 17217 17216 17516 17517 17522 17521
8 17212 17213 17218 17217 17517 17518 17523 17522
8 17213 11080 11079 17218 17518 11019 11018 17523
8 17214 17215 17220 17219 17519 17520 17525 17524
8 17215 17216 17221 17220 17520 17521 17526 17525
8 17216 17217 17222 17221 17521 17522 17527 17526
8 17217 17218 17223 17222 17522 17523 17528 17527
8 17218 11079 11078 17223 17523 11018 11017 17528
8 17219 17220 17225 17224 17524 17525 17530 17529
8 17220 17221 17226 17225 17525 17526 17531 17530
8 17221 17222 17227 17226 17526 17527 17532 17531
8 17222 17223 17228 17227 17527 17528 17533 17532
8 17223 11078 11077 17228 17528 11017 11016 17533
8 17224 17225 17230 17229 17529 17530 17535 17534
8 17225 17226 17231 17230 17530 17531 17536 17535
8 17226 17227 17232 17231 17531 17532 17537 17536
8 17227 17228 17233 17232 17532 17533 17538 17537
8 17228 11077 11076 17233 17533 11016 11015 17538
8 17229 17230 17235 17234 17534 17535 17540 17539
8 17230 17231 17236 17235 17535 17536 17541 17540
8 17231 17232 17237 17236 17536 17537 17542 17541
8 17232 17233 17238 17237 17537 17538 17543 17542
8 17233 11076 11075 17238 17538 11015 11014 17543
8 17234 17235 17240 17239 17539 17540 17545 17544
8 17235 17236 17241 17240 17540 17541 17546 17545
8 17236 17237 17242 17241 17541 17542 17547 17546
8 17237 17238 17243 17242 17542 17543 17548 17547
8 17238 11075 11074 17243 17543 11014 11013 17548
8 5166 17239 17244 5167 5105 17544 17549 5106
8 17239 17240 17245 17244 17544 17545 17550 17549
8 17240 17241 17246 17245 17545 17546 17551 17550
8 17241 17242 17247 17246 17546 17547 17552 17551
8 17242 17243 17248 17247 17547 17548 17553 17552
8 17243 11074 11073 17248 17548 11013 11012 17553
8 5167 17244 17249 5168 5106 17549 17554 5107
8 17244 17245 17250 17249 17549 17550 17555 17554
8 17245 17246 17251 17250 17550 17551 17556 17555
8 17246 17247 17252 17251 17551 17552 17557 17556
8 17247 17248 17253 17252 17552 17553 17558 17557
8 17248 11073 11072 17253 17553 11012 11011 17558
8 5168 17249 17254 5169 5107 17554 17559 5108
8 17249 17250 17255 17254 17554 17555 17560 17559
8 17250 17251 17256 17255 17555 17556 17561 17560
8 17251 17252 17257 17256 17556 17557 17562 17561
8 17252 17253 17258 17257 17557 17558 17563 17562
8 17253 11072 11071 17258 17558 11011 11010 17563
8 5169 17254 17259 5170 5108 17559 17564 5109
8 17254 17255 17260 17259 17559 17560 17565 17564
8 17255 17256 17261 17260 17560 17561 17566 17565
8 17256 17257 17262 17261 17561 17562 17567 17566
8 17257 17258 17263 17262 17562 17563 17568 17567
8 17258 11071 11070 17263 17563 11010 11009 17568
8 5170 17259 17264 5171 5109 17564 17569 5110
8 17259 17260 17265 17264 17564 17565 17570 17569
8 17260 17261 17266 17265 17565 17566 17571 17570
8 17261 17262 17267 17266 17566 17567 17572 17571
8 17262 17263 17268 17267 17567 17568 17573 17572
8 17263 11070 11069 17268 17568 11009 11008 17573
8 5171 17264 17269 5172 5110 17569 17574 5111
8 17264 17265 17270 17269 17569 17570 17575 17574
8 17265 17266 17271 17270 17570 17571 17576 17575
8 17266 17267 17272 17271 17571 17572 17577 17576
8 17267 17268 17273 17272 17572 17573 17578 17577
8 17268 11069 11068 17273 17573 11008 11007 17578
8 5172 17269 17274 5173 5111 17574 17579 5112
8 17269 17270 17275 17274 17574 17575 17580 17579
8 17270 17271 17276 17275 17575 17576 17581 17580
8 17271 17272 17277 17276 17576 17577 17582 17581
8 17272 17273 17278 17277 17577 17578 17583 17582
8 17273 11068 11067 17278 17578 11007 11006 17583
8 5173 17274 17279 5174 5112 17579 17584 5113
8 17274 17275 17280 17279 17579 17580 17585 17584
8 17275 17276 17281 17280 17580 17581 17586 17585
8 17276 17277 17282 17281 17581 17582 17587 17586
8 17277 17278 17283 17282 17582 17583 17588 17587
8 17278 11067 11066 17283 17583 11006 11005 17588
8 17279 17280 17285 17284 17584 17585 17590 17589
8 17280 17281 17286 17285 17585 17586 17591 17590
8 17281 17282 17287 17286 17586 17587 17592 17591
8 17282 17283 17288 17287 17587 17588 17593 17592
8 17283 11066 11065 17288 17588 11005 11004 17593
8 17284 17285 17290 17289 17589 17590 17595 17594
8 17285 17286 17291 17290 17590 17591 17596 17595
8 17286 17287 17292 17291 17591 17592 17597 17596
8 17287 17288 17293 17292 17592 17593 17598 17597
8 17288 11065 11064 17293 17593 11004 11003 17598
8 17289 17290 17295 17294 17594 17595 17600 17599
8 17290 17291 17296 17295 17595 17596 17601 17600
8 17291 17292 17297 17296 17596 17597 17602 17601
8 17292 17293 17298 17297 17597 17598 17603 17602
8 17293 11064 11063 17298 17598 11003 11002 17603
8 17294 17295 17300 17299 17599 17600 17605 17604
8 17295 17296 17301 17300 17600 17601 17606 17605
8 17296 17297 17302 17301 17601 17602 17607 17606
8 17297 17298 17303 17302 17602 17603 17608 17607
8 17298 11063 11062 17303 17603 11002 11001 17608
8 17299 17300 17305 17304 17604 17605 17610 17609
8 17300 17301 17306 17305 17605 17606 17611 17610
8 17301 17302 17307 17306 17606 17607 17612 17611
8 17302 17303 17308 17307 17607 17608 17613 17612
8 17303 11062 11061 17308 17608 11001 11000 17613
8 5179 17304 17309 5180 5118 17609 17614 5119
8 17304 17305 17310 17309 17609 17610 17615 17614
8 17305 17306 17311 17310 17610 17611 17616 17615
8 17306 17307 17312 17311 17611 17612 17617 17616
8 17307 17308 17313 17312 17612 17613 17618 17617
8 17308 11061 11060 17313 17613 11000 10999 17618
8 5180 17309 17314 5181 5119 17614 17619 5120
8 17309 17310 17315 17314 17614 17615 17620 17619
8 17310 17311 17316 17315 17615 17616 17621 17620
8 17311 17312 17317 17316 17616 17617 17622 17621
8 17312 17313 17318 17317 17617 17618 17623 17622
8 17313 11060 11059 17318 17618 10999 10998 17623
8 5181 17314 17319 5182 5120 17619 17624 5121
8 17314 17315 17320 17319 17619 17620 17625 17624
8 17315 17316 17321 17320 17620 17621 17626 17625
8 17316 17317 17322 17321 17621 17622 17627 17626
8 17317 17318 17323 17322 17622 17623 17628 17627
8 17318 11059 11058 17323 17623 10998 10997 17628
8 5182 17319 17324 5183 5121 17624 17629 5122
8 17319 17320 17325 17324 17624 17625 17630 17629
8 17320 17321 17326 17325 17625 17626 17631 17630
8 17321 17322 17327 17326 17626 17627 17632 17631
8 17322 17323 17328 17327 17627 17628 17633 17632
8 17323 11058 11057 17328 17628 10997 10996 17633
8 5183 17324 17329 5184 5122 17629 17634 5123
8 17324 17325 17330 17329 17629 17630 17635 17634
8 17325 17326 17331 17330 17630 17631 17636 17635
8 17326 17327 17332 17331 17631 17632 17637 17636
8 17327 17328 17333 17332 17632 17633 17638 17637
8 17328 11057 11056 17333 17633 10996 10995 17638
8 5184 17329 17334 5185 5123 17634 17639 5124
8 17329 17330 17335 17334 17634 17635 17640 17639
8 17330 17331 17336 17335 17635 17636 17641 17640
8 17331 17332 17337 17336 17636 17637 17642 17641
8 17332 17333 17338 17337 17637 17638 17643 17642
8 17333 11056 11055 17338 17638 10995 10994 17643
8 5185 17334 17339 5186 5124 17639 17644 5125
8 17334 17335 17340 17339 17639 17640 17645 17644
8 17335 17336 17341 17340 17640 17641 17646 17645
8 17336 17337 17342 17341 17641 17642 17647 17646
8 17337 17338 17343 17342 17642 17643 17648 17647
8 17338 11055 11054 17343 17643 10994 10993 17648
8 5186 17339 17344 5187 5125 17644 17649 5126
8 17339 17340 17345 17344 17644 17645 17650 17649
8 17340 17341 17346 17345 17645 17646 17651 17650
8 17341 17342 17347 17346 17646 17647 17652 17651
8 17342 17343 17348 17347 17647 17648 17653 17652
8 17343 11054 11053 17348 17648 10993 10992 17653
8 5187 17344 17349 5188 5126 17649 17654 5127
8 17344 17345 17350 17349 17649 17650 17655 17654
8 17345 17346 17351 17350 17650 17651 17656 17655
8 17346 17347 17352 17351 17651 17652 17657 17656
8 17347 17348 17353 17352 17652 17653 17658 17657
8 17348 11053 11052 17353 17653 10992 10991 17658
8 5188 17349 17354 5189 5127 17654 17659 5128
8 17349 17350 17355 17354 17654 17655 17660 17659
8 17350 17351 17356 17355 17655 17656 17661 17660
8 17351 17352 17357 17356 17656 17657 17662 17661
8 17352 17353 17358 17357 17657 17658 17663 17662
8 17353 11052 11051 17358 17658 10991 10990 17663
8 5189 17354 13024 143 5128 17659 13019 142
8 17354 17355 13025 13024 17659 17660 13020 13019
8 17355 17356 13026 13025 17660 17661 13021 13020
8 17356 17357 13027 13026 17661 17662 13022 13021
8 17357 17358 13028 13027 17662 17663 13023 13022
8 17358 11051 6152 13028 17663 10990 6153 13023
8 231 11919 17359 5068 232 11924 17664 5007
8 11919 11920 17360 17359 11924 11925 17665 17664
8 11920 11921 17361 17360 11925 11926 17666 17665
8 11921 11922 17362 17361 11926 11927 17667 17666
8 11922 11923 17363 17362 11927 11928 17668 17667
8 11923 6064 11050 17363 11928 6063 10989 17668
8 5068 17359 17364 5069 5007 17664 17669 5008
8 17359 17360 17365 17364 17664 17665 17670 17669
8 17360 17361 17366 17365 17665 17666 17671 17670
8 17361 17362 17367 17366 17666 17667 17672 17671
8 17362 17363 17368 17367 17667 17668 17673 17672
8 17363 11050 11049 17368 17668 10989 10988 17673
8 5069 17364 17369 5070 5008 17669 17674 5009
8 17364 17365 17370 17369 17669 17670 17675 17674
8 17365 17366 17371 17370 17670 17671 17676 17675
8 17366 17367 17372 17371 17671 17672 17677 17676
8 17367 17368 17373 17372 17672 17673 17678 17677
8 17368 11049 11048 17373 17673 10988 10987 17678
8 5070 17369 17374 5071 5009 17674 17679 5010
8 17369 17370 17375 17374 17674 17675 17680 17679
8 17370 17371 17376 17375 17675 17676 17681 17680
8 17371 17372 17377 17376 17676 17677 17682 17681
8 17372 17373 17378 17377 17677 17678 17683 17682
8 17373 11048 11047 17378 17678 10987 10986 17683
8 5071 17374 17379 5072 5010 17679 17684 5011
8 17374 17375 17380 17379 17679 17680 17685 17684
8 17375 17376 17381 17380 17680 17681 17686 17685
8 17376 17377 17382 17381 17681 17682 17687 17686
8 17377 17378 17383 17382 17682 17683 17688 17687
8 17378 11047 11046 17383 17683 10986 10985 17688
8 5072 17379 17384 5073 5011 17684 17689 5012
8 17379 17380 17385 17384 17684 17685 17690 17689
8 17380 17381 17386 17385 17685 17686 17691 17690
8 17381 17382 17387 17386 17686 17687 17692 17691
8 17382 17383 17388 17387 17687 17688 17693 17692
8 17383 11046 11045 17388 17688 10985 10984 17693
8 5073 17384 17389 5074 5012 17689 17694 5013
8 17384 17385 17390 17389 17689 17690 17695 17694
8 17385 17386 17391 17390 17690 17691 17696 17695
8 17386 17387 17392 17391 17691 17692 17697 17696
8 17387 17388 17393 17392 17692 17693 17698 17697
8 17388 11045 11044 17393 17693 10984 10983 17698
8 5074 17389 17394 5075 5013 17694 17699 5014
8 17389 17390 17395 17394 17694 17695 17700 17699
8 17390 17391 17396 17395 17695 17696 17701 17700
8 17391 17392 17397 17396 17696 17697 17702 17701
8 17392 17393 17398 17397 17697 17698 17703 17702
8 17393 11044 11043 17398 17698 10983 10982 17703
8 5075 17394 17399 5076 5014 17699 17704 5015
8 17394 17395 17400 17399 17699 17700 17705 17704
8 17395 17396 17401 17400 17700 17701 17706 17705
8 17396 17397 17402 17401 17701 17702 17707 17706
8 17397 17398 17403 17402 17702 17703 17708 17707
8 17398 11043 11042 17403 17703 10982 10981 17708
8 5076 17399 17404 5077 5015 17704 17709 5016
8 17399 17400 17405 17404 17704 17705 17710 17709
8 17400 17401 17406 17405 17705 17706 17711 17710
8 17401 17402 17407 17406 17706 17707 17712 17711
8 17402 17403 17408 17407 17707 17708 17713 17712
8 17403 11042 11041 17408 17708 10981 10980 17713
8 5077 17404 17409 5078 5016 17709 17714 5017
8 17404 17405 17410 17409 17709 17710 17715 17714
8 17405 17406 17411 17410 17710 17711 17716 17715
8 17406 17407 17412 17411 17711 17712 17717 17716
8 17407 17408 17413 17412 17712 17713 17718 17717
8 17408 11041 11040 17413 17713 10980 10979 17718
8 5078 17409 17414 5079 5017 17714 17719 5018
8 17409 17410 17415 17414 17714 17715 17720 17719
8 17410 17411 17416 17415 17715 17716 17721 17720
8 17411 17412 17417 17416 17716 17717 17722 17721
8 17412 17413 17418 17417 17717 17718 17723 17722
8 17413 11040 11039 17418 17718 10979 10978 17723
8 5079 17414 17419 5080 5018 17719 17724 5019
8 17414 17415 17420 17419 17719 17720 17725 17724
8 17415 17416 17421 17420 17720 17721 17726 17725
8 17416 17417 17422 17421 17721 17722 17727 17726
8 17417 17418 17423 17422 17722 17723 17728 17727
8 17418 11039 11038 17423 17723 10978 10977 17728
8 5080 17419 17424 5081 5019 17724 17729 5020
8 17419 17420 17425 17424 17724 17725 17730 17729
8 17420 17421 17426 17425 17725 17726 17731 17730
8 17421 17422 17427 17426 17726 17727 17732 17731
8 17422 17423 17428 17427 17727 17728 17733 17732
8 17423 11038 11037 17428 17728 10977 10976 17733
8 5081 17424 17429 5082 5020 17729 17734 5021
8 17424 17425 17430 17429 17729 17730 17735 17734
8 17425 17426 17431 17430 17730 17731 17736 17735
8 17426 17427 17432 17431 17731 17732 17737 17736
8 17427 17428 17433 17432 17732 17733 17738 17737
8 17428 11037 11036 17433 17733 10976 10975 17738
8 5082 17429 17434 5083 5021 17734 17739 5022
8 17429 17430 17435 17434 17734 17735 17740 17739
8 17430 17431 17436 17435 17735 17736 17741 17740
8 17431 17432 17437 17436 17736 17737 17742 17741
8 17432 17433 17438 17437 17737 17738 17743 17742
8 17433 11036 11035 17438 17738 10975 10974 17743
8 5083 17434 17439 5084 5022 17739 17744 5023
8 17434 17435 17440 17439 17739 17740 17745 17744
8 17435 17436 17441 17440 17740 17741 17746 17745
8 17436 17437 17442 17441 17741 17742 17747 17746
8 17437 17438 17443 17442 17742 17743 17748 17747
8 17438 11035 11034 17443 17743 10974 10973 17748
8 5084 17439 17444 5085 5023 17744 17749 5024
8 17439 17440 17445 17444 17744 17745 17750 17749
8 17440 17441 17446 17445 17745 17746 17751 17750
8 17441 17442 17447 17446 17746 17747 17752 17751
8 17442 17443 17448 17447 17747 17748 17753 17752
8 17443 11034 11033 17448 17748 10973 10972 17753
8 5085 17444 17449 5086 5024 17749 17754 5025
8 17444 17445 17450 17449 17749 17750 17755 17754
8 17445 17446 17451 17450 17750 17751 17756 17755
8 17446 17447 17452 17451 17751 17752 17757 17756
8 17447 17448 17453 17452 17752 17753 17758 17757
8 17448 11033 11032 17453 17753 10972 10971 17758
8 5086 17449 17454 5087 5025 17754 17759 5026
8 17449 17450 17455 17454 17754 17755 17760 17759
8 17450 17451 17456 17455 17755 17756 17761 17760
8 17451 17452 17457 17456 17756 17757 17762 17761
8 17452 17453 17458 17457 17757 17758 17763 17762
8 17453 11032 11031 17458 17758 10971 10970 17763
8 5087 17454 17459 5088 5026 17759 17764 5027
8 17454 17455 17460 17459 17759 17760 17765 17764
8 17455 17456 17461 17460 17760 17761 17766 17765
8 17456 17457 17462 17461 17761 17762 17767 17766
8 17457 17458 17463 17462 17762 17763 17768 17767
8 17458 11031 11030 17463 17763 10970 10969 17768
8 17459 17460 17465 17464 17764 17765 17770 17769
8 17460 17461 17466 17465 17765 17766 17771 17770
8 17461 17462 17467 17466 17766 17767 17772 17771
8 17462 17463 17468 17467 17767 17768 17773 17772
8 17463 11030 11029 17468 17768 10969 10968 17773
8 17464 17465 17470 17469 17769 17770 17775 17774
8 17465 17466 17471 17470 17770 17771 17776 17775
8 17466 17467 17472 17471 17771 17772 17777 17776
8 17467 17468 17473 17472 17772 17773 17778 17777
8 17468 11029 11028 17473 17773 10968 10967 17778
8 17469 17470 17475 17474 17774 17775 17780 17779
8 17470 17471 17476 17475 17775 17776 17781 17780
8 17471 17472 17477 17476 17776 17777 17782 17781
8 17472 17473 17478 17477 17777 17778 17783 17782
8 17473 11028 11027 17478 17778 10967 10966 17783
8 17474 17475 17480 17479 17779 17780 17785 17784
8 17475 17476 17481 17480 17780 17781 17786 17785
8 17476 17477 17482 17481 17781 17782 17787 17786
8 17477 17478 17483 17482 17782 17783 17788 17787
8 17478 11027 11026 17483 17783 10966 10965 17788
8 17479 17480 17485 17484 17784 17785 17790 17789
8 17480 17481 17486 17485 17785 17786 17791 17790
8 17481 17482 17487 17486 17786 17787 17792 17791
8 17482 17483 17488 17487 17787 17788 17793 17792
8 17483 11026 11025 17488 17788 10965 10964 17793
8 5093 17484 17489 5094 5032 17789 17794 5033
8 17484 17485 17490 17489 17789 17790 17795 17794
8 17485 17486 17491 17490 17790 17791 17796 17795
8 17486 17487 17492 17491 17791 17792 17797 17796
8 17487 17488 17493 17492 17792 17793 17798 17797
8 17488 11025 11024 17493 17793 10964 10963 17798
8 5094 17489 17494 5095 5033 17794 17799 5034
8 17489 17490 17495 17494 17794 17795 17800 17799
8 17490 17491 17496 17495 17795 17796 17801 17800
8 17491 17492 17497 17496 17796 17797 17802 17801
8 17492 17493 17498 17497 17797 17798 17803 17802
8 17493 11024 11023 17498 17798 10963 10962 17803
8 5095 17494 17499 5096 5034 17799 17804 5035
8 17494 17495 17500 17499 17799 17800 17805 17804
8 17495 17496 17501 17500 17800 17801 17806 17805
8 17496 17497 17502 17501 17801 17802 17807 17806
8 17497 17498 17503 17502 17802 17803 17808 17807
8 17498 11023 11022 17503 17803 10962 10961 17808
8 5096 17499 17504 5097 5035 17804 17809 5036
8 17499 17500 17505 17504 17804 17805 17810 17809
8 17500 17501 17506 17505 17805 17806 17811 17810
8 17501 17502 17507 17506 17806 17807 17812 17811
8 17502 17503 17508 17507 17807 17808 17813 17812
8 17503 11022 11021 17508 17808 10961 10960 17813
8 5097 17504 17509 5098 5036 17809 17814 5037
8 17504 17505 17510 17509 17809 17810 17815 17814
8 17505 17506 17511 17510 17810 17811 17816 17815
8 17506 17507 17512 17511 17811 17812 17817 17816
8 17507 17508 17513 17512 17812 17813 17818 17817
8 17508 11021 11020 17513 17813 10960 10959 17818
8 5098 17509 17514 5099 5037 17814 17819 5038
8 17509 17510 17515 17514 17814 17815 17820 17819
8 17510 17511 17516 17515 17815 17816 17821 17820
8 17511 17512 17517 17516 17816 17817 17822 17821
8 17512 17513 17518 17517 17817 17818 17823 17822
8 17513 11020 11019 17518 17818 10959 10958 17823
8 5099 17514 17519 5100 5038 17819 17824 5039
8 17514 17515 17520 17519 17819 17820 17825 17824
8 17515 17516 17521 17520 17820 17821 17826 17825
8 17516 17517 17522 17521 17821 17822 17827 17826
8 17517 17518 17523 17522 17822 17823 17828 17827
8 17518 11019 11018 17523 17823 10958 10957 17828
8 17519 17520 17525 17524 17824 17825 17830 17829
8 17520 17521 17526 17525 17825 17826 17831 17830
8 17521 17522 17527 17526 17826 17827 17832 17831
8 17522 17523 17528 17527 17827 17828 17833 17832
8 17523 11018 11017 17528 17828 10957 10956 17833
8 17524 17525 17530 17529 17829 17830 17835 17834
8 17525 17526 17531 17530 17830 17831 17836 17835
8 17526 17527 17532 17531 17831 17832 17837 17836
8 17527 17528 17533 17532 17832 17833 17838 17837
8 17528 11017 11016 17533 17833 10956 10955 17838
8 17529 17530 17535 17534 17834 17835 17840 17839
8 17530 17531 17536 17535 17835 17836 17841 17840
8 17531 17532 17537 17536 17836 17837 17842 17841
8 17532 17533 17538 17537 17837 17838 17843 17842
8 17533 11016 11015 17538 17838 10955 10954 17843
8 17534 17535 17540 17539 17839 17840 17845 17844
8 17535 17536 17541 17540 17840 17841 17846 17845
8 17536 17537 17542 17541 17841 17842 17847 17846
8 17537 17538 17543 17542 17842 17843 17848 17847
8 17538 11015 11014 17543 17843 10954 10953 17848
8 17539 17540 17545 17544 17844 17845 17850 17849
8 17540 17541 17546 17545 17845 17846 17851 17850
8 17541 17542 17547 17546 17846 17847 17852 17851
8 17542 17543 17548 17547 17847 17848 17853 17852
8 17543 11014 11013 17548 17848 10953 10952 17853
8 5105 17544 17549 5106 5044 17849 17854 5045
8 17544 17545 17550 17549 17849 17850 17855 17854
8 17545 17546 17551 17550 17850 17851 17856 17855
8 17546 17547 17552 17551 17851 17852 17857 17856
8 17547 17548 17553 17552 17852 17853 17858 17857
8 17548 11013 11012 17553 17853 10952 10951 17858
8 5106 17549 17554 5107 5045 17854 17859 5046
8 17549 17550 17555 17554 17854 17855 17860 17859
8 17550 17551 17556 17555 17855 17856 17861 17860
8 17551 17552 17557 17556 17856 17857 17862 17861
8 17552 17553 17558 17557 17857 17858 17863 17862
8 17553 11012 11011 17558 17858 10951 10950 17863
8 5107 17554 17559 5108 5046 17859 17864 5047
8 17554 17555 17560 17559 17859 17860 17865 17864
8 17555 17556 17561 17560 17860 17861 17866 17865
8 17556 17557 17562 17561 17861 17862 17867 17866
8 17557 17558 17563 17562 17862 17863 17868 17867
8 17558 11011 11010 17563 17863 10950 10949 17868
8 5108 17559 17564 5109 5047 17864 17869 5048
8 17559 17560 17565 17564 17864 17865 17870 17869
8 17560 17561 17566 17565 17865 17866 17871 17870
8 17561 17562 17567 17566 17866 17867 17872 17871
8 17562 17563 17568 17567 17867 17868 17873 17872
8 17563 11010 11009 17568 17868 10949 10948 17873
8 5109 17564 17569 5110 5048 17869 17874 5049
8 17564 17565 17570 17569 17869 17870 17875 17874
8 17565 17566 17571 17570 17870 17871 17876 17875
8 17566 17567 17572 17571 17871 17872 17877 17876
8 17567 17568 17573 17572 17872 17873 17878 17877
8 17568 11009 11008 17573 17873 10948 10947 17878
8 5110 17569 17574 5111 5049 17874 17879 5050
8 17569 17570 17575 17574 17874 17875 17880 17879
8 17570 17571 17576 17575 17875 17876 17881 17880
8 17571 17572 17577 17576 17876 17877 17882 17881
8 17572 17573 17578 17577 17877 17878 17883 17882
8 17573 11008 11007 17578 17878 10947 10946 17883
8 5111 17574 17579 5112 5050 17879 17884 5051
8 17574 17575 17580 17579 17879 17880 17885 17884
8 17575 17576 17581 17580 17880 17881 17886 17885
8 17576 17577 17582 17581 17881 17882 17887 17886
8 17577 17578 17583 17582 17882 17883 17888 17887
8 17578 11007 11006 17583 17883 10946 10945 17888
8 5112 17579 17584 5113 5051 17884 17889 5052
8 17579 17580 17585 17584 17884 17885 17890 17889
8 17580 17581 17586 17585 17885 17886 17891 17890
8 17581 17582 17587 17586 17886 17887 17892 17891
8 17582 17583 17588 17587 17887 17888 17893 17892
8 17583 11006 11005 17588 17888 10945 10944 17893
8 17584 17585 17590 17589 17889 17890 17895 17894
8 17585 17586 17591 17590 17890 17891 17896 17895
8 17586 17587 17592 17591 17891 17892 17897 17896
8 17587 17588 17593 17592 17892 17893 17898 17897
8 17588 11005 11004 17593 17893 10944 10943 17898
8 17589 17590 17595 17594 17894 17895 17900 17899
8 17590 17591 17596 17595 17895 17896 17901 17900
8 17591 17592 17597 17596 17896 17897 17902 17901
8 17592 17593 17598 17597 17897 17898 17903 17902
8 17593 11004 11003 17598 17898 10943 10942 17903
8 17594 17595 17600 17599 17899 17900 17905 17904
8 17595 17596 17601 17600 17900 17901 17906 17905
8 17596 17597 17602 17601 17901 17902 17907 17906
8 17597 17598 17603 17602 17902 17903 17908 17907
8 17598 11003 11002 17603 17903 10942 10941 17908
8 17599 17600 17605 17604 17904 17905 17910 17909
8 17600 17601 17606 17605 17905 17906 17911 17910
8 17601 17602 17607 17606 17906 17907 17912 17911
8 17602 17603 17608 17607 17907 17908 17913 17912
8 17603 11002 11001 17608 17908 10941 10940 17913
8 17604 17605 17610 17609 17909 17910 17915 17914
8 17605 17606 17611 17610 17910 17911 17916 17915
8 17606 17607 17612 17611 17911 17912 17917 17916
8 17607 17608 17613 17612 17912 17913 17918 17917
8 17608 11001 11000 17613 17913 10940 10939 17918
8 5118 17609 17614 5119 5057 17914 17919 5058
8 17609 17610 17615 17614 17914 17915 17920 17919
8 17610 17611 17616 17615 17915 17916 17921 17920
8 17611 17612 17617 17616 17916 17917 17922 17921
8 17612 17613 17618 17617 17917 17918 17923 17922
8 17613 11000 10999 17618 17918 10939 10938 17923
8 5119 17614 17619 5120 5058 17919 17924 5059
8 17614 17615 17620 17619 17919 17920 17925 17924
8 17615 17616 17621 17620 17920 17921 17926 17925
8 17616 17617 17622 17621 17921 17922 17927 17926
8 17617 17618 17623 17622 17922 17923 17928 17927
8 17618 10999 10998 17623 17923 10938 10937 17928
8 5120 17619 17624 5121 5059 17924 17929 5060
8 17619 17620 17625 17624 17924 17925 17930 17929
8 17620 17621 17626 17625 17925 17926 17931 17930
8 17621 17622 17627 17626 17926 17927 17932 17931
8 17622 17623 17628 17627 17927 17928 17933 17932
8 17623 10998 10997 17628 17928 10937 10936 17933
8 5121 17624 17629 5122 5060 17929 17934 5061
8 17624 17625 17630 17629 17929 17930 17935 17934
8 17625 17626 17631 17630 17930 17931 17936 17935
8 17626 17627 17632 17631 17931 17932 17937 17936
8 17627 17628 17633 17632 17932 17933 17938 17937
8 17628 10997 10996 17633 17933 10936 10935 17938
8 5122 17629 17634 5123 5061 17934 17939 5062
8 17629 17630 17635 17634 17934 17935 17940 17939
8 17630 17631 17636 17635 17935 17936 17941 17940
8 17631 17632 17637 17636 17936 17937 17942 17941
8 17632 17633 17638 17637 17937 17938 17943 17942
8 17633 10996 10995 17638 17938 10935 10934 17943
8 5123 17634 17639 5124 5062 17939 17944 5063
8 17634 17635 17640 17639 17939 17940 17945 17944
8 17635 17636 17641 17640 17940 17941 17946 17945
8 17636 17637 17642 17641 17941 17942 17947 17946
8 17637 17638 17643 17642 17942 17943 17948 17947
8 17638 10995 10994 17643 17943 10934 10933 17948
8 5124 17639 17644 5125 5063 17944 17949 5064
8 17639 17640 17645 17644 17944 17945 17950 17949
8 17640 17641 17646 17645 17945 17946 17951 17950
8 17641 17642 17647 17646 17946 17947 17952 17951
8 17642 17643 17648 17647 17947 17948 17953 17952
8 17643 10994 10993 17648 17948 10933 10932 17953
8 5125 17644 17649 5126 5064 17949 17954 5065
8 17644 17645 17650 17649 17949 17950 17955 17954
8 17645 17646 17651 17650 17950 17951 17956 17955
8 17646 17647 17652 17651 17951 17952 17957 17956
8 17647 17648 17653 17652 17952 17953 17958 17957
8 17648 10993 10992 17653 17953 10932 10931 17958
8 5126 17649 17654 5127 5065 17954 17959 5066
8 17649 17650 17655 17654 17954 17955 17960 17959
8 17650 17651 17656 17655 17955 17956 17961 17960
8 17651 17652 17657 17656 17956 17957 17962 17961
8 17652 17653 17658 17657 17957 17958 17963 17962
8 17653 10992 10991 17658 17958 10931 10930 17963
8 5127 17654 17659 5128 5066 17959 17964 5067
8 17654 17655 17660 17659 17959 17960 17965 17964
8 17655 17656 17661 17660 17960 17961 17966 17965
8 17656 17657 17662 17661 17961 17962 17967 17966
8 17657 17658 17663 17662 17962 17963 17968 17967
8 17658 10991 10990 17663 17963 10930 10929 17968
8 5128 17659 13019 142 5067 17964 13014 141
8 17659 17660 13020 13019 17964 17965 13015 13014
8 17660 17661 13021 13020 17965 17966 13016 13015
8 17661 17662 13022 13021 17966 17967 13017 13016
8 17662 17663 13023 13022 17967 17968 13018 13017
8 17663 10990 6153 13023 17968 10929 6154 13018
8 232 11924 17664 5007 233 11929 17969 4946
8 11924 11925 17665 17664 11929 11930 17970 17969
8 11925 11926 17666 17665 11930 11931 17971 17970
8 11926 11927 17667 17666 11931 11932 17972 17971
8 11927 11928 17668 17667 11932 11933 17973 17972
8 11928 6063 10989 17668 11933 6062 10928 17973
8 5007 17664 17669 5008 4946 17969 17974 4947
8 17664 17665 17670 17669 17969 17970 17975 17974
8 17665 17666 17671 17670 17970 17971 17976 17975
8 17666 17667 17672 17671 17971 17972 17977 17976
8 17667 17668 17673 17672 17972 17973 17978 17977
8 17668 10989 10988 17673 17973 10928 10927 17978
8 5008 17669 17674 5009 4947 17974 17979 4948
8 17669 17670 17675 17674 17974 17975 17980 17979
8 17670 17671 17676 17675 17975 17976 17981 17980
8 17671 17672 17677 17676 17976 17977 17982 17981
8 17672 17673 17678 17677 17977 17978 17983 17982
8 17673 10988 10987 17678 17978 10927 10926 17983
8 5009 17674 17679 5010 4948 17979 17984 4949
8 17674 17675 17680 17679 17979 17980 17985 17984
8 17675 17676 17681 17680 17980 17981 17986 17985
8 17676 17677 17682 17681 17981 17982 17987 17986
8 17677 17678 17683 17682 17982 17983 17988 17987
8 17678 10987 10986 17683 17983 10926 10925 17988
8 5010 17679 17684 5011 4949 17984 17989 4950
8 17679 17680 17685 17684 17984 17985 17990 17989
8 17680 17681 17686 17685 17985 17986 17991 17990
8 17681 17682 17687 17686 17986 17987 17992 17991
8 17682 17683 17688 17687 17987 17988 17993 17992
8 17683 10986 10985 17688 17988 10925 10924 17993
8 5011 17684 17689 5012 4950 17989 17994 4951
8 17684 17685 17690 17689 17989 17990 17995 17994
8 17685 17686 17691 17690 17990 17991 17996 17995
8 17686 17687 17692 17691 17991 17992 17997 17996
8 17687 17688 17693 17692 17992 17993 17998 17997
8 17688 10985 10984 17693 17993 10924 10923 17998
8 5012 17689 17694 5013 4951 17994 17999 4952
8 17689 17690 17695 17694 17994 17995 18000 17999
8 17690 17691 17696 17695 17995 17996 18001 18000
8 17691 17692 17697 17696 17996 17997 18002 18001
8 17692 17693 17698 17697 17997 17998 18003 18002
8 17693 10984 10983 17698 17998 10923 10922 18003
8 5013 17694 17699 5014 4952 17999 18004 4953
8 17694 17695 17700 17699 17999 18000 18005 18004
8 17695 17696 17701 17700 18000 18001 18006 18005
8 17696 17697 17702 17701 18001 18002 18007 18006
8 17697 17698 17703 17702 18002 18003 18008 18007
8 17698 10983 10982 17703 18003 10922 10921 18008
8 5014 17699 17704 5015 4953 18004 18009 4954
8 17699 17700 17705 17704 18004 18005 18010 18009
8 17700 17701 17706 17705 18005 18006 18011 18010
8 17701 17702 17707 17706 18006 18007 18012 18011
8 17702 17703 17708 17707 18007 18008 18013 18012
8 17703 10982 10981 17708 18008 10921 10920 18013
8 5015 17704 17709 5016 4954 18009 18014 4955
8 17704 17705 17710 17709 18009 18010 18015 18014
8 17705 17706 17711 17710 18010 18011 18016 18015
8 17706 17707 17712 17711 18011 18012 18017 18016
8 17707 17708 17713 17712 18012 18013 18018 18017
8 17708 10981 10980 17713 18013 10920 10919 18018
8 5016 17709 17714 5017 4955 18014 18019 4956
8 17709 17710 17715 17714 18014 18015 18020 18019
8 17710 17711 17716 17715 18015 18016 18021 18020
8 17711 17712 17717 17716 18016 18017 18022 18021
8 17712 17713 17718 17717 18017 18018 18023 18022
8 17713 10980 10979 17718 18018 10919 10918 18023
8 5017 17714 17719 5018 4956 18019 18024 4957
8 17714 17715 17720 17719 18019 18020 18025 18024
8 17715 17716 17721 17720 18020 18021 18026 18025
8 17716 17717 17722 17721 18021 18022 18027 18026
8 17717 17718 17723 17722 18022 18023 18028 18027
8 17718 10979 10978 17723 18023 10918 10917 18028
8 5018 17719 17724 5019 4957 18024 18029 4958
8 17719 17720 17725 17724 18024 18025 18030 18029
8 17720 17721 17726 17725 18025 18026 18031 18030
8 17721 17722 17727 17726 18026 18027 18032 18031
8 17722 17723 17728 17727 18027 18028 18033 18032
8 17723 10978 10977 17728 18028 10917 10916 18033
8 5019 17724 17729 5020 4958 18029 18034 4959
8 17724 17725 17730 17729 18029 18030 18035 18034
8 17725 17726 17731 17730 18030 18031 18036 18035
8 17726 17727 17732 17731 18031 18032 18037 18036
8 17727 17728 17733 17732 18032 18033 18038 18037
8 17728 10977 10976 17733 18033 10916 10915 18038
8 5020 17729 17734 5021 4959 18034 18039 4960
8 17729 17730 17735 17734 18034 18035 18040 18039
8 17730 17731 17736 17735 18035 18036 18041 18040
8 17731 17732 17737 17736 18036 18037 18042 18041
8 17732 17733 17738 17737 18037 18038 18043 18042
8 17733 10976 10975 17738 18038 10915 10914 18043
8 5021 17734 17739 5022 4960 18039 18044 4961
8 17734 17735 17740 17739 18039 18040 18045 18044
8 17735 17736 17741 17740 18040 18041 18046 18045
8 17736 17737 17742 17741 18041 18042 18047 18046
8 17737 17738 17743 17742 18042 18043 18048 18047
8 17738 10975 10974 17743 18043 10914 10913 18048
8 5022 17739 17744 5023 4961 18044 18049 4962
8 17739 17740 17745 17744 18044 18045 18050 18049
8 17740 17741 17746 17745 18045 18046 18051 18050
8 17741 17742 17747 17746 18046 18047 18052 18051
8 17742 17743 17748 17747 18047 18048 18053 18052
8 17743 10974 10973 17748 18048 10913 10912 18053
8 5023 17744 17749 5024 4962 18049 18054 4963
8 17744 17745 17750 17749 18049 18050 18055 18054
8 17745 17746 17751 17750 18050 18051 18056 18055
8 17746 17747 17752 17751 18051 18052 18057 18056
8 17747 17748 17753 17752 18052 18053 18058 18057
8 17748 10973 10972 17753 18053 10912 10911 18058
8 5024 17749 17754 5025 4963 18054 18059 4964
8 17749 17750 17755 17754 18054 18055 18060 18059
8 17750 17751 17756 17755 18055 18056 18061 18060
8 17751 17752 17757 17756 18056 18057 18062 18061
8 17752 17753 17758 17757 18057 18058 18063 18062
8 17753 10972 10971 17758 18058 10911 10910 18063
8 5025 17754 17759 5026 4964 18059 18064 4965
8 17754 17755 17760 17759 18059 18060 18065 18064
8 17755 17756 17761 17760 18060 18061 18066 18065
8 17756 17757 17762 17761 18061 18062 18067 18066
8 17757 17758 17763 17762 18062 18063 18068 18067
8 17758 10971 10970 17763 18063 10910 10909 18068
8 5026 17759 17764 5027 4965 18064 18069 4966
8 17759 17760 17765 17764 18064 18065 18070 18069
8 17760 17761 17766 17765 18065 18066 18071 18070
8 17761 17762 17767 17766 18066 18067 18072 18071
8 17762 17763 17768 17767 18067 18068 18073 18072
8 17763 10970 10969 17768 18068 10909 10908 18073
8 17764 17765 17770 17769 18069 18070 18075 18074
8 17765 17766 17771 17770 18070 18071 18076 18075
8 17766 17767 17772 17771 18071 18072 18077 18076
8 17767 17768 17773 17772 18072 18073 18078 18077
8 17768 10969 10968 17773 18073 10908 10907 18078
8 17769 17770 17775 17774 18074 18075 18080 18079
8 17770 17771 17776 17775 18075 18076 18081 18080
8 17771 17772 17777 17776 18076 18077 18082 18081
8 17772 17773 17778 17777 18077 18078 18083 18082
8 17773 10968 10967 17778 18078 10907 10906 18083
8 17774 17775 17780 17779 18079 18080 18085 18084
8 17775 17776 17781 17780 18080 18081 18086 18085
8 17776 17777 17782 17781 18081 18082 18087 18086
8 17777 17778 17783 17782 18082 18083 18088 18087
8 17778 10967 10966 17783 18083 10906 10905 18088
8 17779 17780 17785 17784 18084 18085 18090 18089
8 17780 17781 17786 17785 18085 18086 18091 18090
8 17781 17782 17787 17786 18086 18087 18092 18091
8 17782 17783 17788 17787 18087 18088 18093 18092
8 17783 10966 10965 17788 18088 10905 10904 18093
8 17784 17785 17790 17789 18089 18090 18095 18094
8 17785 17786 17791 17790 18090 18091 18096 18095
8 17786 17787 17792 17791 18091 18092 18097 18096
8 17787 17788 17793 17792 18092 18093 18098 18097
8 17788 10965 10964 17793 18093 10904 10903 18098
8 5032 17789 17794 5033 4971 18094 18099 4972
8 17789 17790 17795 17794 18094 18095 18100 18099
8 17790 17791 17796 17795 18095 18096 18101 18100
8 17791 17792 17797 17796 18096 18097 18102 18101
8 17792 17793 17798 17797 18097 18098 18103 18102
8 17793 10964 10963 17798 18098 10903 10902 18103
8 5033 17794 17799 5034 4972 18099 18104 4973
8 17794 17795 17800 17799 18099 18100 18105 18104
8 17795 17796 17801 17800 18100 18101 18106 18105
8 17796 17797 17802 17801 18101 18102 18107 18106
8 17797 17798 17803 17802 18102 18103 18108 18107
8 17798 10963 10962 17803 18103 10902 10901 18108
8 5034 17799 17804 5035 4973 18104 18109 4974
8 17799 17800 17805 17804 18104 18105 18110 18109
8 17800 17801 17806 17805 18105 18106 18111 18110
8 17801 17802 17807 17806 18106 18107 18112 18111
8 17802 17803 17808 17807 18107 18108 18113 18112
8 17803 10962 10961 17808 18108 10901 10900 18113
8 5035 17804 17809 5036 4974 18109 18114 4975
8 17804 17805 17810 17809 18109 18110 18115 18114
8 17805 17806 17811 17810 18110 18111 18116 18115
8 17806 17807 17812 17811 18111 18112 18117 18116
8 17807 17808 17813 17812 18112 18113 18118 18117
8 17808 10961 10960 17813 18113 10900 10899 18118
8 5036 17809 17814 5037 4975 18114 18119 4976
8 17809 17810 17815 17814 18114 18115 18120 18119
8 17810 17811 17816 17815 18115 18116 18121 18120
8 17811 17812 17817 17816 18116 18117 18122 18121
8 17812 17813 17818 17817 18117 18118 18123 18122
8 17813 10960 10959 17818 18118 10899 10898 18123
8 5037 17814 17819 5038 4976 18119 18124 4977
8 17814 17815 17820 17819 18119 18120 18125 18124
8 17815 17816 17821 17820 18120 18121 18126 18125
8 17816 17817 17822 17821 18121 18122 18127 18126
8 17817 17818 17823 17822 18122 18123 18128 18127
8 17818 10959 10958 17823 18123 10898 10897 18128
8 5038 17819 17824 5039 4977 18124 18129 4978
8 17819 17820 17825 17824 18124 18125 18130 18129
8 17820 17821 17826 17825 18125 18126 18131 18130
8 17821 17822 17827 17826 18126 18127 18132 18131
8 17822 17823 17828 17827 18127 18128 18133 18132
8 17823 10958 10957 17828 18128 10897 10896 18133
8 17824 17825 17830 17829 18129 18130 18135 18134
8 17825 17826 17831 17830 18130 18131 18136 18135
8 17826 17827 17832 17831 18131 18132 18137 18136
8 17827 17828 17833 17832 18132 18133 18138 18137
8 17828 10957 10956 17833 18133 10896 10895 18138
8 17829 17830 17835 17834 18134 18135 18140 18139
8 17830 17831 17836 17835 18135 18136 18141 18140
8 17831 17832 17837 17836 18136 18137 18142 18141
8 17832 17833 17838 17837 18137 18138 18143 18142
8 17833 10956 10955 17838 18138 10895 10894 18143
8 17834 17835 17840 17839 18139 18140 18145 18144
8 17835 17836 17841 17840 18140 18141 18146 18145
8 17836 17837 17842 17841 18141 18142 18147 18146
8 17837 17838 17843 17842 18142 18143 18148 18147
8 17838 10955 10954 17843 18143 10894 10893 18148
8 17839 17840 17845 17844 18144 18145 18150 18149
8 17840 17841 17846 17845 18145 18146 18151 18150
8 17841 17842 17847 17846 18146 18147 18152 18151
8 17842 17843 17848 17847 18147 18148 18153 18152
8 17843 10954 10953 17848 18148 10893 10892 18153
8 17844 17845 17850 17849 18149 18150 18155 18154
8 17845 17846 17851 17850 18150 18151 18156 18155
8 17846 17847 17852 17851 18151 18152 18157 18156
8 17847 17848 17853 17852 18152 18153 18158 18157
8 17848 10953 10952 17853 18153 10892 10891 18158
8 5044 17849 17854 5045 4983 18154 18159 4984
8 17849 17850 17855 17854 18154 18155 18160 18159
8 17850 17851 17856 17855 18155 18156 18161 18160
8 17851 17852 17857 17856 18156 18157 18162 18161
8 17852 17853 17858 17857 18157 18158 18163 18162
8 17853 10952 10951 17858 18158 10891 10890 18163
8 5045 17854 17859 5046 4984 18159 18164 4985
8 17854 17855 17860 17859 18159 18160 18165 18164
8 17855 17856 17861 17860 18160 18161 18166 18165
8 17856 17857 17862 17861 18161 18162 18167 18166
8 17857 17858 17863 17862 18162 18163 18168 18167
8 17858 10951 10950 17863 18163 10890 10889 18168
8 5046 17859 17864 5047 4985 18164 18169 4986
8 17859 17860 17865 17864 18164 18165 18170 18169
8 17860 17861 17866 17865 18165 18166 18171 18170
8 17861 17862 17867 17866 18166 18167 18172 18171
8 17862 17863 17868 17867 18167 18168 18173 18172
8 17863 10950 10949 17868 18168 10889 10888 18173
8 5047 17864 17869 5048 4986 18169 18174 4987
8 17864 17865 17870 17869 18169 18170 18175 18174
8 17865 17866 17871 17870 18170 18171 18176 18175
8 17866 17867 17872 17871 18171 18172 18177 18176
8 17867 17868 17873 17872 18172 18173 18178 18177
8 17868 10949 10948 17873 18173 10888 10887 18178
8 5048 17869 17874 5049 4987 18174 18179 4988
8 17869 17870 17875 17874 18174 18175 18180 18179
8 17870 17871 17876 17875 18175 18176 18181 18180
8 17871 17872 17877 17876 18176 18177 18182 18181
8 17872 17873 17878 17877 18177 18178 18183 18182
8 17873 10948 10947 17878 18178 10887 10886 18183
8 5049 17874 17879 5050 4988 18179 18184 4989
8 17874 17875 17880 17879 18179 18180 18185 18184
8 17875 17876 17881 17880 18180 18181 18186 18185
8 17876 17877 17882 17881 18181 18182 18187 18186
8 17877 17878 17883 17882 18182 18183 18188 18187
8 17878 10947 10946 17883 18183 10886 10885 18188
8 5050 17879 17884 5051 4989 18184 18189 4990
8 17879 17880 17885 17884 18184 18185 18190 18189
8 17880 17881 17886 17885 18185 18186 18191 18190
8 17881 17882 17887 17886 18186 18187 18192 18191
8 17882 17883 17888 17887 18187 18188 18193 18192
8 17883 10946 10945 17888 18188 10885 10884 18193
8 5051 17884 17889 5052 4990 18189 18194 4991
8 17884 17885 17890 17889 18189 18190 18195 18194
8 17885 17886 17891 17890 18190 18191 18196 18195
8 17886 17887 17892 17891 18191 18192 18197 18196
8 17887 17888 17893 17892 18192 18193 18198 18197
8 17888 10945 10944 17893 18193 10884 10883 18198
8 17889 17890 17895 17894 18194 18195 18200 18199
8 17890 17891 17896 17895 18195 18196 18201 18200
8 17891 17892 17897 17896 18196 18197 18202 18201
8 17892 17893 17898 17897 18197 18198 18203 18202
8 17893 10944 10943 17898 18198 10883 10882 18203
8 17894 17895 17900 17899 18199 18200 18205 18204
8 17895 17896 17901 17900 18200 18201 18206 18205
8 17896 17897 17902 17901 18201 18202 18207 18206
8 17897 17898 17903 17902 18202 18203 18208 18207
8 17898 10943 10942 17903 18203 10882 10881 18208
8 17899 17900 17905 17904 18204 18205 18210 18209
8 17900 17901 17906 17905 18205 18206 18211 18210
8 17901 17902 17907 17906 18206 18207 18212 18211
8 17902 17903 17908 17907 18207 18208 18213 18212
8 17903 10942 10941 17908 18208 10881 10880 18213
8 17904 17905 17910 17909 18209 18210 18215 18214
8 17905 17906 17911 17910 18210 18211 18216 18215
8 17906 17907 17912 17911 18211 18212 18217 18216
8 17907 17908 17913 17912 18212 18213 18218 18217
8 17908 10941 10940 17913 18213 10880 10879 18218
8 17909 17910 17915 17914 18214 18215 18220 18219
8 17910 17911 17916 17915 18215 18216 18221 18220
8 17911 17912 17917 17916 18216 18217 18222 18221
8 17912 17913 17918 17917 18217 18218 18223 18222
8 17913 10940 10939 17918 18218 10879 10878 18223
8 5057 17914 17919 5058 4996 18219 18224 4997
8 17914 17915 17920 17919 18219 18220 18225 18224
8 17915 17916 17921 17920 18220 18221 18226 18225
8 17916 17917 17922 17921 18221 18222 18227 18226
8 17917 17918 17923 17922 18222 18223 18228 18227
8 17918 10939 10938 17923 18223 10878 10877 18228
8 5058 17919 17924 5059 4997 18224 18229 4998
8 17919 17920 17925 17924 18224 18225 18230 18229
8 17920 17921 17926 17925 18225 18226 18231 18230
8 17921 17922 17927 17926 18226 18227 18232 18231
8 17922 17923 17928 17927 18227 18228 18233 18232
8 17923 10938 10937 17928 18228 10877 10876 18233
8 5059 17924 17929 5060 4998 18229 18234 4999
8 17924 17925 17930 17929 18229 18230 18235 18234
8 17925 17926 17931 17930 18230 18231 18236 18235
8 17926 17927 17932 17931 18231 18232 18237 18236
8 17927 17928 17933 17932 18232 18233 18238 18237
8 17928 10937 10936 17933 18233 10876 10875 18238
8 5060 17929 17934 5061 4999 18234 18239 5000
8 17929 17930 17935 17934 18234 18235 18240 18239
8 17930 17931 17936 17935 18235 18236 18241 18240
8 17931 17932 17937 17936 18236 18237 18242 18241
8 17932 17933 17938 17937 18237 18238 18243 18242
8 17933 10936 10935 17938 18238 10875 10874 18243
8 5061 17934 17939 5062 5000 18239 18244 5001
8 17934 17935 17940 17939 18239 18240 18245 18244
8 17935 17936 17941 17940 18240 18241 18246 18245
8 17936 17937 17942 17941 18241 18242 18247 18246
8 17937 17938 17943 17942 18242 18243 18248 18247
8 17938 10935 10934 17943 18243 10874 10873 18248
8 5062 17939 17944 5063 5001 18244 18249 5002
8 17939 17940 17945 17944 18244 18245 18250 18249
8 17940 17941 17946 17945 18245 18246 18251 18250
8 17941 17942 17947 17946 18246 18247 18252 18251
8 17942 17943 17948 17947 18247 18248 18253 18252
8 17943 10934 10933 17948 18248 10873 10872 18253
8 5063 17944 17949 5064 5002 18249 18254 5003
8 17944 17945 17950 17949 18249 18250 18255 18254
8 17945 17946 17951 17950 18250 18251 18256 18255
8 17946 17947 17952 17951 18251 18252 18257 18256
8 17947 17948 17953 17952 18252 18253 18258 18257
8 17948 10933 10932 17953 18253 10872 10871 18258
8 5064 17949 17954 5065 5003 18254 18259 5004
8 17949 17950 17955 17954 18254 18255 18260 18259
8 17950 17951 17956 17955 18255 18256 18261 18260
8 17951 17952 17957 17956 18256 18257 18262 18261
8 17952 17953 17958 17957 18257 18258 18263 18262
8 17953 10932 10931 17958 18258 10871 10870 18263
8 5065 17954 17959 5066 5004 18259 18264 5005
8 17954 17955 17960 17959 18259 18260 18265 18264
8 17955 17956 17961 17960 18260 18261 18266 18265
8 17956 17957 17962 17961 18261 18262 18267 18266
8 17957 17958 17963 17962 18262 18263 18268 18267
8 17958 10931 10930 17963 18263 10870 10869 18268
8 5066 17959 17964 5067 5005 18264 18269 5006
8 17959 17960 17965 17964 18264 18265 18270 18269
8 17960 17961 17966 17965 18265 18266 18271 18270
8 17961 17962 17967 17966 18266 18267 18272 18271
8 17962 17963 17968 17967 18267 18268 18273 18272
8 17963 10930 10929 17968 18268 10869 10868 18273
8 5067 17964 13014 141 5006 18269 13009 140
8 17964 17965 13015 13014 18269 18270 13010 13009
8 17965 17966 13016 13015 18270 18271 13011 13010
8 17966 17967 13017 13016 18271 18272 13012 13011
8 17967 17968 13018 13017 18272 18273 13013 13012
8 17968 10929 6154 13018 18273 10868 6155 13013
8 233 11929 17969 4946 234 11934 18274 4885
8 11929 11930 17970 17969 11934 11935 18275 18274
8 11930 11931 17971 17970 11935 11936 18276 18275
8 11931 11932 17972 17971 11936 11937 18277 18276
8 11932 11933 17973 17972 11937 11938 18278 18277
8 11933 6062 10928 17973 11938 6061 10867 18278
8 4946 17969 17974 4947 4885 18274 18279 4886
8 17969 17970 17975 17974 18274 18275 18280 18279
8 17970 17971 17976 17975 18275 18276 18281 18280
8 17971 17972 17977 17976 18276 18277 18282 18281
8 17972 17973 17978 17977 18277 18278 18283 18282
8 17973 10928 10927 17978 18278 10867 10866 18283
8 4947 17974 17979 4948 4886 18279 18284 4887
8 17974 17975 17980 17979 18279 18280 18285 18284
8 17975 17976 17981 17980 18280 18281 18286 18285
8 17976 17977 17982 17981 18281 18282 18287 18286
8 17977 17978 17983 17982 18282 18283 18288 18287
8 17978 10927 10926 17983 18283 10866 10865 18288
8 4948 17979 17984 4949 4887 18284 18289 4888
8 17979 17980 17985 17984 18284 18285 18290 18289
8 17980 17981 17986 17985 18285 18286 18291 18290
8 17981 17982 17987 17986 18286 18287 18292 18291
8 17982 17983 17988 17987 18287 18288 18293 18292
8 17983 10926 10925 17988 18288 10865 10864 18293
8 4949 17984 17989 4950 4888 18289 18294 4889
8 17984 17985 17990 17989 18289 18290 18295 18294
8 17985 17986 17991 17990 18290 18291 18296 18295
8 17986 17987 17992 17991 18291 18292 18297 18296
8 17987 17988 17993 17992 18292 18293 18298 18297
8 17988 10925 10924 17993 18293 10864 10863 18298
8 4950 17989 17994 4951 4889 18294 18299 4890
8 17989 17990 17995 17994 18294 18295 18300 18299
8 17990 17991 17996 17995 18295 18296 18301 18300
8 17991 17992 17997 17996 18296 18297 18302 18301
8 17992 17993 17998 17997 18297 18298 18303 18302
8 17993 10924 10923 17998 18298 10863 10862 18303
8 4951 17994 17999 4952 4890 18299 18304 4891
8 17994 17995 18000 17999 18299 18300 18305 18304
8 17995 17996 18001 18000 18300 18301 18306 18305
8 17996 17997 18002 18001 18301 18302 18307 18306
8 17997 17998 18003 18002 18302 18303 18308 18307
8 17998 10923 10922 18003 18303 10862 10861 18308
8 4952 17999 18004 4953 4891 18304 18309 4892
8 17999 18000 18005 18004 18304 18305 18310 18309
8 18000 18001 18006 18005 18305 18306 18311 18310
8 18001 18002 18007 18006 18306 18307 18312 18311
8 18002 18003 18008 18007 18307 18308 18313 18312
8 18003 10922 10921 18008 18308 10861 10860 18313
8 4953 18004 18009 4954 4892 18309 18314 4893
8 18004 18005 18010 18009 18309 18310 18315 18314
8 18005 18006 18011 18010 18310 18311 18316 18315
8 18006 18007 18012 18011 18311 18312 18317 18316
8 18007 18008 18013 18012 18312 18313 18318 18317
8 18008 10921 10920 18013 18313 10860 10859 18318
8 4954 18009 18014 4955 4893 18314 18319 4894
8 18009 18010 18015 18014 18314 18315 18320 18319
8 18010 18011 18016 18015 18315 18316 18321 18320
8 18011 18012 18017 18016 18316 18317 18322 18321
8 18012 18013 18018 18017 18317 18318 18323 18322
8 18013 10920 10919 18018 18318 10859 10858 18323
8 4955 18014 18019 4956 4894 18319 18324 4895
8 18014 18015 18020 18019 18319 18320 18325 18324
8 18015 18016 18021 18020 18320 18321 18326 18325
8 18016 18017 18022 18021 18321 18322 18327 18326
8 18017 18018 18023 18022 18322 18323 18328 18327
8 18018 10919 10918 18023 18323 10858 10857 18328
8 4956 18019 18024 4957 4895 18324 18329 4896
8 18019 18020 18025 18024 18324 18325 18330 18329
8 18020 18021 18026 18025 18325 18326 18331 18330
8 18021 18022 18027 18026 18326 18327 18332 18331
8 18022 18023 18028 18027 18327 18328 18333 18332
8 18023 10918 10917 18028 18328 10857 10856 18333
8 4957 18024 18029 4958 4896 18329 18334 4897
8 18024 18025 18030 18029 18329 18330 18335 18334
8 18025 18026 18031 18030 18330 18331 18336 18335
8 18026 18027 18032 18031 18331 18332 18337 18336
8 18027 18028 18033 18032 18332 18333 18338 18337
8 18028 10917 10916 18033 18333 10856 10855 18338
8 4958 18029 18034 4959 4897 18334 18339 4898
8 18029 18030 18035 18034 18334 18335 18340 18339
8 18030 18031 18036 18035 18335 18336 18341 18340
8 18031 18032 18037 18036 18336 18337 18342 18341
8 18032 18033 18038 18037 18337 18338 18343 18342
8 18033 10916 10915 18038 18338 10855 10854 18343
8 4959 18034 18039 4960 4898 18339 18344 4899
8 18034 18035 18040 18039 18339 18340 18345 18344
8 18035 18036 18041 18040 18340 18341 18346 18345
8 18036 18037 18042 18041 18341 18342 18347 18346
8 18037 18038 18043 18042 18342 18343 18348 18347
8 18038 10915 10914 18043 18343 10854 10853 18348
8 4960 18039 18044 4961 4899 18344 18349 4900
8 18039 18040 18045 18044 18344 18345 18350 18349
8 18040 18041 18046 18045 18345 18346 18351 18350
8 18041 18042 18047 18046 18346 18347 18352 18351
8 18042 18043 18048 18047 18347 18348 18353 18352
8 18043 10914 10913 18048 18348 10853 10852 18353
8 4961 18044 18049 4962 4900 18349 18354 4901
8 18044 18045 18050 18049 18349 18350 18355 18354
8 18045 18046 18051 18050 18350 18351 18356 18355
8 18046 18047 18052 18051 18351 18352 18357 18356
8 18047 18048 18053 18052 18352 18353 18358 18357
8 18048 10913 10912 18053 18353 10852 10851 18358
8 4962 18049 18054 4963 4901 18354 18359 4902
8 18049 18050 18055 18054 18354 18355 18360 18359
8 18050 18051 18056 18055 18355 18356 18361 18360
8 18051 18052 18057 18056 18356 18357 18362 18361
8 18052 18053 18058 18057 18357 18358 18363 18362
8 18053 10912 10911 18058 18358 10851 10850 18363
8 4963 18054 18059 4964 4902 18359 18364 4903
8 18054 18055 18060 18059 18359 18360 18365 18364
8 18055 18056 18061 18060 18360 18361 18366 18365
8 18056 18057 18062 18061 18361 18362 18367 18366
8 18057 18058 18063 18062 18362 18363 18368 18367
8 18058 10911 10910 18063 18363 10850 10849 18368
8 4964 18059 18064 4965 4903 18364 18369 4904
8 18059 18060 18065 18064 18364 18365 18370 18369
8 18060 18061 18066 18065 18365 18366 18371 18370
8 18061 18062 18067 18066 18366 18367 18372 18371
8 18062 18063 18068 18067 18367 18368 18373 18372
8 18063 10910 10909 18068 18368 10849 10848 18373
8 4965 18064 18069 4966 4904 18369 18374 4905
8 18064 18065 18070 18069 18369 18370 18375 18374
8 18065 18066 18071 18070 18370 18371 18376 18375
8 18066 18067 18072 18071 18371 18372 18377 18376
8 18067 18068 18073 18072 18372 18373 18378 18377
8 18068 10909 10908 18073 18373 10848 10847 18378
8 18069 18070 18075 18074 18374 18375 18380 18379
8 18070 18071 18076 18075 18375 18376 18381 18380
8 18071 18072 18077 18076 18376 18377 18382 18381
8 18072 18073 18078 18077 18377 18378 18383 18382
8 18073 10908 10907 18078 18378 10847 10846 18383
8 18074 18075 18080 18079 18379 18380 18385 18384
8 18075 18076 18081 18080 18380 18381 18386 18385
8 18076 18077 18082 18081 18381 18382 18387 18386
8 18077 18078 18083 18082 18382 18383 18388 18387
8 18078 10907 10906 18083 18383 10846 10845 18388
8 18079 18080 18085 18084 18384 18385 18390 18389
8 18080 18081 18086 18085 18385 18386 18391 18390
8 18081 18082 18087 18086 18386 18387 18392 18391
8 18082 18083 18088 18087 18387 18388 18393 18392
8 18083 10906 10905 18088 18388 10845 10844 18393
8 18084 18085 18090 18089 18389 18390 18395 18394
8 18085 18086 18091 18090 18390 18391 18396 18395
8 18086 18087 18092 18091 18391 18392 18397 18396
8 18087 18088 18093 18092 18392 18393 18398 18397
8 18088 10905 10904 18093 18393 10844 10843 18398
8 18089 18090 18095 18094 18394 18395 18400 18399
8 18090 18091 18096 18095 18395 18396 18401 18400
8 18091 18092 18097 18096 18396 18397 18402 18401
8 18092 18093 18098 18097 18397 18398 18403 18402
8 18093 10904 10903 18098 18398 10843 10842 18403
8 4971 18094 18099 4972 4910 18399 18404 4911
8 18094 18095 18100 18099 18399 18400 18405 18404
8 18095 18096 18101 18100 18400 18401 18406 18405
8 18096 18097 18102 18101 18401 18402 18407 18406
8 18097 18098 18103 18102 18402 18403 18408 18407
8 18098 10903 10902 18103 18403 10842 10841 18408
8 4972 18099 18104 4973 4911 18404 18409 4912
8 18099 18100 18105 18104 18404 18405 18410 18409
8 18100 18101 18106 18105 18405 18406 18411 18410
8 18101 18102 18107 18106 18406 18407 18412 18411
8 18102 18103 18108 18107 18407 18408 18413 18412
8 18103 10902 10901 18108 18408 10841 10840 18413
8 4973 18104 18109 4974 4912 18409 18414 4913
8 18104 18105 18110 18109 18409 18410 18415 18414
8 18105 18106 18111 18110 18410 18411 18416 18415
8 18106 18107 18112 18111 18411 18412 18417 18416
8 18107 18108 18113 18112 18412 18413 18418 18417
8 18108 10901 10900 18113 18413 10840 10839 18418
8 4974 18109 18114 4975 4913 18414 18419 4914
8 18109 18110 18115 18114 18414 18415 18420 18419
8 18110 18111 18116 18115 18415 18416 18421 18420
8 18111 18112 18117 18116 18416 18417 18422 18421
8 18112 18113 18118 18117 18417 18418 18423 18422
8 18113 10900 10899 18118 18418 10839 10838 18423
8 4975 18114 18119 4976 4914 18419 18424 4915
8 18114 18115 18120 18119 18419 18420 18425 18424
8 18115 18116 18121 18120 18420 18421 18426 18425
8 18116 18117 18122 18121 18421 18422 18427 18426
8 18117 18118 18123 18122 18422 18423 18428 18427
8 18118 10899 10898 18123 18423 10838 10837 18428
8 4976 18119 18124 4977 4915 18424 18429 4916
8 18119 18120 18125 18124 18424 18425 18430 18429
8 18120 18121 18126 18125 18425 18426 18431 18430
8 18121 18122 18127 18126 18426 18427 18432 18431
8 18122 18123 18128 18127 18427 18428 18433 18432
8 18123 10898 10897 18128 18428 10837 10836 18433
8 4977 18124 18129 4978 4916 18429 18434 4917
8 18124 18125 18130 18129 18429 18430 18435 18434
8 18125 18126 18131 18130 18430 18431 18436 18435
8 18126 18127 18132 18131 18431 18432 18437 18436
8 18127 18128 18133 18132 18432 18433 18438 18437
8 18128 10897 10896 18133 18433 10836 10835 18438
8 18129 18130 18135 18134 18434 18435 18440 18439
8 18130 18131 18136 18135 18435 18436 18441 18440
8 18131 18132 18137 18136 18436 18437 18442 18441
8 18132 18133 18138 18137 18437 18438 18443 18442
8 18133 10896 10895 18138 18438 10835 10834 18443
8 18134 18135 18140 18139 18439 18440 18445 18444
8 18135 18136 18141 18140 18440 18441 18446 18445
8 18136 18137 18142 18141 18441 18442 18447 18446
8 18137 18138 18143 18142 18442 18443 18448 18447
8 18138 10895 10894 18143 18443 10834 10833 18448
8 18139 18140 18145 18144 18444 18445 18450 18449
8 18140 18141 18146 18145 18445 18446 18451 18450
8 18141 18142 18147 18146 18446 18447 18452 18451
8 18142 18143 18148 18147 18447 18448 18453 18452
8 18143 10894 10893 18148 18448 10833 10832 18453
8 18144 18145 18150 18149 18449 18450 18455 18454
8 18145 18146 18151 18150 18450 18451 18456 18455
8 18146 18147 18152 18151 18451 18452 18457 18456
8 18147 18148 18153 18152 18452 18453 18458 18457
8 18148 10893 10892 18153 18453 10832 10831 18458
8 18149 18150 18155 18154 18454 18455 18460 18459
8 18150 18151 18156 18155 18455 18456 18461 18460
8 18151 18152 18157 18156 18456 18457 18462 18461
8 18152 18153 18158 18157 18457 18458 18463 18462
8 18153 10892 10891 18158 18458 10831 10830 18463
8 4983 18154 18159 4984 4922 18459 18464 4923
8 18154 18155 18160 18159 18459 18460 18465 18464
8 18155 18156 18161 18160 18460 18461 18466 18465
8 18156 18157 18162 18161 18461 18462 18467 18466
8 18157 18158 18163 18162 18462 18463 18468 18467
8 18158 10891 10890 18163 18463 10830 10829 18468
8 4984 18159 18164 4985 4923 18464 18469 4924
8 18159 18160 18165 18164 18464 18465 18470 18469
8 18160 18161 18166 18165 18465 18466 18471 18470
8 18161 18162 18167 18166 18466 18467 18472 18471
8 18162 18163 18168 18167 18467 18468 18473 18472
8 18163 10890 10889 18168 18468 10829 10828 18473
8 4985 18164 18169 4986 4924 18469 18474 4925
8 18164 18165 18170 18169 18469 18470 18475 18474
8 18165 18166 18171 18170 18470 18471 18476 18475
8 18166 18167 18172 18171 18471 18472 18477 18476
8 18167 18168 18173 18172 18472 18473 18478 18477
8 18168 10889 10888 18173 18473 10828 10827 18478
8 4986 18169 18174 4987 4925 18474 18479 4926
8 18169 18170 18175 18174 18474 18475 18480 18479
8 18170 18171 18176 18175 18475 18476 18481 18480
8 18171 18172 18177 18176 18476 18477 18482 18481
8 18172 18173 18178 18177 18477 18478 18483 18482
8 18173 10888 10887 18178 18478 10827 10826 18483
8 4987 18174 18179 4988 4926 18479 18484 4927
8 18174 18175 18180 18179 18479 18480 18485 18484
8 18175 18176 18181 18180 18480 18481 18486 18485
8 18176 18177 18182 18181 18481 18482 18487 18486
8 18177 18178 18183 18182 18482 18483 18488 18487
8 18178 10887 10886 18183 18483 10826 10825 18488
8 4988 18179 18184 4989 4927 18484 18489 4928
8 18179 18180 18185 18184 18484 18485 18490 18489
8 18180 18181 18186 18185 18485 18486 18491 18490
8 18181 18182 18187 18186 18486 18487 18492 18491
8 18182 18183 18188 18187 18487 18488 18493 18492
8 18183 10886 10885 18188 18488 10825 10824 18493
8 4989 18184 18189 4990 4928 18489 18494 4929
8 18184 18185 18190 18189 18489 18490 18495 18494
8 18185 18186 18191 18190 18490 18491 18496 18495
8 18186 18187 18192 18191 18491 18492 18497 18496
8 18187 18188 18193 18192 18492 18493 18498 18497
8 18188 10885 10884 18193 18493 10824 10823 18498
8 4990 18189 18194 4991 4929 18494 18499 4930
8 18189 18190 18195 18194 18494 18495 18500 18499
8 18190 18191 18196 18195 18495 18496 18501 18500
8 18191 18192 18197 18196 18496 18497 18502 18501
8 18192 18193 18198 18197 18497 18498 18503 18502
8 18193 10884 10883 18198 18498 10823 10822 18503
8 18194 18195 18200 18199 18499 18500 18505 18504
8 18195 18196 18201 18200 18500 18501 18506 18505
8 18196 18197 18202 18201 18501 18502 18507 18506
8 18197 18198 18203 18202 18502 18503 18508 18507
8 18198 10883 10882 18203 18503 10822 10821 18508
8 18199 18200 18205 18204 18504 18505 18510 18509
8 18200 18201 18206 18205 18505 18506 18511 18510
8 18201 18202 18207 18206 18506 18507 18512 18511
8 18202 18203 18208 18207 18507 18508 18513 18512
8 18203 10882 10881 18208 18508 10821 10820 18513
8 18204 18205 18210 18209 18509 18510 18515 18514
8 18205 18206 18211 18210 18510 18511 18516 18515
8 18206 18207 18212 18211 18511 18512 18517 18516
8 18207 18208 18213 18212 18512 18513 18518 18517
8 18208 10881 10880 18213 18513 10820 10819 18518
8 18209 18210 18215 18214 18514 18515 18520 18519
8 18210 18211 18216 18215 18515 18516 18521 18520
8 18211 18212 18217 18216 18516 18517 18522 18521
8 18212 18213 18218 18217 18517 18518 18523 18522
8 18213 10880 10879 18218 18518 10819 10818 18523
8 18214 18215 18220 18219 18519 18520 18525 18524
8 18215 18216 18221 18220 18520 18521 18526 18525
8 18216 18217 18222 18221 18521 18522 18527 18526
8 18217 18218 18223 18222 18522 18523 18528 18527
8 18218 10879 10878 18223 18523 10818 10817 18528
8 4996 18219 18224 4997 4935 18524 18529 4936
8 18219 18220 18225 18224 18524 18525 18530 18529
8 18220 18221 18226 18225 18525 18526 18531 18530
8 18221 18222 18227 18226 18526 18527 18532 18531
8 18222 18223 18228 18227 18527 18528 18533 18532
8 18223 10878 10877 18228 18528 10817 10816 18533
8 4997 18224 18229 4998 4936 18529 18534 4937
8 18224 18225 18230 18229 18529 18530 18535 18534
8 18225 18226 18231 18230 18530 18531 18536 18535
8 18226 18227 18232 18231 18531 18532 18537 18536
8 18227 18228 18233 18232 18532 18533 18538 18537
8 18228 10877 10876 18233 18533 10816 10815 18538
8 4998 18229 18234 4999 4937 18534 18539 4938
8 18229 18230 18235 18234 18534 18535 18540 18539
8 18230 18231 18236 18235 18535 18536 18541 18540
8 18231 18232 18237 18236 18536 18537 18542 18541
8 18232 18233 18238 18237 18537 18538 18543 18542
8 18233 10876 10875 18238 18538 10815 10814 18543
8 4999 18234 18239 5000 4938 18539 18544 4939
8 18234 18235 18240 18239 18539 18540 18545 18544
8 18235 18236 18241 18240 18540 18541 18546 18545
8 18236 18237 18242 18241 18541 18542 18547 18546
8 18237 18238 18243 18242 18542 18543 18548 18547
8 18238 10875 10874 18243 18543 10814 10813 18548
8 5000 18239 18244 5001 4939 18544 18549 4940
8 18239 18240 18245 18244 18544 18545 18550 18549
8 18240 18241 18246 18245 18545 18546 18551 18550
8 18241 18242 18247 18246 18546 18547 18552 18551
8 18242 18243 18248 18247 18547 18548 18553 18552
8 18243 10874 10873 18248 18548 10813 10812 18553
8 5001 18244 18249 5002 4940 18549 18554 4941
8 18244 18245 18250 18249 18549 18550 18555 18554
8 18245 18246 18251 18250 18550 18551 18556 18555
8 18246 18247 18252 18251 18551 18552 18557 18556
8 18247 18248 18253 18252 18552 18553 18558 18557
8 18248 10873 10872 18253 18553 10812 10811 18558
8 5002 18249 18254 5003 4941 18554 18559 4942
8 18249 18250 18255 18254 18554 18555 18560 18559
8 18250 18251 18256 18255 18555 18556 18561 18560
8 18251 18252 18257 18256 18556 18557 18562 18561
8 18252 18253 18258 18257 18557 18558 18563 18562
8 18253 10872 10871 18258 18558 10811 10810 18563
8 5003 18254 18259 5004 4942 18559 18564 4943
8 18254 18255 18260 18259 18559 18560 18565 18564
8 18255 18256 18261 18260 18560 18561 18566 18565
8 18256 18257 18262 18261 18561 18562 18567 18566
8 18257 18258 18263 18262 18562 18563 18568 18567
8 18258 10871 10870 18263 18563 10810 10809 18568
8 5004 18259 18264 5005 4943 18564 18569 4944
8 18259 18260 18265 18264 18564 18565 18570 18569
8 18260 18261 18266 18265 18565 18566 18571 18570
8 18261 18262 18267 18266 18566 18567 18572 18571
8 18262 18263 18268 18267 18567 18568 18573 18572
8 18263 10870 10869 18268 18568 10809 10808 18573
8 5005 18264 18269 5006 4944 18569 18574 4945
8 18264 18265 18270 18269 18569 18570 18575 18574
8 18265 18266 18271 18270 18570 18571 18576 18575
8 18266 18267 18272 18271 18571 18572 18577 18576
8 18267 18268 18273 18272 18572 18573 18578 18577
8 18268 10869 10868 18273 18573 10808 10807 18578
8 5006 18269 13009 140 4945 18574 13004 139
8 18269 18270 13010 13009 18574 18575 13005 13004
8 18270 18271 13011 13010 18575 18576 13006 13005
8 18271 18272 13012 13011 18576 18577 13007 13006
8 18272 18273 13013 13012 18577 18578 13008 13007
8 18273 10868 6155 13013 18578 10807 6156 13008
8 234 11934 18274 4885 235 11939 18579 4824
8 11934 11935 18275 18274 11939 11940 18580 18579
8 11935 11936 18276 18275 11940 11941 18581 18580
8 11936 11937 18277 18276 11941 11942 18582 18581
8 11937 11938 18278 18277 11942 11943 18583 18582
8 11938 6061 10867 18278 11943 6060 10806 18583
8 4885 18274 18279 4886 4824 18579 18584 4825
8 18274 18275 18280 18279 18579 18580 18585 18584
8 18275 18276 18281 18280 18580 18581 18586 18585
8 18276 18277 18282 18281 18581 18582 18587 18586
8 18277 18278 18283 18282 18582 18583 18588 18587
8 18278 10867 10866 18283 18583 10806 10805 18588
8 4886 18279 18284 4887 4825 18584 18589 4826
8 18279 18280 18285 18284 18584 18585 18590 18589
8 18280 18281 18286 18285 18585 18586 18591 18590
8 18281 18282 18287 18286 18586 18587 18592 18591
8 18282 18283 18288 18287 18587 18588 18593 18592
8 18283 10866 10865 18288 18588 10805 10804 18593
8 4887 18284 18289 4888 4826 18589 18594 4827
8 18284 18285 18290 18289 18589 18590 18595 18594
8 18285 18286 18291 18290 18590 18591 18596 18595
8 18286 18287 18292 18291 18591 18592 18597 18596
8 18287 18288 18293 18292 18592 18593 18598 18597
8 18288 10865 10864 18293 18593 10804 10803 18598
8 4888 18289 18294 4889 4827 18594 18599 4828
8 18289 18290 18295 18294 18594 18595 18600 18599
8 18290 18291 18296 18295 18595 18596 18601 18600
8 18291 18292 18297 18296 18596 18597 18602 18601
8 18292 18293 18298 18297 18597 18598 18603 18602
8 18293 10864 10863 18298 18598 10803 10802 18603
8 4889 18294 18299 4890 4828 18599 18604 4829
8 18294 18295 18300 18299 18599 18600 18605 18604
8 18295 18296 18301 18300 18600 18601 18606 18605
8 18296 18297 18302 18301 18601 18602 18607 18606
8 18297 18298 18303 18302 18602 18603 18608 18607
8 18298 10863 10862 18303 18603 10802 10801 18608
8 4890 18299 18304 4891 4829 18604 18609 4830
8 18299 18300 18305 18304 18604 18605 18610 18609
8 18300 18301 18306 18305 18605 18606 18611 18610
8 18301 18302 18307 18306 18606 18607 18612 18611
8 18302 18303 18308 18307 18607 18608 18613 18612
8 18303 10862 10861 18308 18608 10801 10800 18613
8 4891 18304 18309 4892 4830 18609 18614 4831
8 18304 18305 18310 18309 18609 18610 18615 18614
8 18305 18306 18311 18310 18610 18611 18616 18615
8 18306 18307 18312 18311 18611 18612 18617 18616
8 18307 18308 18313 18312 18612 18613 18618 18617
8 18308 10861 10860 18313 18613 10800 10799 18618
8 4892 18309 18314 4893 4831 18614 18619 4832
8 18309 18310 18315 18314 18614 18615 18620 18619
8 18310 18311 18316 18315 18615 18616 18621 18620
8 18311 18312 18317 18316 18616 18617 18622 18621
8 18312 18313 18318 18317 18617 18618 18623 18622
8 18313 10860 10859 18318 18618 10799 10798 18623
8 4893 18314 18319 4894 4832 18619 18624 4833
8 18314 18315 18320 18319 18619 18620 18625 18624
8 18315 18316 18321 18320 18620 18621 18626 18625
8 18316 18317 18322 18321 18621 18622 18627 18626
8 18317 18318 18323 18322 18622 18623 18628 18627
8 18318 10859 10858 18323 18623 10798 10797 18628
8 4894 18319 18324 4895 4833 18624 18629 4834
8 18319 18320 18325 18324 18624 18625 18630 18629
8 18320 18321 18326 18325 18625 18626 18631 18630
8 18321 18322 18327 18326 18626 18627 18632 18631
8 18322 18323 18328 18327 18627 18628 18633 18632
8 18323 10858 10857 18328 18628 10797 10796 18633
8 4895 18324 18329 4896 4834 18629 18634 4835
8 18324 18325 18330 18329 18629 18630 18635 18634
8 18325 18326 18331 18330 18630 18631 18636 18635
8 18326 18327 18332 18331 18631 18632 18637 18636
8 18327 18328 18333 18332 18632 18633 18638 18637
8 18328 10857 10856 18333 18633 10796 10795 18638
8 4896 18329 18334 4897 4835 18634 18639 4836
8 18329 18330 18335 18334 18634 18635 18640 18639
8 18330 18331 18336 18335 18635 18636 18641 18640
8 18331 18332 18337 18336 18636 18637 18642 18641
8 18332 18333 18338 18337 18637 18638 18643 18642
8 18333 10856 10855 18338 18638 10795 10794 18643
8 4897 18334 18339 4898 4836 18639 18644 4837
8 18334 18335 18340 18339 18639 18640 18645 18644
8 18335 18336 18341 18340 18640 18641 18646 18645
8 18336 18337 18342 18341 18641 18642 18647 18646
8 18337 18338 18343 18342 18642 18643 18648 18647
8 18338 10855 10854 18343 18643 10794 10793 18648
8 4898 18339 18344 4899 4837 18644 18649 4838
8 18339 18340 18345 18344 18644 18645 18650 18649
8 18340 18341 18346 18345 18645 18646 18651 18650
8 18341 18342 18347 18346 18646 18647 18652 18651
8 18342 18343 18348 18347 18647 18648 18653 18652
8 18343 10854 10853 18348 18648 10793 10792 18653
8 4899 18344 18349 4900 4838 18649 18654 4839
8 18344 18345 18350 18349 18649 18650 18655 18654
8 18345 18346 18351 18350 18650 18651 18656 18655
8 18346 18347 18352 18351 18651 18652 18657 18656
8 18347 18348 18353 18352 18652 18653 18658 18657
8 18348 10853 10852 18353 18653 10792 10791 18658
8 4900 18349 18354 4901 4839 18654 18659 4840
8 18349 18350 18355 18354 18654 18655 18660 18659
8 18350 18351 18356 18355 18655 18656 18661 18660
8 18351 18352 18357 18356 18656 18657 18662 18661
8 18352 18353 18358 18357 18657 18658 18663 18662
8 18353 10852 10851 18358 18658 10791 10790 18663
8 4901 18354 18359 4902 4840 18659 18664 4841
8 18354 18355 18360 18359 18659 18660 18665 18664
8 18355 18356 18361 18360 18660 18661 18666 18665
8 18356 18357 18362 18361 18661 18662 18667 18666
8 18357 18358 18363 18362 18662 18663 18668 18667
8 18358 10851 10850 18363 18663 10790 10789 18668
8 4902 18359 18364 4903 4841 18664 18669 4842
8 18359 18360 18365 18364 18664 18665 18670 18669
8 18360 18361 18366 18365 18665 18666 18671 18670
8 18361 18362 18367 18366 18666 18667 18672 18671
8 18362 18363 18368 18367 18667 18668 18673 18672
8 18363 10850 10849 18368 18668 10789 10788 18673
8 4903 18364 18369 4904 4842 18669 18674 4843
8 18364 18365 18370 18369 18669 18670 18675 18674
8 18365 18366 18371 18370 18670 18671 18676 18675
8 18366 18367 18372 18371 18671 18672 18677 18676
8 18367 18368 18373 18372 18672 18673 18678 18677
8 18368 10849 10848 18373 18673 10788 10787 18678
8 4904 18369 18374 4905 4843 18674 18679 4844
8 18369 18370 18375 18374 18674 18675 18680 18679
8 18370 18371 18376 18375 18675 18676 18681 18680
8 18371 18372 18377 18376 18676 18677 18682 18681
8 18372 18373 18378 18377 18677 18678 18683 18682
8 18373 10848 10847 18378 18678 10787 10786 18683
8 18374 18375 18380 18379 18679 18680 18685 18684
8 18375 18376 18381 18380 18680 18681 18686 18685
8 18376 18377 18382 18381 18681 18682 18687 18686
8 18377 18378 18383 18382 18682 18683 18688 18687
8 18378 10847 10846 18383 18683 10786 10785 18688
8 18379 18380 18385 18384 18684 18685 18690 18689
8 18380 18381 18386 18385 18685 18686 18691 18690
8 18381 18382 18387 18386 18686 18687 18692 18691
8 18382 18383 18388 18387 18687 18688 18693 18692
8 18383 10846 10845 18388 18688 10785 10784 18693
8 18384 18385 18390 18389 18689 18690 18695 18694
8 18385 18386 18391 18390 18690 18691 18696 18695
8 18386 18387 18392 18391 18691 18692 18697 18696
8 18387 18388 18393 18392 18692 18693 18698 18697
8 18388 10845 10844 18393 18693 10784 10783 18698
8 18389 18390 18395 18394 18694 18695 18700 18699
8 18390 18391 18396 18395 18695 18696 18701 18700
8 18391 18392 18397 18396 18696 18697 18702 18701
8 18392 18393 18398 18397 18697 18698 18703 18702
8 18393 10844 10843 18398 18698 10783 10782 18703
8 18394 18395 18400 18399 18699 18700 18705 18704
8 18395 18396 18401 18400 18700 18701 18706 18705
8 18396 18397 18402 18401 18701 18702 18707 18706
8 18397 18398 18403 18402 18702 18703 18708 18707
8 18398 10843 10842 18403 18703 10782 10781 18708
8 4910 18399 18404 4911 4849 18704 18709 4850
8 18399 18400 18405 18404 18704 18705 18710 18709
8 18400 18401 18406 18405 18705 18706 18711 18710
8 18401 18402 18407 18406 18706 18707 18712 18711
8 18402 18403 18408 18407 18707 18708 18713 18712
8 18403 10842 10841 18408 18708 10781 10780 18713
8 4911 18404 18409 4912 4850 18709 18714 4851
8 18404 18405 18410 18409 18709 18710 18715 18714
8 18405 18406 18411 18410 18710 18711 18716 18715
8 18406 18407 18412 18411 18711 18712 18717 18716
8 18407 18408 18413 18412 18712 18713 18718 18717
8 18408 10841 10840 18413 18713 10780 10779 18718
8 4912 18409 18414 4913 4851 18714 18719 4852
8 18409 18410 18415 18414 18714 18715 18720 18719
8 18410 18411 18416 18415 18715 18716 18721 18720
8 18411 18412 18417 18416 18716 18717 18722 18721
8 18412 18413 18418 18417 18717 18718 18723 18722
8 18413 10840 10839 18418 18718 10779 10778 18723
8 4913 18414 18419 4914 4852 18719 18724 4853
8 18414 18415 18420 18419 18719 18720 18725 18724
8 18415 18416 18421 18420 18720 18721 18726 18725
8 18416 18417 18422 18421 18721 18722 18727 18726
8 18417 18418 18423 18422 18722 18723 18728 18727
8 18418 10839 10838 18423 18723 10778 10777 18728
8 4914 18419 18424 4915 4853 18724 18729 4854
8 18419 18420 18425 18424 18724 18725 18730 18729
8 18420 18421 18426 18425 18725 18726 18731 18730
8 18421 18422 18427 18426 18726 18727 18732 18731
8 18422 18423 18428 18427 18727 18728 18733 18732
8 18423 10838 10837 18428 18728 10777 10776 18733
8 4915 18424 18429 4916 4854 18729 18734 4855
8 18424 18425 18430 18429 18729 18730 18735 18734
8 18425 18426 18431 18430 18730 18731 18736 18735
8 18426 18427 18432 18431 18731 18732 18737 18736
8 18427 18428 18433 18432 18732 18733 18738 18737
8 18428 10837 10836 18433 18733 10776 10775 18738
8 4916 18429 18434 4917 4855 18734 18739 4856
8 18429 18430 18435 18434 18734 18735 18740 18739
8 18430 18431 18436 18435 18735 18736 18741 18740
8 18431 18432 18437 18436 18736 18737 18742 18741
8 18432 18433 18438 18437 18737 18738 18743 18742
8 18433 10836 10835 18438 18738 10775 10774 18743
8 18434 18435 18440 18439 18739 18740 18745 18744
8 18435 18436 18441 18440 18740 18741 18746 18745
8 18436 18437 18442 18441 18741 18742 18747 18746
8 18437 18438 18443 18442 18742 18743 18748 18747
8 18438 10835 10834 18443 18743 10774 10773 18748
8 18439 18440 18445 18444 18744 18745 18750 18749
8 18440 18441 18446 18445 18745 18746 18751 18750
8 18441 18442 18447 18446 18746 18747 18752 18751
8 18442 18443 18448 18447 18747 18748 18753 18752
8 18443 10834 10833 18448 18748 10773 10772 18753
8 18444 18445 18450 18449 18749 18750 18755 18754
8 18445 18446 18451 18450 18750 18751 18756 18755
8 18446 18447 18452 18451 18751 18752 18757 18756
8 18447 18448 18453 18452 18752 18753 18758 18757
8 18448 10833 10832 18453 18753 10772 10771 18758
8 18449 18450 18455 18454 18754 18755 18760 18759
8 18450 18451 18456 18455 18755 18756 18761 18760
8 18451 18452 18457 18456 18756 18757 18762 18761
8 18452 18453 18458 18457 18757 18758 18763 18762
8 18453 10832 10831 18458 18758 10771 10770 18763
8 18454 18455 18460 18459 18759 18760 18765 18764
8 18455 18456 18461 18460 18760 18761 18766 18765
8 18456 18457 18462 18461 18761 18762 18767 18766
8 18457 18458 18463 18462 18762 18763 18768 18767
8 18458 10831 10830 18463 18763 10770 10769 18768
8 4922 18459 18464 4923 4861 18764 18769 4862
8 18459 18460 18465 18464 18764 18765 18770 18769
8 18460 18461 18466 18465 18765 18766 18771 18770
8 18461 18462 18467 18466 18766 18767 18772 18771
8 18462 18463 18468 18467 18767 18768 18773 18772
8 18463 10830 10829 18468 18768 10769 10768 18773
8 4923 18464 18469 4924 4862 18769 18774 4863
8 18464 18465 18470 18469 18769 18770 18775 18774
8 18465 18466 18471 18470 18770 18771 18776 18775
8 18466 18467 18472 18471 18771 18772 18777 18776
8 18467 18468 18473 18472 18772 18773 18778 18777
8 18468 10829 10828 18473 18773 10768 10767 18778
8 4924 18469 18474 4925 4863 18774 18779 4864
8 18469 18470 18475 18474 18774 18775 18780 18779
8 18470 18471 18476 18475 18775 18776 18781 18780
8 18471 18472 18477 18476 18776 18777 18782 18781
8 18472 18473 18478 18477 18777 18778 18783 18782
8 18473 10828 10827 18478 18778 10767 10766 18783
8 4925 18474 18479 4926 4864 18779 18784 4865
8 18474 18475 18480 18479 18779 18780 18785 18784
8 18475 18476 18481 18480 18780 18781 18786 18785
8 18476 18477 18482 18481 18781 18782 18787 18786
8 18477 18478 18483 18482 18782 18783 18788 18787
8 18478 10827 10826 18483 18783 10766 10765 18788
8 4926 18479 18484 4927 4865 18784 18789 4866
8 18479 18480 18485 18484 18784 18785 18790 18789
8 18480 18481 18486 18485 18785 18786 18791 18790
8 18481 18482 18487 18486 18786 18787 18792 18791
8 18482 18483 18488 18487 18787 18788 18793 18792
8 18483 10826 10825 18488 18788 10765 10764 18793
8 4927 18484 18489 4928 4866 18789 18794 4867
8 18484 18485 18490 18489 18789 18790 18795 18794
8 18485 18486 18491 18490 18790 18791 18796 18795
8 18486 18487 18492 18491 18791 18792 18797 18796
8 18487 18488 18493 18492 18792 18793 18798 18797
8 18488 10825 10824 18493 18793 10764 10763 18798
8 4928 18489 18494 4929 4867 18794 18799 4868
8 18489 18490 18495 18494 18794 18795 18800 18799
8 18490 18491 18496 18495 18795 18796 18801 18800
8 18491 18492 18497 18496 18796 18797 18802 18801
8 18492 18493 18498 18497 18797 18798 18803 18802
8 18493 10824 10823 18498 18798 10763 10762 18803
8 4929 18494 18499 4930 4868 18799 18804 4869
8 18494 18495 18500 18499 18799 18800 18805 18804
8 18495 18496 18501 18500 18800 18801 18806 18805
8 18496 18497 18502 18501 18801 18802 18807 18806
8 18497 18498 18503 18502 18802 18803 18808 18807
8 18498 10823 10822 18503 18803 10762 10761 18808
8 18499 18500 18505 18504 18804 18805 18810 18809
8 18500 18501 18506 18505 18805 18806 18811 18810
8 18501 18502 18507 18506 18806 18807 18812 18811
8 18502 18503 18508 18507 18807 18808 18813 18812
8 18503 10822 10821 18508 18808 10761 10760 18813
8 18504 18505 18510 18509 18809 18810 18815 18814
8 18505 18506 18511 18510 18810 18811 18816 18815
8 18506 18507 18512 18511 18811 18812 18817 18816
8 18507 18508 18513 18512 18812 18813 18818 18817
8 18508 10821 10820 18513 18813 10760 10759 18818
8 18509 18510 18515 18514 18814 18815 18820 18819
8 18510 18511 18516 18515 18815 18816 18821 18820
8 18511 18512 18517 18516 18816 18817 18822 18821
8 18512 18513 18518 18517 18817 18818 18823 18822
8 18513 10820 10819 18518 18818 10759 10758 18823
8 18514 18515 18520 18519 18819 18820 18825 18824
8 18515 18516 18521 18520 18820 18821 18826 18825
8 18516 18517 18522 18521 18821 18822 18827 18826
8 18517 18518 18523 18522 18822 18823 18828 18827
8 18518 10819 10818 18523 18823 10758 10757 18828
8 18519 18520 18525 18524 18824 18825 18830 18829
8 18520 18521 18526 18525 18825 18826 18831 18830
8 18521 18522 18527 18526 18826 18827 18832 18831
8 18522 18523 18528 18527 18827 18828 18833 18832
8 18523 10818 10817 18528 18828 10757 10756 18833
8 4935 18524 18529 4936 4874 18829 18834 4875
8 18524 18525 18530 18529 18829 18830 18835 18834
8 18525 18526 18531 18530 18830 18831 18836 18835
8 18526 18527 18532 18531 18831 18832 18837 18836
8 18527 18528 18533 18532 18832 18833 18838 18837
8 18528 10817 10816 18533 18833 10756 10755 18838
8 4936 18529 18534 4937 4875 18834 18839 4876
8 18529 18530 18535 18534 18834 18835 18840 18839
8 18530 18531 18536 18535 18835 18836 18841 18840
8 18531 18532 18537 18536 18836 18837 18842 18841
8 18532 18533 18538 18537 18837 18838 18843 18842
8 18533 10816 10815 18538 18838 10755 10754 18843
8 4937 18534 18539 4938 4876 18839 18844 4877
8 18534 18535 18540 18539 18839 18840 18845 18844
8 18535 18536 18541 18540 18840 18841 18846 18845
8 18536 18537 18542 18541 18841 18842 18847 18846
8 18537 18538 18543 18542 18842 18843 18848 18847
8 18538 10815 10814 18543 18843 10754 10753 18848
8 4938 18539 18544 4939 4877 18844 18849 4878
8 18539 18540 18545 18544 18844 18845 18850 18849
8 18540 18541 18546 18545 18845 18846 18851 18850
8 18541 18542 18547 18546 18846 18847 18852 18851
8 18542 18543 18548 18547 18847 18848 18853 18852
8 18543 10814 10813 18548 18848 10753 10752 18853
8 4939 18544 18549 4940 4878 18849 18854 4879
8 18544 18545 18550 18549 18849 18850 18855 18854
8 18545 18546 18551 18550 18850 18851 18856 18855
8 18546 18547 18552 18551 18851 18852 18857 18856
8 18547 18548 18553 18552 18852 18853 18858 18857
8 18548 10813 10812 18553 18853 10752 10751 18858
8 4940 18549 18554 4941 4879 18854 18859 4880
8 18549 18550 18555 18554 18854 18855 18860 18859
8 18550 18551 18556 18555 18855 18856 18861 18860
8 18551 18552 18557 18556 18856 18857 18862 18861
8 18552 18553 18558 18557 18857 18858 18863 18862
8 18553 10812 10811 18558 18858 10751 10750 18863
8 4941 18554 18559 4942 4880 18859 18864 4881
8 18554 18555 18560 18559 18859 18860 18865 18864
8 18555 18556 18561 18560 18860 18861 18866 18865
8 18556 18557 18562 18561 18861 18862 18867 18866
8 18557 18558 18563 18562 18862 18863 18868 18867
8 18558 10811 10810 18563 18863 10750 10749 18868
8 4942 18559 18564 4943 4881 18864 18869 4882
8 18559 18560 18565 18564 18864 18865 18870 18869
8 18560 18561 18566 18565 18865 18866 18871 18870
8 18561 18562 18567 18566 18866 18867 18872 18871
8 18562 18563 18568 18567 18867 18868 18873 18872
8 18563 10810 10809 18568 18868 10749 10748 18873
8 4943 18564 18569 4944 4882 18869 18874 4883
8 18564 18565 18570 18569 18869 18870 18875 18874
8 18565 18566 18571 18570 18870 18871 18876 18875
8 18566 18567 18572 18571 18871 18872 18877 18876
8 18567 18568 18573 18572 18872 18873 18878 18877
8 18568 10809 10808 18573 18873 10748 10747 18878
8 4944 18569 18574 4945 4883 18874 18879 4884
8 18569 18570 18575 18574 18874 18875 18880 18879
8 18570 18571 18576 18575 18875 18876 18881 18880
8 18571 18572 18577 18576 18876 18877 18882 18881
8 18572 18573 18578 18577 18877 18878 18883 18882
8 18573 10808 10807 18578 18878 10747 10746 18883
8 4945 18574 13004 139 4884 18879 12999 138
8 18574 18575 13005 13004 18879 18880 13000 12999
8 18575 18576 13006 13005 18880 18881 13001 13000
8 18576 18577 13007 13006 18881 18882 13002 13001
8 18577 18578 13008 13007 18882 18883 13003 13002
8 18578 10807 6156 13008 18883 10746 6157 13003
8 235 11939 18579 4824 236 11944 18884 4763
8 11939 11940 18580 18579 11944 11945 18885 18884
8 11940 11941 18581 18580 11945 11946 18886 18885
8 11941 11942 18582 18581 11946 11947 18887 18886
8 11942 11943 18583 18582 11947 11948 18888 18887
8 11943 6060 10806 18583 11948 6059 10745 18888
8 4824 18579 18584 4825 4763 18884 18889 4764
8 18579 18580 18585 18584 18884 18885 18890 18889
8 18580 18581 18586 18585 18885 18886 18891 18890
8 18581 18582 18587 18586 18886 18887 18892 18891
8 18582 18583 18588 18587 18887 18888 18893 18892
8 18583 10806 10805 18588 18888 10745 10744 18893
8 4825 18584 18589 4826 4764 18889 18894 4765
8 18584 18585 18590 18589 18889 18890 18895 18894
8 18585 18586 18591 18590 18890 18891 18896 18895
8 18586 18587 18592 18591 18891 18892 18897 18896
8 18587 18588 18593 18592 18892 18893 18898 18897
8 18588 10805 10804 18593 18893 10744 10743 18898
8 4826 18589 18594 4827 4765 18894 18899 4766
8 18589 18590 18595 18594 18894 18895 18900 18899
8 18590 18591 18596 18595 18895 18896 18901 18900
8 18591 18592 18597 18596 18896 18897 18902 18901
8 18592 18593 18598 18597 18897 18898 18903 18902
8 18593 10804 10803 18598 18898 10743 10742 18903
8 4827 18594 18599 4828 4766 18899 18904 4767
8 18594 18595 18600 18599 18899 18900 18905 18904
8 18595 18596 18601 18600 18900 18901 18906 18905
8 18596 18597 18602 18601 18901 18902 18907 18906
8 18597 18598 18603 18602 18902 18903 18908 18907
8 18598 10803 10802 18603 18903 10742 10741 18908
8 4828 18599 18604 4829 4767 18904 18909 4768
8 18599 18600 18605 18604 18904 18905 18910 18909
8 18600 18601 18606 18605 18905 18906 18911 18910
8 18601 18602 18607 18606 18906 18907 18912 18911
8 18602 18603 18608 18607 18907 18908 18913 18912
8 18603 10802 10801 18608 18908 10741 10740 18913
8 4829 18604 18609 4830 4768 18909 18914 4769
8 18604 18605 18610 18609 18909 18910 18915 18914
8 18605 18606 18611 18610 18910 18911 18916 18915
8 18606 18607 18612 18611 18911 18912 18917 18916
8 18607 18608 18613 18612 18912 18913 18918 18917
8 18608 10801 10800 18613 18913 10740 10739 18918
8 4830 18609 18614 4831 4769 18914 18919 4770
8 18609 18610 18615 18614 18914 18915 18920 18919
8 18610 18611 18616 18615 18915 18916 18921 18920
8 18611 18612 18617 18616 18916 18917 18922 18921
8 18612 18613 18618 18617 18917 18918 18923 18922
8 18613 10800 10799 18618 18918 10739 10738 18923
8 4831 18614 18619 4832 4770 18919 18924 4771
8 18614 18615 18620 18619 18919 18920 18925 18924
8 18615 18616 18621 18620 18920 18921 18926 18925
8 18616 18617 18622 18621 18921 18922 18927 18926
8 18617 18618 18623 18622 18922 18923 18928 18927
8 18618 10799 10798 18623 18923 10738 10737 18928
8 4832 18619 18624 4833 4771 18924 18929 4772
8 18619 18620 18625 18624 18924 18925 18930 18929
8 18620 18621 18626 18625 18925 18926 18931 18930
8 18621 18622 18627 18626 18926 18927 18932 18931
8 18622 18623 18628 18627 18927 18928 18933 18932
8 18623 10798 10797 18628 18928 10737 10736 18933
8 4833 18624 18629 4834 4772 18929 18934 4773
8 18624 18625 18630 18629 18929 18930 18935 18934
8 18625 18626 18631 18630 18930 18931 18936 18935
8 18626 18627 18632 18631 18931 18932 18937 18936
8 18627 18628 18633 18632 18932 18933 18938 18937
8 18628 10797 10796 18633 18933 10736 10735 18938
8 4834 18629 18634 4835 4773 18934 18939 4774
8 18629 18630 18635 18634 18934 18935 18940 18939
8 18630 18631 18636 18635 18935 18936 18941 18940
8 18631 18632 18637 18636 18936 18937 18942 18941
8 18632 18633 18638 18637 18937 18938 18943 18942
8 18633 10796 10795 18638 18938 10735 10734 18943
8 4835 18634 18639 4836 4774 18939 18944 4775
8 18634 18635 18640 18639 18939 18940 18945 18944
8 18635 18636 18641 18640 18940 18941 18946 18945
8 18636 18637 18642 18641 18941 18942 18947 18946
8 18637 18638 18643 18642 18942 18943 18948 18947
8 18638 10795 10794 18643 18943 10734 10733 18948
8 4836 18639 18644 4837 4775 18944 18949 4776
8 18639 18640 18645 18644 18944 18945 18950 18949
8 18640 18641 18646 18645 18945 18946 18951 18950
8 18641 18642 18647 18646 18946 18947 18952 18951
8 18642 18643 18648 18647 18947 18948 18953 18952
8 18643 10794 10793 18648 18948 10733 10732 18953
8 4837 18644 18649 4838 4776 18949 18954 4777
8 18644 18645 18650 18649 18949 18950 18955 18954
8 18645 18646 18651 18650 18950 18951 18956 18955
8 18646 18647 18652 18651 18951 18952 18957 18956
8 18647 18648 18653 18652 18952 18953 18958 18957
8 18648 10793 10792 18653 18953 10732 10731 18958
8 4838 18649 18654 4839 4777 18954 18959 4778
8 18649 18650 18655 18654 18954 18955 18960 18959
8 18650 18651 18656 18655 18955 18956 18961 18960
8 18651 18652 18657 18656 18956 18957 18962 18961
8 18652 18653 18658 18657 18957 18958 18963 18962
8 18653 10792 10791 18658 18958 10731 10730 18963
8 4839 18654 18659 4840 4778 18959 18964 4779
8 18654 18655 18660 18659 18959 18960 18965 18964
8 18655 18656 18661 18660 18960 18961 18966 18965
8 18656 18657 18662 18661 18961 18962 18967 18966
8 18657 18658 18663 18662 18962 18963 18968 18967
8 18658 10791 10790 18663 18963 10730 10729 18968
8 4840 18659 18664 4841 4779 18964 18969 4780
8 18659 18660 18665 18664 18964 18965 18970 18969
8 18660 18661 18666 18665 18965 18966 18971 18970
8 18661 18662 18667 18666 18966 18967 18972 18971
8 18662 18663 18668 18667 18967 18968 18973 18972
8 18663 10790 10789 18668 18968 10729 10728 18973
8 4841 18664 18669 4842 4780 18969 18974 4781
8 18664 18665 18670 18669 18969 18970 18975 18974
8 18665 18666 18671 18670 18970 18971 18976 18975
8 18666 18667 18672 18671 18971 18972 18977 18976
8 18667 18668 18673 18672 18972 18973 18978 18977
8 18668 10789 10788 18673 18973 10728 10727 18978
8 4842 18669 18674 4843 4781 18974 18979 4782
8 18669 18670 18675 18674 18974 18975 18980 18979
8 18670 18671 18676 18675 18975 18976 18981 18980
8 18671 18672 18677 18676 18976 18977 18982 18981
8 18672 18673 18678 18677 18977 18978 18983 18982
8 18673 10788 10787 18678 18978 10727 10726 18983
8 4843 18674 18679 4844 4782 18979 18984 4783
8 18674 18675 18680 18679 18979 18980 18985 18984
8 18675 18676 18681 18680 18980 18981 18986 18985
8 18676 18677 18682 18681 18981 18982 18987 18986
8 18677 18678 18683 18682 18982 18983 18988 18987
8 18678 10787 10786 18683 18983 10726 10725 18988
8 18679 18680 18685 18684 18984 18985 18990 18989
8 18680 18681 18686 18685 18985 18986 18991 18990
8 18681 18682 18687 18686 18986 18987 18992 18991
8 18682 18683 18688 18687 18987 18988 18993 18992
8 18683 10786 10785 18688 18988 10725 10724 18993
8 18684 18685 18690 18689 18989 18990 18995 18994
8 18685 18686 18691 18690 18990 18991 18996 18995
8 18686 18687 18692 18691 18991 18992 18997 18996
8 18687 18688 18693 18692 18992 18993 18998 18997
8 18688 10785 10784 18693 18993 10724 10723 18998
8 18689 18690 18695 18694 18994 18995 19000 18999
8 18690 18691 18696 18695 18995 18996 19001 19000
8 18691 18692 18697 18696 18996 18997 19002 19001
8 18692 18693 18698 18697 18997 18998 19003 19002
8 18693 10784 10783 18698 18998 10723 10722 19003
8 18694 18695 18700 18699 18999 19000 19005 19004
8 18695 18696 18701 18700 19000 19001 19006 19005
8 18696 18697 18702 18701 19001 19002 19007 19006
8 18697 18698 18703 18702 19002 19003 19008 19007
8 18698 10783 10782 18703 19003 10722 10721 19008
8 18699 18700 18705 18704 19004 19005 19010 19009
8 18700 18701 18706 18705 19005 19006 19011 19010
8 18701 18702 18707 18706 19006 19007 19012 19011
8 18702 18703 18708 18707 19007 19008 19013 19012
8 18703 10782 10781 18708 19008 10721 10720 19013
8 4849 18704 18709 4850 4788 19009 19014 4789
8 18704 18705 18710 18709 19009 19010 19015 19014
8 18705 18706 18711 18710 19010 19011 19016 19015
8 18706 18707 18712 18711 19011 19012 19017 19016
8 18707 18708 18713 18712 19012 19013 19018 19017
8 18708 10781 10780 18713 19013 10720 10719 19018
8 4850 18709 18714 4851 4789 19014 19019 4790
8 18709 18710 18715 18714 19014 19015 19020 19019
8 18710 18711 18716 18715 19015 19016 19021 19020
8 18711 18712 18717 18716 19016 19017 19022 19021
8 18712 18713 18718 18717 19017 19018 19023 19022
8 18713 10780 10779 18718 19018 10719 10718 19023
8 4851 18714 18719 4852 4790 19019 19024 4791
8 18714 18715 18720 18719 19019 19020 19025 19024
8 18715 18716 18721 18720 19020 19021 19026 19025
8 18716 18717 18722 18721 19021 19022 19027 19026
8 18717 18718 18723 18722 19022 19023 19028 19027
8 18718 10779 10778 18723 19023 10718 10717 19028
8 4852 18719 18724 4853 4791 19024 19029 4792
8 18719 18720 18725 18724 19024 19025 19030 19029
8 18720 18721 18726 18725 19025 19026 19031 19030
8 18721 18722 18727 18726 19026 19027 19032 19031
8 18722 18723 18728 18727 19027 19028 19033 19032
8 18723 10778 10777 18728 19028 10717 10716 19033
8 4853 18724 18729 4854 4792 19029 19034 4793
8 18724 18725 18730 18729 19029 19030 19035 19034
8 18725 18726 18731 18730 19030 19031 19036 19035
8 18726 18727 18732 18731 19031 19032 19037 19036
8 18727 18728 18733 18732 19032 19033 19038 19037
8 18728 10777 10776 18733 19033 10716 10715 19038
8 4854 18729 18734 4855 4793 19034 19039 4794
8 18729 18730 18735 18734 19034 19035 19040 19039
8 18730 18731 18736 18735 19035 19036 19041 19040
8 18731 18732 18737 18736 19036 19037 19042 19041
8 18732 18733 18738 18737 19037 19038 19043 19042
8 18733 10776 10775 18738 19038 10715 10714 19043
8 4855 18734 18739 4856 4794 19039 19044 4795
8 18734 18735 18740 18739 19039 19040 19045 19044
8 18735 18736 18741 18740 19040 19041 19046 19045
8 18736 18737 18742 18741 19041 19042 19047 19046
8 18737 18738 18743 18742 19042 19043 19048 19047
8 18738 10775 10774 18743 19043 10714 10713 19048
8 18739 18740 18745 18744 19044 19045 19050 19049
8 18740 18741 18746 18745 19045 19046 19051 19050
8 18741 18742 18747 18746 19046 19047 19052 19051
8 18742 18743 18748 18747 19047 19048 19053 19052
8 18743 10774 10773 18748 19048 10713 10712 19053
8 18744 18745 18750 18749 19049 19050 19055 19054
8 18745 18746 18751 18750 19050 19051 19056 19055
8 18746 18747 18752 18751 19051 19052 19057 19056
8 18747 18748 18753 18752 19052 19053 19058 19057
8 18748 10773 10772 18753 19053 10712 10711 19058
8 18749 18750 18755 18754 19054 19055 19060 19059
8 18750 18751 18756 18755 19055 19056 19061 19060
8 18751 18752 18757 18756 19056 19057 19062 19061
8 18752 18753 18758 18757 19057 19058 19063 19062
8 18753 10772 10771 18758 19058 10711 10710 19063
8 18754 18755 18760 18759 19059 19060 19065 19064
8 18755 18756 18761 18760 19060 19061 19066 19065
8 18756 18757 18762 18761 19061 19062 19067 19066
8 18757 18758 18763 18762 19062 19063 19068 19067
8 18758 10771 10770 18763 19063 10710 10709 19068
8 18759 18760 18765 18764 19064 19065 19070 19069
8 18760 18761 18766 18765 19065 19066 19071 19070
8 18761 18762 18767 18766 19066 19067 19072 19071
8 18762 18763 18768 18767 19067 19068 19073 19072
8 18763 10770 10769 18768 19068 10709 10708 19073
8 4861 18764 18769 4862 4800 19069 19074 4801
8 18764 18765 18770 18769 19069 19070 19075 19074
8 18765 18766 18771 18770 19070 19071 19076 19075
8 18766 18767 18772 18771 19071 19072 19077 19076
8 18767 18768 18773 18772 19072 19073 19078 19077
8 18768 10769 10768 18773 19073 10708 10707 19078
8 4862 18769 18774 4863 4801 19074 19079 4802
8 18769 18770 18775 18774 19074 19075 19080 19079
8 18770 18771 18776 18775 19075 19076 19081 19080
8 18771 18772 18777 18776 19076 19077 19082 19081
8 18772 18773 18778 18777 19077 19078 19083 19082
8 18773 10768 10767 18778 19078 10707 10706 19083
8 4863 18774 18779 4864 4802 19079 19084 4803
8 18774 18775 18780 18779 19079 19080 19085 19084
8 18775 18776 18781 18780 19080 19081 19086 19085
8 18776 18777 18782 18781 19081 19082 19087 19086
8 18777 18778 18783 18782 19082 19083 19088 19087
8 18778 10767 10766 18783 19083 10706 10705 19088
8 4864 18779 18784 4865 4803 19084 19089 4804
8 18779 18780 18785 18784 19084 19085 19090 19089
8 18780 18781 18786 18785 19085 19086 19091 19090
8 18781 18782 18787 18786 19086 19087 19092 19091
8 18782 18783 18788 18787 19087 19088 19093 19092
8 18783 10766 10765 18788 19088 10705 10704 19093
8 4865 18784 18789 4866 4804 19089 19094 4805
8 18784 18785 18790 18789 19089 19090 19095 19094
8 18785 18786 18791 18790 19090 19091 19096 19095
8 18786 18787 18792 18791 19091 19092 19097 19096
8 18787 18788 18793 18792 19092 19093 19098 19097
8 18788 10765 10764 18793 19093 10704 10703 19098
8 4866 18789 18794 4867 4805 19094 19099 4806
8 18789 18790 18795 18794 19094 19095 19100 19099
8 18790 18791 18796 18795 19095 19096 19101 19100
8 18791 18792 18797 18796 19096 19097 19102 19101
8 18792 18793 18798 18797 19097 19098 19103 19102
8 18793 10764 10763 18798 19098 10703 10702 19103
8 4867 18794 18799 4868 4806 19099 19104 4807
8 18794 18795 18800 18799 19099 19100 19105 19104
8 18795 18796 18801 18800 19100 19101 19106 19105
8 18796 18797 18802 18801 19101 19102 19107 19106
8 18797 18798 18803 18802 19102 19103 19108 19107
8 18798 10763 10762 18803 19103 10702 10701 19108
8 4868 18799 18804 4869 4807 19104 19109 4808
8 18799 18800 18805 18804 19104 19105 19110 19109
8 18800 18801 18806 18805 19105 19106 19111 19110
8 18801 18802 18807 18806 19106 19107 19112 19111
8 18802 18803 18808 18807 19107 19108 19113 19112
8 18803 10762 10761 18808 19108 10701 10700 19113
8 18804 18805 18810 18809 19109 19110 19115 19114
8 18805 18806 18811 18810 19110 19111 19116 19115
8 18806 18807 18812 18811 19111 19112 19117 19116
8 18807 18808 18813 18812 19112 19113 19118 19117
8 18808 10761 10760 18813 19113 10700 10699 19118
8 18809 18810 18815 18814 19114 19115 19120 19119
8 18810 18811 18816 18815 19115 19116 19121 19120
8 18811 18812 18817 18816 19116 19117 19122 19121
8 18812 18813 18818 18817 19117 19118 19123 19122
8 18813 10760 10759 18818 19118 10699 10698 19123
8 18814 18815 18820 18819 19119 19120 19125 19124
8 18815 18816 18821 18820 19120 19121 19126 19125
8 18816 18817 18822 18821 19121 19122 19127 19126
8 18817 18818 18823 18822 19122 19123 19128 19127
8 18818 10759 10758 18823 19123 10698 10697 19128
8 18819 18820 18825 18824 19124 19125 19130 19129
8 18820 18821 18826 18825 19125 19126 19131 19130
8 18821 18822 18827 18826 19126 19127 19132 19131
8 18822 18823 18828 18827 19127 19128 19133 19132
8 18823 10758 10757 18828 19128 10697 10696 19133
8 18824 18825 18830 18829 19129 19130 19135 19134
8 18825 18826 18831 18830 19130 19131 19136 19135
8 18826 18827 18832 18831 19131 19132 19137 19136
8 18827 18828 18833 18832 19132 19133 19138 19137
8 18828 10757 10756 18833 19133 10696 10695 19138
8 4874 18829 18834 4875 4813 19134 19139 4814
8 18829 18830 18835 18834 19134 19135 19140 19139
8 18830 18831 18836 18835 19135 19136 19141 19140
8 18831 18832 18837 18836 19136 19137 19142 19141
8 18832 18833 18838 18837 19137 19138 19143 19142
8 18833 10756 10755 18838 19138 10695 10694 19143
8 4875 18834 18839 4876 4814 19139 19144 4815
8 18834 18835 18840 18839 19139 19140 19145 19144
8 18835 18836 18841 18840 19140 19141 19146 19145
8 18836 18837 18842 18841 19141 19142 19147 19146
8 18837 18838 18843 18842 19142 19143 19148 19147
8 18838 10755 10754 18843 19143 10694 10693 19148
8 4876 18839 18844 4877 4815 19144 19149 4816
8 18839 18840 18845 18844 19144 19145 19150 19149
8 18840 18841 18846 18845 19145 19146 19151 19150
8 18841 18842 18847 18846 19146 19147 19152 19151
8 18842 18843 18848 18847 19147 19148 19153 19152
8 18843 10754 10753 18848 19148 10693 10692 19153
8 4877 18844 18849 4878 4816 19149 19154 4817
8 18844 18845 18850 18849 19149 19150 19155 19154
8 18845 18846 18851 18850 19150 19151 19156 19155
8 18846 18847 18852 18851 19151 19152 19157 19156
8 18847 18848 18853 18852 19152 19153 19158 19157
8 18848 10753 10752 18853 19153 10692 10691 19158
8 4878 18849 18854 4879 4817 19154 19159 4818
8 18849 18850 18855 18854 19154 19155 19160 19159
8 18850 18851 18856 18855 19155 19156 19161 19160
8 18851 18852 18857 18856 19156 19157 19162 19161
8 18852 18853 18858 18857 19157 19158 19163 19162
8 18853 10752 10751 18858 19158 10691 10690 19163
8 4879 18854 18859 4880 4818 19159 19164 4819
8 18854 18855 18860 18859 19159 19160 19165 19164
8 18855 18856 18861 18860 19160 19161 19166 19165
8 18856 18857 18862 18861 19161 19162 19167 19166
8 18857 18858 18863 18862 19162 19163 19168 19167
8 18858 10751 10750 18863 19163 10690 10689 19168
8 4880 18859 18864 4881 4819 19164 19169 4820
8 18859 18860 18865 18864 19164 19165 19170 19169
8 18860 18861 18866 18865 19165 19166 19171 19170
8 18861 18862 18867 18866 19166 19167 19172 19171
8 18862 18863 18868 18867 19167 19168 19173 19172
8 18863 10750 10749 18868 19168 10689 10688 19173
8 4881 18864 18869 4882 4820 19169 19174 4821
8 18864 18865 18870 18869 19169 19170 19175 19174
8 18865 18866 18871 18870 19170 19171 19176 19175
8 18866 18867 18872 18871 19171 19172 19177 19176
8 18867 18868 18873 18872 19172 19173 19178 19177
8 18868 10749 10748 18873 19173 10688 10687 19178
8 4882 18869 18874 4883 4821 19174 19179 4822
8 18869 18870 18875 18874 19174 19175 19180 19179
8 18870 18871 18876 18875 19175 19176 19181 19180
8 18871 18872 18877 18876 19176 19177 19182 19181
8 18872 18873 18878 18877 19177 19178 19183 19182
8 18873 10748 10747 18878 19178 10687 10686 19183
8 4883 18874 18879 4884 4822 19179 19184 4823
8 18874 18875 18880 18879 19179 19180 19185 19184
8 18875 18876 18881 18880 19180 19181 19186 19185
8 18876 18877 18882 18881 19181 19182 19187 19186
8 18877 18878 18883 18882 19182 19183 19188 19187
8 18878 10747 10746 18883 19183 10686 10685 19188
8 4884 18879 12999 138 4823 19184 12994 137
8 18879 18880 13000 12999 19184 19185 12995 12994
8 18880 18881 13001 13000 19185 19186 12996 12995
8 18881 18882 13002 13001 19186 19187 12997 12996
8 18882 18883 13003 13002 19187 19188 12998 12997
8 18883 10746 6157 13003 19188 10685 6158 12998
8 236 11944 18884 4763 237 11949 19189 4702
8 11944 11945 18885 18884 11949 11950 19190 19189
8 11945 11946 18886 18885 11950 11951 19191 19190
8 11946 11947 18887 18886 11951 11952 19192 19191
8 11947 11948 18888 18887 11952 11953 19193 19192
8 11948 6059 10745 18888 11953 6058 10684 19193
8 4763 18884 18889 4764 4702 19189 19194 4703
8 18884 18885 18890 18889 19189 19190 19195 19194
8 18885 18886 18891 18890 19190 19191 19196 19195
8 18886 18887 18892 18891 19191 19192 19197 19196
8 18887 18888 18893 18892 19192 19193 19198 19197
8 18888 10745 10744 18893 19193 10684 10683 19198
8 4764 18889 18894 4765 4703 19194 19199 4704
8 18889 18890 18895 18894 19194 19195 19200 19199
8 18890 18891 18896 18895 19195 19196 19201 19200
8 18891 18892 18897 18896 19196 19197 19202 19201
8 18892 18893 18898 18897 19197 19198 19203 19202
8 18893 10744 10743 18898 19198 10683 10682 19203
8 4765 18894 18899 4766 4704 19199 19204 4705
8 18894 18895 18900 18899 19199 19200 19205 19204
8 18895 18896 18901 18900 19200 19201 19206 19205
8 18896 18897 18902 18901 19201 19202 19207 19206
8 18897 18898 18903 18902 19202 19203 19208 19207
8 18898 10743 10742 18903 19203 10682 10681 19208
8 4766 18899 18904 4767 4705 19204 19209 4706
8 18899 18900 18905 18904 19204 19205 19210 19209
8 18900 18901 18906 18905 19205 19206 19211 19210
8 18901 18902 18907 18906 19206 19207 19212 19211
8 18902 18903 18908 18907 19207 19208 19213 19212
8 18903 10742 10741 18908 19208 10681 10680 19213
8 4767 18904 18909 4768 4706 19209 19214 4707
8 18904 18905 18910 18909 19209 19210 19215 19214
8 18905 18906 18911 18910 19210 19211 19216 19215
8 18906 18907 18912 18911 19211 19212 19217 19216
8 18907 18908 18913 18912 19212 19213 19218 19217
8 18908 10741 10740 18913 19213 10680 10679 19218
8 4768 18909 18914 4769 4707 19214 19219 4708
8 18909 18910 18915 18914 19214 19215 19220 19219
8 18910 18911 18916 18915 19215 19216 19221 19220
8 18911 18912 18917 18916 19216 19217 19222 19221
8 18912 18913 18918 18917 19217 19218 19223 19222
8 18913 10740 10739 18918 19218 10679 10678 19223
8 4769 18914 18919 4770 4708 19219 19224 4709
8 18914 18915 18920 18919 19219 19220 19225 19224
8 18915 18916 18921 18920 19220 19221 19226 19225
8 18916 18917 18922 18921 19221 19222 19227 19226
8 18917 18918 18923 18922 19222 19223 19228 19227
8 18918 10739 10738 18923 19223 10678 10677 19228
8 4770 18919 18924 4771 4709 19224 19229 4710
8 18919 18920 18925 18924 19224 19225 19230 19229
8 18920 18921 18926 18925 19225 19226 19231 19230
8 18921 18922 18927 18926 19226 19227 19232 19231
8 18922 18923 18928 18927 19227 19228 19233 19232
8 18923 10738 10737 18928 19228 10677 10676 19233
8 4771 18924 18929 4772 4710 19229 19234 4711
8 18924 18925 18930 18929 19229 19230 19235 19234
8 18925 18926 18931 18930 19230 19231 19236 19235
8 18926 18927 18932 18931 19231 19232 19237 19236
8 18927 18928 18933 18932 19232 19233 19238 19237
8 18928 10737 10736 18933 19233 10676 10675 19238
8 4772 18929 18934 4773 4711 19234 19239 4712
8 18929 18930 18935 18934 19234 19235 19240 19239
8 18930 18931 18936 18935 19235 19236 19241 19240
8 18931 18932 18937 18936 19236 19237 19242 19241
8 18932 18933 18938 18937 19237 19238 19243 19242
8 18933 10736 10735 18938 19238 10675 10674 19243
8 4773 18934 18939 4774 4712 19239 19244 4713
8 18934 18935 18940 18939 19239 19240 19245 19244
8 18935 18936 18941 18940 19240 19241 19246 19245
8 18936 18937 18942 18941 19241 19242 19247 19246
8 18937 18938 18943 18942 19242 19243 19248 19247
8 18938 10735 10734 18943 19243 10674 10673 19248
8 4774 18939 18944 4775 4713 19244 19249 4714
8 18939 18940 18945 18944 19244 19245 19250 19249
8 18940 18941 18946 18945 19245 19246 19251 19250
8 18941 18942 18947 18946 19246 19247 19252 19251
8 18942 18943 18948 18947 19247 19248 19253 19252
8 18943 10734 10733 18948 19248 10673 10672 19253
8 4775 18944 18949 4776 4714 19249 19254 4715
8 18944 18945 18950 18949 19249 19250 19255 19254
8 18945 18946 18951 18950 19250 19251 19256 19255
8 18946 18947 18952 18951 19251 19252 19257 19256
8 18947 18948 18953 18952 19252 19253 19258 19257
8 18948 10733 10732 18953 19253 10672 10671 19258
8 4776 18949 18954 4777 4715 19254 19259 4716
8 18949 18950 18955 18954 19254 19255 19260 19259
8 18950 18951 18956 18955 19255 19256 19261 19260
8 18951 18952 18957 18956 19256 19257 19262 19261
8 18952 18953 18958 18957 19257 19258 19263 19262
8 18953 10732 10731 18958 19258 10671 10670 19263
8 4777 18954 18959 4778 4716 19259 19264 4717
8 18954 18955 18960 18959 19259 19260 19265 19264
8 18955 18956 18961 18960 19260 19261 19266 19265
8 18956 18957 18962 18961 19261 19262 19267 19266
8 18957 18958 18963 18962 19262 19263 19268 19267
8 18958 10731 10730 18963 19263 10670 10669 19268
8 4778 18959 18964 4779 4717 19264 19269 4718
8 18959 18960 18965 18964 19264 19265 19270 19269
8 18960 18961 18966 18965 19265 19266 19271 19270
8 18961 18962 18967 18966 19266 19267 19272 19271
8 18962 18963 18968 18967 19267 19268 19273 19272
8 18963 10730 10729 18968 19268 10669 10668 19273
8 4779 18964 18969 4780 4718 19269 19274 4719
8 18964 18965 18970 18969 19269 19270 19275 19274
8 18965 18966 18971 18970 19270 19271 19276 19275
8 18966 18967 18972 18971 19271 19272 19277 19276
8 18967 18968 18973 18972 19272 19273 19278 19277
8 18968 10729 10728 18973 19273 10668 10667 19278
8 4780 18969 18974 4781 4719 19274 19279 4720
8 18969 18970 18975 18974 19274 19275 19280 19279
8 18970 18971 18976 18975 19275 19276 19281 19280
8 18971 18972 18977 18976 19276 19277 19282 19281
8 18972 18973 18978 18977 19277 19278 19283 19282
8 18973 10728 10727 18978 19278 10667 10666 19283
8 4781 18974 18979 4782 4720 19279 19284 4721
8 18974 18975 18980 18979 19279 19280 19285 19284
8 18975 18976 18981 18980 19280 19281 19286 19285
8 18976 18977 18982 18981 19281 19282 19287 19286
8 18977 18978 18983 18982 19282 19283 19288 19287
8 18978 10727 10726 18983 19283 10666 10665 19288
8 4782 18979 18984 4783 4721 19284 19289 4722
8 18979 18980 18985 18984 19284 19285 19290 19289
8 18980 18981 18986 18985 19285 19286 19291 19290
8 18981 18982 18987 18986 19286 19287 19292 19291
8 18982 18983 18988 18987 19287 19288 19293 19292
8 18983 10726 10725 18988 19288 10665 10664 19293
8 18984 18985 18990 18989 19289 19290 19295 19294
8 18985 18986 18991 18990 19290 19291 19296 19295
8 18986 18987 18992 18991 19291 19292 19297 19296
8 18987 18988 18993 18992 19292 19293 19298 19297
8 18988 10725 10724 18993 19293 10664 10663 19298
8 18989 18990 18995 18994 19294 19295 19300 19299
8 18990 18991 18996 18995 19295 19296 19301 19300
8 18991 18992 18997 18996 19296 19297 19302 19301
8 18992 18993 18998 18997 19297 19298 19303 19302
8 18993 10724 10723 18998 19298 10663 10662 19303
8 18994 18995 19000 18999 19299 19300 19305 19304
8 18995 18996 19001 19000 19300 19301 19306 19305
8 18996 18997 19002 19001 19301 19302 19307 19306
8 18997 18998 19003 19002 19302 19303 19308 19307
8 18998 10723 10722 19003 19303 10662 10661 19308
8 18999 19000 19005 19004 19304 19305 19310 19309
8 19000 19001 19006 19005 19305 19306 19311 19310
8 19001 19002 19007 19006 19306 19307 19312 19311
8 19002 19003 19008 19007 19307 19308 19313 19312
8 19003 10722 10721 19008 19308 10661 10660 19313
8 19004 19005 19010 19009 19309 19310 19315 19314
8 19005 19006 19011 19010 19310 19311 19316 19315
8 19006 19007 19012 19011 19311 19312 19317 19316
8 19007 19008 19013 19012 19312 19313 19318 19317
8 19008 10721 10720 19013 19313 10660 10659 19318
8 4788 19009 19014 4789 4727 19314 19319 4728
8 19009 19010 19015 19014 19314 19315 19320 19319
8 19010 19011 19016 19015 19315 19316 19321 19320
8 19011 19012 19017 19016 19316 19317 19322 19321
8 19012 19013 19018 19017 19317 19318 19323 19322
8 19013 10720 10719 19018 19318 10659 10658 19323
8 4789 19014 19019 4790 4728 19319 19324 4729
8 19014 19015 19020 19019 19319 19320 19325 19324
8 19015 19016 19021 19020 19320 19321 19326 19325
8 19016 19017 19022 19021 19321 19322 19327 19326
8 19017 19018 19023 19022 19322 19323 19328 19327
8 19018 10719 10718 19023 19323 10658 10657 19328
8 4790 19019 19024 4791 4729 19324 19329 4730
8 19019 19020 19025 19024 19324 19325 19330 19329
8 19020 19021 19026 19025 19325 19326 19331 19330
8 19021 19022 19027 19026 19326 19327 19332 19331
8 19022 19023 19028 19027 19327 19328 19333 19332
8 19023 10718 10717 19028 19328 10657 10656 19333
8 4791 19024 19029 4792 4730 19329 19334 4731
8 19024 19025 19030 19029 19329 19330 19335 19334
8 19025 19026 19031 19030 19330 19331 19336 19335
8 19026 19027 19032 19031 19331 19332 19337 19336
8 19027 19028 19033 19032 19332 19333 19338 19337
8 19028 10717 10716 19033 19333 10656 10655 19338
8 4792 19029 19034 4793 4731 19334 19339 4732
8 19029 19030 19035 19034 19334 19335 19340 19339
8 19030 19031 19036 19035 19335 19336 19341 19340
8 19031 19032 19037 19036 19336 19337 19342 19341
8 19032 19033 19038 19037 19337 19338 19343 19342
8 19033 10716 10715 19038 19338 10655 10654 19343
8 4793 19034 19039 4794 4732 19339 19344 4733
8 19034 19035 19040 19039 19339 19340 19345 19344
8 19035 19036 19041 19040 19340 19341 19346 19345
8 19036 19037 19042 19041 19341 19342 19347 19346
8 19037 19038 19043 19042 19342 19343 19348 19347
8 19038 10715 10714 19043 19343 10654 10653 19348
8 4794 19039 19044 4795 4733 19344 19349 4734
8 19039 19040 19045 19044 19344 19345 19350 19349
8 19040 19041 19046 19045 19345 19346 19351 19350
8 19041 19042 19047 19046 19346 19347 19352 19351
8 19042 19043 19048 19047 19347 19348 19353 19352
8 19043 10714 10713 19048 19348 10653 10652 19353
8 19044 19045 19050 19049 19349 19350 19355 19354
8 19045 19046 19051 19050 19350 19351 19356 19355
8 19046 19047 19052 19051 19351 19352 19357 19356
8 19047 19048 19053 19052 19352 19353 19358 19357
8 19048 10713 10712 19053 19353 10652 10651 19358
8 19049 19050 19055 19054 19354 19355 19360 19359
8 19050 19051 19056 19055 19355 19356 19361 19360
8 19051 19052 19057 19056 19356 19357 19362 19361
8 19052 19053 19058 19057 19357 19358 19363 19362
8 19053 10712 10711 19058 19358 10651 10650 19363
8 19054 19055 19060 19059 19359 19360 19365 19364
8 19055 19056 19061 19060 19360 19361 19366 19365
8 19056 19057 19062 19061 19361 19362 19367 19366
8 19057 19058 19063 19062 19362 19363 19368 19367
8 19058 10711 10710 19063 19363 10650 10649 19368
8 19059 19060 19065 19064 19364 19365 19370 19369
8 19060 19061 19066 19065 19365 19366 19371 19370
8 19061 19062 19067 19066 19366 19367 19372 19371
8 19062 19063 19068 19067 19367 19368 19373 19372
8 19063 10710 10709 19068 19368 10649 10648 19373
8 19064 19065 19070 19069 19369 19370 19375 19374
8 19065 19066 19071 19070 19370 19371 19376 19375
8 19066 19067 19072 19071 19371 19372 19377 19376
8 19067 19068 19073 19072 19372 19373 19378 19377
8 19068 10709 10708 19073 19373 10648 10647 19378
8 4800 19069 19074 4801 4739 19374 19379 4740
8 19069 19070 19075 19074 19374 19375 19380 19379
8 19070 19071 19076 19075 19375 19376 19381 19380
8 19071 19072 19077 19076 19376 19377 19382 19381
8 19072 19073 19078 19077 19377 19378 19383 19382
8 19073 10708 10707 19078 19378 10647 10646 19383
8 4801 19074 19079 4802 4740 19379 19384 4741
8 19074 19075 19080 19079 19379 19380 19385 19384
8 19075 19076 19081 19080 19380 19381 19386 19385
8 19076 19077 19082 19081 19381 19382 19387 19386
8 19077 19078 19083 19082 19382 19383 19388 19387
8 19078 10707 10706 19083 19383 10646 10645 19388
8 4802 19079 19084 4803 4741 19384 19389 4742
8 19079 19080 19085 19084 19384 19385 19390 19389
8 19080 19081 19086 19085 19385 19386 19391 19390
8 19081 19082 19087 19086 19386 19387 19392 19391
8 19082 19083 19088 19087 19387 19388 19393 19392
8 19083 10706 10705 19088 19388 10645 10644 19393
8 4803 19084 19089 4804 4742 19389 19394 4743
8 19084 19085 19090 19089 19389 19390 19395 19394
8 19085 19086 19091 19090 19390 19391 19396 19395
8 19086 19087 19092 19091 19391 19392 19397 19396
8 19087 19088 19093 19092 19392 19393 19398 19397
8 19088 10705 10704 19093 19393 10644 10643 19398
8 4804 19089 19094 4805 4743 19394 19399 4744
8 19089 19090 19095 19094 19394 19395 19400 19399
8 19090 19091 19096 19095 19395 19396 19401 19400
8 19091 19092 19097 19096 19396 19397 19402 19401
8 19092 19093 19098 19097 19397 19398 19403 19402
8 19093 10704 10703 19098 19398 10643 10642 19403
8 4805 19094 19099 4806 4744 19399 19404 4745
8 19094 19095 19100 19099 19399 19400 19405 19404
8 19095 19096 19101 19100 19400 19401 19406 19405
8 19096 19097 19102 19101 19401 19402 19407 19406
8 19097 19098 19103 19102 19402 19403 19408 19407
8 19098 10703 10702 19103 19403 10642 10641 19408
8 4806 19099 19104 4807 4745 19404 19409 4746
8 19099 19100 19105 19104 19404 19405 19410 19409
8 19100 19101 19106 19105 19405 19406 19411 19410
8 19101 19102 19107 19106 19406 19407 19412 19411
8 19102 19103 19108 19107 19407 19408 19413 19412
8 19103 10702 10701 19108 19408 10641 10640 19413
8 4807 19104 19109 4808 4746 19409 19414 4747
8 19104 19105 19110 19109 19409 19410 19415 19414
8 19105 19106 19111 19110 19410 19411 19416 19415
8 19106 19107 19112 19111 19411 19412 19417 19416
8 19107 19108 19113 19112 19412 19413 19418 19417
8 19108 10701 10700 19113 19413 10640 10639 19418
8 19109 19110 19115 19114 19414 19415 19420 19419
8 19110 19111 19116 19115 19415 19416 19421 19420
8 19111 19112 19117 19116 19416 19417 19422 19421
8 19112 19113 19118 19117 19417 19418 19423 19422
8 19113 10700 10699 19118 19418 10639 10638 19423
8 19114 19115 19120 19119 19419 19420 19425 19424
8 19115 19116 19121 19120 19420 19421 19426 19425
8 19116 19117 19122 19121 19421 19422 19427 19426
8 19117 19118 19123 19122 19422 19423 19428 19427
8 19118 10699 10698 19123 19423 10638 10637 19428
8 19119 19120 19125 19124 19424 19425 19430 19429
8 19120 19121 19126 19125 19425 19426 19431 19430
8 19121 19122 19127 19126 19426 19427 19432 19431
8 19122 19123 19128 19127 19427 19428 19433 19432
8 19123 10698 10697 19128 19428 10637 10636 19433
8 19124 19125 19130 19129 19429 19430 19435 19434
8 19125 19126 19131 19130 19430 19431 19436 19435
8 19126 19127 19132 19131 19431 19432 19437 19436
8 19127 19128 19133 19132 19432 19433 19438 19437
8 19128 10697 10696 19133 19433 10636 10635 19438
8 19129 19130 19135 19134 19434 19435 19440 19439
8 19130 19131 19136 19135 19435 19436 19441 19440
8 19131 19132 19137 19136 19436 19437 19442 19441
8 19132 19133 19138 19137 19437 19438 19443 19442
8 19133 10696 10695 19138 19438 10635 10634 19443
8 4813 19134 19139 4814 4752 19439 19444 4753
8 19134 19135 19140 19139 19439 19440 19445 19444
8 19135 19136 19141 19140 19440 19441 19446 19445
8 19136 19137 19142 19141 19441 19442 19447 19446
8 19137 19138 19143 19142 19442 19443 19448 19447
8 19138 10695 10694 19143 19443 10634 10633 19448
8 4814 19139 19144 4815 4753 19444 19449 4754
8 19139 19140 19145 19144 19444 19445 19450 19449
8 19140 19141 19146 19145 19445 19446 19451 19450
8 19141 19142 19147 19146 19446 19447 19452 19451
8 19142 19143 19148 19147 19447 19448 19453 19452
8 19143 10694 10693 19148 19448 10633 10632 19453
8 4815 19144 19149 4816 4754 19449 19454 4755
8 19144 19145 19150 19149 19449 19450 19455 19454
8 19145 19146 19151 19150 19450 19451 19456 19455
8 19146 19147 19152 19151 19451 19452 19457 19456
8 19147 19148 19153 19152 19452 19453 19458 19457
8 19148 10693 10692 19153 19453 10632 10631 19458
8 4816 19149 19154 4817 4755 19454 19459 4756
8 19149 19150 19155 19154 19454 19455 19460 19459
8 19150 19151 19156 19155 19455 19456 19461 19460
8 19151 19152 19157 19156 19456 19457 19462 19461
8 19152 19153 19158 19157 19457 19458 19463 19462
8 19153 10692 10691 19158 19458 10631 10630 19463
8 4817 19154 19159 4818 4756 19459 19464 4757
8 19154 19155 19160 19159 19459 19460 19465 19464
8 19155 19156 19161 19160 19460 19461 19466 19465
8 19156 19157 19162 19161 19461 19462 19467 19466
8 19157 19158 19163 19162 19462 19463 19468 19467
8 19158 10691 10690 19163 19463 10630 10629 19468
8 4818 19159 19164 4819 4757 19464 19469 4758
8 19159 19160 19165 19164 19464 19465 19470 19469
8 19160 19161 19166 19165 19465 19466 19471 19470
8 19161 19162 19167 19166 19466 19467 19472 19471
8 19162 19163 19168 19167 19467 19468 19473 19472
8 19163 10690 10689 19168 19468 10629 10628 19473
8 4819 19164 19169 4820 4758 19469 19474 4759
8 19164 19165 19170 19169 19469 19470 19475 19474
8 19165 19166 19171 19170 19470 19471 19476 19475
8 19166 19167 19172 19171 19471 19472 19477 19476
8 19167 19168 19173 19172 19472 19473 19478 19477
8 19168 10689 10688 19173 19473 10628 10627 19478
8 4820 19169 19174 4821 4759 19474 19479 4760
8 19169 19170 19175 19174 19474 19475 19480 19479
8 19170 19171 19176 19175 19475 19476 19481 19480
8 19171 19172 19177 19176 19476 19477 19482 19481
8 19172 19173 19178 19177 19477 19478 19483 19482
8 19173 10688 10687 19178 19478 10627 10626 19483
8 4821 19174 19179 4822 4760 19479 19484 4761
8 19174 19175 19180 19179 19479 19480 19485 19484
8 19175 19176 19181 19180 19480 19481 19486 19485
8 19176 19177 19182 19181 19481 19482 19487 19486
8 19177 19178 19183 19182 19482 19483 19488 19487
8 19178 10687 10686 19183 19483 10626 10625 19488
8 4822 19179 19184 4823 4761 19484 19489 4762
8 19179 19180 19185 19184 19484 19485 19490 19489
8 19180 19181 19186 19185 19485 19486 19491 19490
8 19181 19182 19187 19186 19486 19487 19492 19491
8 19182 19183 19188 19187 19487 19488 19493 19492
8 19183 10686 10685 19188 19488 10625 10624 19493
8 4823 19184 12994 137 4762 19489 12989 136
8 19184 19185 12995 12994 19489 19490 12990 12989
8 19185 19186 12996 12995 19490 19491 12991 12990
8 19186 19187 12997 12996 19491 19492 12992 12991
8 19187 19188 12998 12997 19492 19493 12993 12992
8 19188 10685 6158 12998 19493 10624 6159 12993
8 237 11949 19189 4702 238 11954 19494 4641
8 11949 11950 19190 19189 11954 11955 19495 19494
8 11950 11951 19191 19190 11955 11956 19496 19495
8 11951 11952 19192 19191 11956 11957 19497 19496
8 11952 11953 19193 19192 11957 11958 19498 19497
8 11953 6058 10684 19193 11958 6057 10623 19498
8 4702 19189 19194 4703 4641 19494 19499 4642
8 19189 19190 19195 19194 19494 19495 19500 19499
8 19190 19191 19196 19195 19495 19496 19501 19500
8 19191 19192 19197 19196 19496 19497 19502 19501
8 19192 19193 19198 19197 19497 19498 19503 19502
8 19193 10684 10683 19198 19498 10623 10622 19503
8 4703 19194 19199 4704 4642 19499 19504 4643
8 19194 19195 19200 19199 19499 19500 19505 19504
8 19195 19196 19201 19200 19500 19501 19506 19505
8 19196 19197 19202 19201 19501 19502 19507 19506
8 19197 19198 19203 19202 19502 19503 19508 19507
8 19198 10683 10682 19203 19503 10622 10621 19508
8 4704 19199 19204 4705 4643 19504 19509 4644
8 19199 19200 19205 19204 19504 19505 19510 19509
8 19200 19201 19206 19205 19505 19506 19511 19510
8 19201 19202 19207 19206 19506 19507 19512 19511
8 19202 19203 19208 19207 19507 19508 19513 19512
8 19203 10682 10681 19208 19508 10621 10620 19513
8 4705 19204 19209 4706 4644 19509 19514 4645
8 19204 19205 19210 19209 19509 19510 19515 19514
8 19205 19206 19211 19210 19510 19511 19516 19515
8 19206 19207 19212 19211 19511 19512 19517 19516
8 19207 19208 19213 19212 19512 19513 19518 19517
8 19208 10681 10680 19213 19513 10620 10619 19518
8 4706 19209 19214 4707 4645 19514 19519 4646
8 19209 19210 19215 19214 19514 19515 19520 19519
8 19210 19211 19216 19215 19515 19516 19521 19520
8 19211 19212 19217 19216 19516 19517 19522 19521
8 19212 19213 19218 19217 19517 19518 19523 19522
8 19213 10680 10679 19218 19518 10619 10618 19523
8 4707 19214 19219 4708 4646 19519 19524 4647
8 19214 19215 19220 19219 19519 19520 19525 19524
8 19215 19216 19221 19220 19520 19521 19526 19525
8 19216 19217 19222 19221 19521 19522 19527 19526
8 19217 19218 19223 19222 19522 19523 19528 19527
8 19218 10679 10678 19223 19523 10618 10617 19528
8 4708 19219 19224 4709 4647 19524 19529 4648
8 19219 19220 19225 19224 19524 19525 19530 19529
8 19220 19221 19226 19225 19525 19526 19531 19530
8 19221 19222 19227 19226 19526 19527 19532 19531
8 19222 19223 19228 19227 19527 19528 19533 19532
8 19223 10678 10677 19228 19528 10617 10616 19533
8 4709 19224 19229 4710 4648 19529 19534 4649
8 19224 19225 19230 19229 19529 19530 19535 19534
8 19225 19226 19231 19230 19530 19531 19536 19535
8 19226 19227 19232 19231 19531 19532 19537 19536
8 19227 19228 19233 19232 19532 19533 19538 19537
8 19228 10677 10676 19233 19533 10616 10615 19538
8 4710 19229 19234 4711 4649 19534 19539 4650
8 19229 19230 19235 19234 19534 19535 19540 19539
8 19230 19231 19236 19235 19535 19536 19541 19540
8 19231 19232 19237 19236 19536 19537 19542 19541
8 19232 19233 19238 19237 19537 19538 19543 19542
8 19233 10676 10675 19238 19538 10615 10614 19543
8 4711 19234 19239 4712 4650 19539 19544 4651
8 19234 19235 19240 19239 19539 19540 19545 19544
8 19235 19236 19241 19240 19540 19541 19546 19545
8 19236 19237 19242 19241 19541 19542 19547 19546
8 19237 19238 19243 19242 19542 19543 19548 19547
8 19238 10675 10674 19243 19543 10614 10613 19548
8 4712 19239 19244 4713 4651 19544 19549 4652
8 19239 19240 19245 19244 19544 19545 19550 19549
8 19240 19241 19246 19245 19545 19546 19551 19550
8 19241 19242 19247 19246 19546 19547 19552 19551
8 19242 19243 19248 19247 19547 19548 19553 19552
8 19243 10674 10673 19248 19548 10613 10612 19553
8 4713 19244 19249 4714 4652 19549 19554 4653
8 19244 19245 19250 19249 19549 19550 19555 19554
8 19245 19246 19251 19250 19550 19551 19556 19555
8 19246 19247 19252 19251 19551 19552 19557 19556
8 19247 19248 19253 19252 19552 19553 19558 19557
8 19248 10673 10672 19253 19553 10612 10611 19558
8 4714 19249 19254 4715 4653 19554 19559 4654
8 19249 19250 19255 19254 19554 19555 19560 19559
8 19250 19251 19256 19255 19555 19556 19561 19560
8 19251 19252 19257 19256 19556 19557 19562 19561
8 19252 19253 19258 19257 19557 19558 19563 19562
8 19253 10672 10671 19258 19558 10611 10610 19563
8 4715 19254 19259 4716 4654 19559 19564 4655
8 19254 19255 19260 19259 19559 19560 19565 19564
8 19255 19256 19261 19260 19560 19561 19566 19565
8 19256 19257 19262 19261 19561 19562 19567 19566
8 19257 19258 19263 19262 19562 19563 19568 19567
8 19258 10671 10670 19263 19563 10610 10609 19568
8 4716 19259 19264 4717 4655 19564 19569 4656
8 19259 19260 19265 19264 19564 19565 19570 19569
8 19260 19261 19266 19265 19565 19566 19571 19570
8 19261 19262 19267 19266 19566 19567 19572 19571
8 19262 19263 19268 19267 19567 19568 19573 19572
8 19263 10670 10669 19268 19568 10609 10608 19573
8 4717 19264 19269 4718 4656 19569 19574 4657
8 19264 19265 19270 19269 19569 19570 19575 19574
8 19265 19266 19271 19270 19570 19571 19576 19575
8 19266 19267 19272 19271 19571 19572 19577 19576
8 19267 19268 19273 19272 19572 19573 19578 19577
8 19268 10669 10668 19273 19573 10608 10607 19578
8 4718 19269 19274 4719 4657 19574 19579 4658
8 19269 19270 19275 19274 19574 19575 19580 19579
8 19270 19271 19276 19275 19575 19576 19581 19580
8 19271 19272 19277 19276 19576 19577 19582 19581
8 19272 19273 19278 19277 19577 19578 19583 19582
8 19273 10668 10667 19278 19578 10607 10606 19583
8 4719 19274 19279 4720 4658 19579 19584 4659
8 19274 19275 19280 19279 19579 19580 19585 19584
8 19275 19276 19281 19280 19580 19581 19586 19585
8 19276 19277 19282 19281 19581 19582 19587 19586
8 19277 19278 19283 19282 19582 19583 19588 19587
8 19278 10667 10666 19283 19583 10606 10605 19588
8 4720 19279 19284 4721 4659 19584 19589 4660
8 19279 19280 19285 19284 19584 19585 19590 19589
8 19280 19281 19286 19285 19585 19586 19591 19590
8 19281 19282 19287 19286 19586 19587 19592 19591
8 19282 19283 19288 19287 19587 19588 19593 19592
8 19283 10666 10665 19288 19588 10605 10604 19593
8 4721 19284 19289 4722 4660 19589 19594 4661
8 19284 19285 19290 19289 19589 19590 19595 19594
8 19285 19286 19291 19290 19590 19591 19596 19595
8 19286 19287 19292 19291 19591 19592 19597 19596
8 19287 19288 19293 19292 19592 19593 19598 19597
8 19288 10665 10664 19293 19593 10604 10603 19598
8 19289 19290 19295 19294 19594 19595 19600 19599
8 19290 19291 19296 19295 19595 19596 19601 19600
8 19291 19292 19297 19296 19596 19597 19602 19601
8 19292 19293 19298 19297 19597 19598 19603 19602
8 19293 10664 10663 19298 19598 10603 10602 19603
8 19294 19295 19300 19299 19599 19600 19605 19604
8 19295 19296 19301 19300 19600 19601 19606 19605
8 19296 19297 19302 19301 19601 19602 19607 19606
8 19297 19298 19303 19302 19602 19603 19608 19607
8 19298 10663 10662 19303 19603 10602 10601 19608
8 19299 19300 19305 19304 19604 19605 19610 19609
8 19300 19301 19306 19305 19605 19606 19611 19610
8 19301 19302 19307 19306 19606 19607 19612 19611
8 19302 19303 19308 19307 19607 19608 19613 19612
8 19303 10662 10661 19308 19608 10601 10600 19613
8 19304 19305 19310 19309 19609 19610 19615 19614
8 19305 19306 19311 19310 19610 19611 19616 19615
8 19306 19307 19312 19311 19611 19612 19617 19616
8 19307 19308 19313 19312 19612 19613 19618 19617
8 19308 10661 10660 19313 19613 10600 10599 19618
8 19309 19310 19315 19314 19614 19615 19620 19619
8 19310 19311 19316 19315 19615 19616 19621 19620
8 19311 19312 19317 19316 19616 19617 19622 19621
8 19312 19313 19318 19317 19617 19618 19623 19622
8 19313 10660 10659 19318 19618 10599 10598 19623
8 4727 19314 19319 4728 4666 19619 19624 4667
8 19314 19315 19320 19319 19619 19620 19625 19624
8 19315 19316 19321 19320 19620 19621 19626 19625
8 19316 19317 19322 19321 19621 19622 19627 19626
8 19317 19318 19323 19322 19622 19623 19628 19627
8 19318 10659 10658 19323 19623 10598 10597 19628
8 4728 19319 19324 4729 4667 19624 19629 4668
8 19319 19320 19325 19324 19624 19625 19630 19629
8 19320 19321 19326 19325 19625 19626 19631 19630
8 19321 19322 19327 19326 19626 19627 19632 19631
8 19322 19323 19328 19327 19627 19628 19633 19632
8 19323 10658 10657 19328 19628 10597 10596 19633
8 4729 19324 19329 4730 4668 19629 19634 4669
8 19324 19325 19330 19329 19629 19630 19635 19634
8 19325 19326 19331 19330 19630 19631 19636 19635
8 19326 19327 19332 19331 19631 19632 19637 19636
8 19327 19328 19333 19332 19632 19633 19638 19637
8 19328 10657 10656 19333 19633 10596 10595 19638
8 4730 19329 19334 4731 4669 19634 19639 4670
8 19329 19330 19335 19334 19634 19635 19640 19639
8 19330 19331 19336 19335 19635 19636 19641 19640
8 19331 19332 19337 19336 19636 19637 19642 19641
8 19332 19333 19338 19337 19637 19638 19643 19642
8 19333 10656 10655 19338 19638 10595 10594 19643
8 4731 19334 19339 4732 4670 19639 19644 4671
8 19334 19335 19340 19339 19639 19640 19645 19644
8 19335 19336 19341 19340 19640 19641 19646 19645
8 19336 19337 19342 19341 19641 19642 19647 19646
8 19337 19338 19343 19342 19642 19643 19648 19647
8 19338 10655 10654 19343 19643 10594 10593 19648
8 4732 19339 19344 4733 4671 19644 19649 4672
8 19339 19340 19345 19344 19644 19645 19650 19649
8 19340 19341 19346 19345 19645 19646 19651 19650
8 19341 19342 19347 19346 19646 19647 19652 19651
8 19342 19343 19348 19347 19647 19648 19653 19652
8 19343 10654 10653 19348 19648 10593 10592 19653
8 4733 19344 19349 4734 4672 19649 19654 4673
8 19344 19345 19350 19349 19649 19650 19655 19654
8 19345 19346 19351 19350 19650 19651 19656 19655
8 19346 19347 19352 19351 19651 19652 19657 19656
8 19347 19348 19353 19352 19652 19653 19658 19657
8 19348 10653 10652 19353 19653 10592 10591 19658
8 19349 19350 19355 19354 19654 19655 19660 19659
8 19350 19351 19356 19355 19655 19656 19661 19660
8 19351 19352 19357 19356 19656 19657 19662 19661
8 19352 19353 19358 19357 19657 19658 19663 19662
8 19353 10652 10651 19358 19658 10591 10590 19663
8 19354 19355 19360 19359 19659 19660 19665 19664
8 19355 19356 19361 19360 19660 19661 19666 19665
8 19356 19357 19362 19361 19661 19662 19667 19666
8 19357 19358 19363 19362 19662 19663 19668 19667
8 19358 10651 10650 19363 19663 10590 10589 19668
8 19359 19360 19365 19364 19664 19665 19670 19669
8 19360 19361 19366 19365 19665 19666 19671 19670
8 19361 19362 19367 19366 19666 19667 19672 19671
8 19362 19363 19368 19367 19667 19668 19673 19672
8 19363 10650 10649 19368 19668 10589 10588 19673
8 19364 19365 19370 19369 19669 19670 19675 19674
8 19365 19366 19371 19370 19670 19671 19676 19675
8 19366 19367 19372 19371 19671 19672 19677 19676
8 19367 19368 19373 19372 19672 19673 19678 19677
8 19368 10649 10648 19373 19673 10588 10587 19678
8 19369 19370 19375 19374 19674 19675 19680 19679
8 19370 19371 19376 19375 19675 19676 19681 19680
8 19371 19372 19377 19376 19676 19677 19682 19681
8 19372 19373 19378 19377 19677 19678 19683 19682
8 19373 10648 10647 19378 19678 10587 10586 19683
8 4739 19374 19379 4740 4678 19679 19684 4679
8 19374 19375 19380 19379 19679 19680 19685 19684
8 19375 19376 19381 19380 19680 19681 19686 19685
8 19376 19377 19382 19381 19681 19682 19687 19686
8 19377 19378 19383 19382 19682 19683 19688 19687
8 19378 10647 10646 19383 19683 10586 10585 19688
8 4740 19379 19384 4741 4679 19684 19689 4680
8 19379 19380 19385 19384 19684 19685 19690 19689
8 19380 19381 19386 19385 19685 19686 19691 19690
8 19381 19382 19387 19386 19686 19687 19692 19691
8 19382 19383 19388 19387 19687 19688 19693 19692
8 19383 10646 10645 19388 19688 10585 10584 19693
8 4741 19384 19389 4742 4680 19689 19694 4681
8 19384 19385 19390 19389 19689 19690 19695 19694
8 19385 19386 19391 19390 19690 19691 19696 19695
8 19386 19387 19392 19391 19691 19692 19697 19696
8 19387 19388 19393 19392 19692 19693 19698 19697
8 19388 10645 10644 19393 19693 10584 10583 19698
8 4742 19389 19394 4743 4681 19694 19699 4682
8 19389 19390 19395 19394 19694 19695 19700 19699
8 19390 19391 19396 19395 19695 19696 19701 19700
8 19391 19392 19397 19396 19696 19697 19702 19701
8 19392 19393 19398 19397 19697 19698 19703 19702
8 19393 10644 10643 19398 19698 10583 10582 19703
8 4743 19394 19399 4744 4682 19699 19704 4683
8 19394 19395 19400 19399 19699 19700 19705 19704
8 19395 19396 19401 19400 19700 19701 19706 19705
8 19396 19397 19402 19401 19701 19702 19707 19706
8 19397 19398 19403 19402 19702 19703 19708 19707
8 19398 10643 10642 19403 19703 10582 10581 19708
8 4744 19399 19404 4745 4683 19704 19709 4684
8 19399 19400 19405 19404 19704 19705 19710 19709
8 19400 19401 19406 19405 19705 19706 19711 19710
8 19401 19402 19407 19406 19706 19707 19712 19711
8 19402 19403 19408 19407 19707 19708 19713 19712
8 19403 10642 10641 19408 19708 10581 10580 19713
8 4745 19404 19409 4746 4684 19709 19714 4685
8 19404 19405 19410 19409 19709 19710 19715 19714
8 19405 19406 19411 19410 19710 19711 19716 19715
8 19406 19407 19412 19411 19711 19712 19717 19716
8 19407 19408 19413 19412 19712 19713 19718 19717
8 19408 10641 10640 19413 19713 10580 10579 19718
8 4746 19409 19414 4747 4685 19714 19719 4686
8 19409 19410 19415 19414 19714 19715 19720 19719
8 19410 19411 19416 19415 19715 19716 19721 19720
8 19411 19412 19417 19416 19716 19717 19722 19721
8 19412 19413 19418 19417 19717 19718 19723 19722
8 19413 10640 10639 19418 19718 10579 10578 19723
8 19414 19415 19420 19419 19719 19720 19725 19724
8 19415 19416 19421 19420 19720 19721 19726 19725
8 19416 19417 19422 19421 19721 19722 19727 19726
8 19417 19418 19423 19422 19722 19723 19728 19727
8 19418 10639 10638 19423 19723 10578 10577 19728
8 19419 19420 19425 19424 19724 19725 19730 19729
8 19420 19421 19426 19425 19725 19726 19731 19730
8 19421 19422 19427 19426 19726 19727 19732 19731
8 19422 19423 19428 19427 19727 19728 19733 19732
8 19423 10638 10637 19428 19728 10577 10576 19733
8 19424 19425 19430 19429 19729 19730 19735 19734
8 19425 19426 19431 19430 19730 19731 19736 19735
8 19426 19427 19432 19431 19731 19732 19737 19736
8 19427 19428 19433 19432 19732 19733 19738 19737
8 19428 10637 10636 19433 19733 10576 10575 19738
8 19429 19430 19435 19434 19734 19735 19740 19739
8 19430 19431 19436 19435 19735 19736 19741 19740
8 19431 19432 19437 19436 19736 19737 19742 19741
8 19432 19433 19438 19437 19737 19738 19743 19742
8 19433 10636 10635 19438 19738 10575 10574 19743
8 19434 19435 19440 19439 19739 19740 19745 19744
8 19435 19436 19441 19440 19740 19741 19746 19745
8 19436 19437 19442 19441 19741 19742 19747 19746
8 19437 19438 19443 19442 19742 19743 19748 19747
8 19438 10635 10634 19443 19743 10574 10573 19748
8 4752 19439 19444 4753 4691 19744 19749 4692
8 19439 19440 19445 19444 19744 19745 19750 19749
8 19440 19441 19446 19445 19745 19746 19751 19750
8 19441 19442 19447 19446 19746 19747 19752 19751
8 19442 19443 19448 19447 19747 19748 19753 19752
8 19443 10634 10633 19448 19748 10573 10572 19753
8 4753 19444 19449 4754 4692 19749 19754 4693
8 19444 19445 19450 19449 19749 19750 19755 19754
8 19445 19446 19451 19450 19750 19751 19756 19755
8 19446 19447 19452 19451 19751 19752 19757 19756
8 19447 19448 19453 19452 19752 19753 19758 19757
8 19448 10633 10632 19453 19753 10572 10571 19758
8 4754 19449 19454 4755 4693 19754 19759 4694
8 19449 19450 19455 19454 19754 19755 19760 19759
8 19450 19451 19456 19455 19755 19756 19761 19760
8 19451 19452 19457 19456 19756 19757 19762 19761
8 19452 19453 19458 19457 19757 19758 19763 19762
8 19453 10632 10631 19458 19758 10571 10570 19763
8 4755 19454 19459 4756 4694 19759 19764 4695
8 19454 19455 19460 19459 19759 19760 19765 19764
8 19455 19456 19461 19460 19760 19761 19766 19765
8 19456 19457 19462 19461 19761 19762 19767 19766
8 19457 19458 19463 19462 19762 19763 19768 19767
8 19458 10631 10630 19463 19763 10570 10569 19768
8 4756 19459 19464 4757 4695 19764 19769 4696
8 19459 19460 19465 19464 19764 19765 19770 19769
8 19460 19461 19466 19465 19765 19766 19771 19770
8 19461 19462 19467 19466 19766 19767 19772 19771
8 19462 19463 19468 19467 19767 19768 19773 19772
8 19463 10630 10629 19468 19768 10569 10568 19773
8 4757 19464 19469 4758 4696 19769 19774 4697
8 19464 19465 19470 19469 19769 19770 19775 19774
8 19465 19466 19471 19470 19770 19771 19776 19775
8 19466 19467 19472 19471 19771 19772 19777 19776
8 19467 19468 19473 19472 19772 19773 19778 19777
8 19468 10629 10628 19473 19773 10568 10567 19778
8 4758 19469 19474 4759 4697 19774 19779 4698
8 19469 19470 19475 19474 19774 19775 19780 19779
8 19470 19471 19476 19475 19775 19776 19781 19780
8 19471 19472 19477 19476 19776 19777 19782 19781
8 19472 19473 19478 19477 19777 19778 19783 19782
8 19473 10628 10627 19478 19778 10567 10566 19783
8 4759 19474 19479 4760 4698 19779 19784 4699
8 19474 19475 19480 19479 19779 19780 19785 19784
8 19475 19476 19481 19480 19780 19781 19786 19785
8 19476 19477 19482 19481 19781 19782 19787 19786
8 19477 19478 19483 19482 19782 19783 19788 19787
8 19478 10627 10626 19483 19783 10566 10565 19788
8 4760 19479 19484 4761 4699 19784 19789 4700
8 19479 19480 19485 19484 19784 19785 19790 19789
8 19480 19481 19486 19485 19785 19786 19791 19790
8 19481 19482 19487 19486 19786 19787 19792 19791
8 19482 19483 19488 19487 19787 19788 19793 19792
8 19483 10626 10625 19488 19788 10565 10564 19793
8 4761 19484 19489 4762 4700 19789 19794 4701
8 19484 19485 19490 19489 19789 19790 19795 19794
8 19485 19486 19491 19490 19790 19791 19796 19795
8 19486 19487 19492 19491 19791 19792 19797 19796
8 19487 19488 19493 19492 19792 19793 19798 19797
8 19488 10625 10624 19493 19793 10564 10563 19798
8 4762 19489 12989 136 4701 19794 12984 135
8 19489 19490 12990 12989 19794 19795 12985 12984
8 19490 19491 12991 12990 19795 19796 12986 12985
8 19491 19492 12992 12991 19796 19797 12987 12986
8 19492 19493 12993 12992 19797 19798 12988 12987
8 19493 10624 6159 12993 19798 10563 6160 12988
8 238 11954 19494 4641 239 11959 19799 4580
8 11954 11955 19495 19494 11959 11960 19800 19799
8 11955 11956 19496 19495 11960 11961 19801 19800
8 11956 11957 19497 19496 11961 11962 19802 19801
8 11957 11958 19498 19497 11962 11963 19803 19802
8 11958 6057 10623 19498 11963 6056 10562 19803
8 4641 19494 19499 4642 4580 19799 19804 4581
8 19494 19495 19500 19499 19799 19800 19805 19804
8 19495 19496 19501 19500 19800 19801 19806 19805
8 19496 19497 19502 19501 19801 19802 19807 19806
8 19497 19498 19503 19502 19802 19803 19808 19807
8 19498 10623 10622 19503 19803 10562 10561 19808
8 4642 19499 19504 4643 4581 19804 19809 4582
8 19499 19500 19505 19504 19804 19805 19810 19809
8 19500 19501 19506 19505 19805 19806 19811 19810
8 19501 19502 19507 19506 19806 19807 19812 19811
8 19502 19503 19508 19507 19807 19808 19813 19812
8 19503 10622 10621 19508 19808 10561 10560 19813
8 4643 19504 19509 4644 4582 19809 19814 4583
8 19504 19505 19510 19509 19809 19810 19815 19814
8 19505 19506 19511 19510 19810 19811 19816 19815
8 19506 19507 19512 19511 19811 19812 19817 19816
8 19507 19508 19513 19512 19812 19813 19818 19817
8 19508 10621 10620 19513 19813 10560 10559 19818
8 4644 19509 19514 4645 4583 19814 19819 4584
8 19509 19510 19515 19514 19814 19815 19820 19819
8 19510 19511 19516 19515 19815 19816 19821 19820
8 19511 19512 19517 19516 19816 19817 19822 19821
8 19512 19513 19518 19517 19817 19818 19823 19822
8 19513 10620 10619 19518 19818 10559 10558 19823
8 4645 19514 19519 4646 4584 19819 19824 4585
8 19514 19515 19520 19519 19819 19820 19825 19824
8 19515 19516 19521 19520 19820 19821 19826 19825
8 19516 19517 19522 19521 19821 19822 19827 19826
8 19517 19518 19523 19522 19822 19823 19828 19827
8 19518 10619 10618 19523 19823 10558 10557 19828
8 4646 19519 19524 4647 4585 19824 19829 4586
8 19519 19520 19525 19524 19824 19825 19830 19829
8 19520 19521 19526 19525 19825 19826 19831 19830
8 19521 19522 19527 19526 19826 19827 19832 19831
8 19522 19523 19528 19527 19827 19828 19833 19832
8 19523 10618 10617 19528 19828 10557 10556 19833
8 4647 19524 19529 4648 4586 19829 19834 4587
8 19524 19525 19530 19529 19829 19830 19835 19834
8 19525 19526 19531 19530 19830 19831 19836 19835
8 19526 19527 19532 19531 19831 19832 19837 19836
8 19527 19528 19533 19532 19832 19833 19838 19837
8 19528 10617 10616 19533 19833 10556 10555 19838
8 4648 19529 19534 4649 4587 19834 19839 4588
8 19529 19530 19535 19534 19834 19835 19840 19839
8 19530 19531 19536 19535 19835 19836 19841 19840
8 19531 19532 19537 19536 19836 19837 19842 19841
8 19532 19533 19538 19537 19837 19838 19843 19842
8 19533 10616 10615 19538 19838 10555 10554 19843
8 4649 19534 19539 4650 4588 19839 19844 4589
8 19534 19535 19540 19539 19839 19840 19845 19844
8 19535 19536 19541 19540 19840 19841 19846 19845
8 19536 19537 19542 19541 19841 19842 19847 19846
8 19537 19538 19543 19542 19842 19843 19848 19847
8 19538 10615 10614 19543 19843 10554 10553 19848
8 4650 19539 19544 4651 4589 19844 19849 4590
8 19539 19540 19545 19544 19844 19845 19850 19849
8 19540 19541 19546 19545 19845 19846 19851 19850
8 19541 19542 19547 19546 19846 19847 19852 19851
8 19542 19543 19548 19547 19847 19848 19853 19852
8 19543 10614 10613 19548 19848 10553 10552 19853
8 4651 19544 19549 4652 4590 19849 19854 4591
8 19544 19545 19550 19549 19849 19850 19855 19854
8 19545 19546 19551 19550 19850 19851 19856 19855
8 19546 19547 19552 19551 19851 19852 19857 19856
8 19547 19548 19553 19552 19852 19853 19858 19857
8 19548 10613 10612 19553 19853 10552 10551 19858
8 4652 19549 19554 4653 4591 19854 19859 4592
8 19549 19550 19555 19554 19854 19855 19860 19859
8 19550 19551 19556 19555 19855 19856 19861 19860
8 19551 19552 19557 19556 19856 19857 19862 19861
8 19552 19553 19558 19557 19857 19858 19863 19862
8 19553 10612 10611 19558 19858 10551 10550 19863
8 4653 19554 19559 4654 4592 19859 19864 4593
8 19554 19555 19560 19559 19859 19860 19865 19864
8 19555 19556 19561 19560 19860 19861 19866 19865
8 19556 19557 19562 19561 19861 19862 19867 19866
8 19557 19558 19563 19562 19862 19863 19868 19867
8 19558 10611 10610 19563 19863 10550 10549 19868
8 4654 19559 19564 4655 4593 19864 19869 4594
8 19559 19560 19565 19564 19864 19865 19870 19869
8 19560 19561 19566 19565 19865 19866 19871 19870
8 19561 19562 19567 19566 19866 19867 19872 19871
8 19562 19563 19568 19567 19867 19868 19873 19872
8 19563 10610 10609 19568 19868 10549 10548 19873
8 4655 19564 19569 4656 4594 19869 19874 4595
8 19564 19565 19570 19569 19869 19870 19875 19874
8 19565 19566 19571 19570 19870 19871 19876 19875
8 19566 19567 19572 19571 19871 19872 19877 19876
8 19567 19568 19573 19572 19872 19873 19878 19877
8 19568 10609 10608 19573 19873 10548 10547 19878
8 4656 19569 19574 4657 4595 19874 19879 4596
8 19569 19570 19575 19574 19874 19875 19880 19879
8 19570 19571 19576 19575 19875 19876 19881 19880
8 19571 19572 19577 19576 19876 19877 19882 19881
8 19572 19573 19578 19577 19877 19878 19883 19882
8 19573 10608 10607 19578 19878 10547 10546 19883
8 4657 19574 19579 4658 4596 19879 19884 4597
8 19574 19575 19580 19579 19879 19880 19885 19884
8 19575 19576 19581 19580 19880 19881 19886 19885
8 19576 19577 19582 19581 19881 19882 19887 19886
8 19577 19578 19583 19582 19882 19883 19888 19887
8 19578 10607 10606 19583 19883 10546 10545 19888
8 4658 19579 19584 4659 4597 19884 19889 4598
8 19579 19580 19585 19584 19884 19885 19890 19889
8 19580 19581 19586 19585 19885 19886 19891 19890
8 19581 19582 19587 19586 19886 19887 19892 19891
8 19582 19583 19588 19587 19887 19888 19893 19892
8 19583 10606 10605 19588 19888 10545 10544 19893
8 4659 19584 19589 4660 4598 19889 19894 4599
8 19584 19585 19590 19589 19889 19890 19895 19894
8 19585 19586 19591 19590 19890 19891 19896 19895
8 19586 19587 19592 19591 19891 19892 19897 19896
8 19587 19588 19593 19592 19892 19893 19898 19897
8 19588 10605 10604 19593 19893 10544 10543 19898
8 4660 19589 19594 4661 4599 19894 19899 4600
8 19589 19590 19595 19594 19894 19895 19900 19899
8 19590 19591 19596 19595 19895 19896 19901 19900
8 19591 19592 19597 19596 19896 19897 19902 19901
8 19592 19593 19598 19597 19897 19898 19903 19902
8 19593 10604 10603 19598 19898 10543 10542 19903
8 19594 19595 19600 19599 19899 19900 19905 19904
8 19595 19596 19601 19600 19900 19901 19906 19905
8 19596 19597 19602 19601 19901 19902 19907 19906
8 19597 19598 19603 19602 19902 19903 19908 19907
8 19598 10603 10602 19603 19903 10542 10541 19908
8 19599 19600 19605 19604 19904 19905 19910 19909
8 19600 19601 19606 19605 19905 19906 19911 19910
8 19601 19602 19607 19606 19906 19907 19912 19911
8 19602 19603 19608 19607 19907 19908 19913 19912
8 19603 10602 10601 19608 19908 10541 10540 19913
8 19604 19605 19610 19609 19909 19910 19915 19914
8 19605 19606 19611 19610 19910 19911 19916 19915
8 19606 19607 19612 19611 19911 19912 19917 19916
8 19607 19608 19613 19612 19912 19913 19918 19917
8 19608 10601 10600 19613 19913 10540 10539 19918
8 19609 19610 19615 19614 19914 19915 19920 19919
8 19610 19611 19616 19615 19915 19916 19921 19920
8 19611 19612 19617 19616 19916 19917 19922 19921
8 19612 19613 19618 19617 19917 19918 19923 19922
8 19613 10600 10599 19618 19918 10539 10538 19923
8 19614 19615 19620 19619 19919 19920 19925 19924
8 19615 19616 19621 19620 19920 19921 19926 19925
8 19616 19617 19622 19621 19921 19922 19927 19926
8 19617 19618 19623 19622 19922 19923 19928 19927
8 19618 10599 10598 19623 19923 10538 10537 19928
8 4666 19619 19624 4667 4605 19924 19929 4606
8 19619 19620 19625 19624 19924 19925 19930 19929
8 19620 19621 19626 19625 19925 19926 19931 19930
8 19621 19622 19627 19626 19926 19927 19932 19931
8 19622 19623 19628 19627 19927 19928 19933 19932
8 19623 10598 10597 19628 19928 10537 10536 19933
8 4667 19624 19629 4668 4606 19929 19934 4607
8 19624 19625 19630 19629 19929 19930 19935 19934
8 19625 19626 19631 19630 19930 19931 19936 19935
8 19626 19627 19632 19631 19931 19932 19937 19936
8 19627 19628 19633 19632 19932 19933 19938 19937
8 19628 10597 10596 19633 19933 10536 10535 19938
8 4668 19629 19634 4669 4607 19934 19939 4608
8 19629 19630 19635 19634 19934 19935 19940 19939
8 19630 19631 19636 19635 19935 19936 19941 19940
8 19631 19632 19637 19636 19936 19937 19942 19941
8 19632 19633 19638 19637 19937 19938 19943 19942
8 19633 10596 10595 19638 19938 10535 10534 19943
8 4669 19634 19639 4670 4608 19939 19944 4609
8 19634 19635 19640 19639 19939 19940 19945 19944
8 19635 19636 19641 19640 19940 19941 19946 19945
8 19636 19637 19642 19641 19941 19942 19947 19946
8 19637 19638 19643 19642 19942 19943 19948 19947
8 19638 10595 10594 19643 19943 10534 10533 19948
8 4670 19639 19644 4671 4609 19944 19949 4610
8 19639 19640 19645 19644 19944 19945 19950 19949
8 19640 19641 19646 19645 19945 19946 19951 19950
8 19641 19642 19647 19646 19946 19947 19952 19951
8 19642 19643 19648 19647 19947 19948 19953 19952
8 19643 10594 10593 19648 19948 10533 10532 19953
8 4671 19644 19649 4672 4610 19949 19954 4611
8 19644 19645 19650 19649 19949 19950 19955 19954
8 19645 19646 19651 19650 19950 19951 19956 19955
8 19646 19647 19652 19651 19951 19952 19957 19956
8 19647 19648 19653 19652 19952 19953 19958 19957
8 19648 10593 10592 19653 19953 10532 10531 19958
8 4672 19649 19654 4673 4611 19954 19959 4612
8 19649 19650 19655 19654 19954 19955 19960 19959
8 19650 19651 19656 19655 19955 19956 19961 19960
8 19651 19652 19657 19656 19956 19957 19962 19961
8 19652 19653 19658 19657 19957 19958 19963 19962
8 19653 10592 10591 19658 19958 10531 10530 19963
8 19654 19655 19660 19659 19959 19960 19965 19964
8 19655 19656 19661 19660 19960 19961 19966 19965
8 19656 19657 19662 19661 19961 19962 19967 19966
8 19657 19658 19663 19662 19962 19963 19968 19967
8 19658 10591 10590 19663 19963 10530 10529 19968
8 19659 19660 19665 19664 19964 19965 19970 19969
8 19660 19661 19666 19665 19965 19966 19971 19970
8 19661 19662 19667 19666 19966 19967 19972 19971
8 19662 19663 19668 19667 19967 19968 19973 19972
8 19663 10590 10589 19668 19968 10529 10528 19973
8 19664 19665 19670 19669 19969 19970 19975 19974
8 19665 19666 19671 19670 19970 19971 19976 19975
8 19666 19667 19672 19671 19971 19972 19977 19976
8 19667 19668 19673 19672 19972 19973 19978 19977
8 19668 10589 10588 19673 19973 10528 10527 19978
8 19669 19670 19675 19674 19974 19975 19980 19979
8 19670 19671 19676 19675 19975 19976 19981 19980
8 19671 19672 19677 19676 19976 19977 19982 19981
8 19672 19673 19678 19677 19977 19978 19983 19982
8 19673 10588 10587 19678 19978 10527 10526 19983
8 19674 19675 19680 19679 19979 19980 19985 19984
8 19675 19676 19681 19680 19980 19981 19986 19985
8 19676 19677 19682 19681 19981 19982 19987 19986
8 19677 19678 19683 19682 19982 19983 19988 19987
8 19678 10587 10586 19683 19983 10526 10525 19988
8 4678 19679 19684 4679 4617 19984 19989 4618
8 19679 19680 19685 19684 19984 19985 19990 19989
8 19680 19681 19686 19685 19985 19986 19991 19990
8 19681 19682 19687 19686 19986 19987 19992 19991
8 19682 19683 19688 19687 19987 19988 19993 19992
8 19683 10586 10585 19688 19988 10525 10524 19993
8 4679 19684 19689 4680 4618 19989 19994 4619
8 19684 19685 19690 19689 19989 19990 19995 19994
8 19685 19686 19691 19690 19990 19991 19996 19995
8 19686 19687 19692 19691 19991 19992 19997 19996
8 19687 19688 19693 19692 19992 19993 19998 19997
8 19688 10585 10584 19693 19993 10524 10523 19998
8 4680 19689 19694 4681 4619 19994 19999 4620
8 19689 19690 19695 19694 19994 19995 20000 19999
8 19690 19691 19696 19695 19995 19996 20001 20000
8 19691 19692 19697 19696 19996 19997 20002 20001
8 19692 19693 19698 19697 19997 19998 20003 20002
8 19693 10584 10583 19698 19998 10523 10522 20003
8 4681 19694 19699 4682 4620 19999 20004 4621
8 19694 19695 19700 19699 19999 20000 20005 20004
8 19695 19696 19701 19700 20000 20001 20006 20005
8 19696 19697 19702 19701 20001 20002 20007 20006
8 19697 19698 19703 19702 20002 20003 20008 20007
8 19698 10583 10582 19703 20003 10522 10521 20008
8 4682 19699 19704 4683 4621 20004 20009 4622
8 19699 19700 19705 19704 20004 20005 20010 20009
8 19700 19701 19706 19705 20005 20006 20011 20010
8 19701 19702 19707 19706 20006 20007 20012 20011
8 19702 19703 19708 19707 20007 20008 20013 20012
8 19703 10582 10581 19708 20008 10521 10520 20013
8 4683 19704 19709 4684 4622 20009 20014 4623
8 19704 19705 19710 19709 20009 20010 20015 20014
8 19705 19706 19711 19710 20010 20011 20016 20015
8 19706 19707 19712 19711 20011 20012 20017 20016
8 19707 19708 19713 19712 20012 20013 20018 20017
8 19708 10581 10580 19713 20013 10520 10519 20018
8 4684 19709 19714 4685 4623 20014 20019 4624
8 19709 19710 19715 19714 20014 20015 20020 20019
8 19710 19711 19716 19715 20015 20016 20021 20020
8 19711 19712 19717 19716 20016 20017 20022 20021
8 19712 19713 19718 19717 20017 20018 20023 20022
8 19713 10580 10579 19718 20018 10519 10518 20023
8 4685 19714 19719 4686 4624 20019 20024 4625
8 19714 19715 19720 19719 20019 20020 20025 20024
8 19715 19716 19721 19720 20020 20021 20026 20025
8 19716 19717 19722 19721 20021 20022 20027 20026
8 19717 19718 19723 19722 20022 20023 20028 20027
8 19718 10579 10578 19723 20023 10518 10517 20028
8 19719 19720 19725 19724 20024 20025 20030 20029
8 19720 19721 19726 19725 20025 20026 20031 20030
8 19721 19722 19727 19726 20026 20027 20032 20031
8 19722 19723 19728 19727 20027 20028 20033 20032
8 19723 10578 10577 19728 20028 10517 10516 20033
8 19724 19725 19730 19729 20029 20030 20035 20034
8 19725 19726 19731 19730 20030 20031 20036 20035
8 19726 19727 19732 19731 20031 20032 20037 20036
8 19727 19728 19733 19732 20032 20033 20038 20037
8 19728 10577 10576 19733 20033 10516 10515 20038
8 19729 19730 19735 19734 20034 20035 20040 20039
8 19730 19731 19736 19735 20035 20036 20041 20040
8 19731 19732 19737 19736 20036 20037 20042 20041
8 19732 19733 19738 19737 20037 20038 20043 20042
8 19733 10576 10575 19738 20038 10515 10514 20043
8 19734 19735 19740 19739 20039 20040 20045 20044
8 19735 19736 19741 19740 20040 20041 20046 20045
8 19736 19737 19742 19741 20041 20042 20047 20046
8 19737 19738 19743 19742 20042 20043 20048 20047
8 19738 10575 10574 19743 20043 10514 10513 20048
8 19739 19740 19745 19744 20044 20045 20050 20049
8 19740 19741 19746 19745 20045 20046 20051 20050
8 19741 19742 19747 19746 20046 20047 20052 20051
8 19742 19743 19748 19747 20047 20048 20053 20052
8 19743 10574 10573 19748 20048 10513 10512 20053
8 4691 19744 19749 4692 4630 20049 20054 4631
8 19744 19745 19750 19749 20049 20050 20055 20054
8 19745 19746 19751 19750 20050 20051 20056 20055
8 19746 19747 19752 19751 20051 20052 20057 20056
8 19747 19748 19753 19752 20052 20053 20058 20057
8 19748 10573 10572 19753 20053 10512 10511 20058
8 4692 19749 19754 4693 4631 20054 20059 4632
8 19749 19750 19755 19754 20054 20055 20060 20059
8 19750 19751 19756 19755 20055 20056 20061 20060
8 19751 19752 19757 19756 20056 20057 20062 20061
8 19752 19753 19758 19757 20057 20058 20063 20062
8 19753 10572 10571 19758 20058 10511 10510 20063
8 4693 19754 19759 4694 4632 20059 20064 4633
8 19754 19755 19760 19759 20059 20060 20065 20064
8 19755 19756 19761 19760 20060 20061 20066 20065
8 19756 19757 19762 19761 20061 20062 20067 20066
8 19757 19758 19763 19762 20062 20063 20068 20067
8 19758 10571 10570 19763 20063 10510 10509 20068
8 4694 19759 19764 4695 4633 20064 20069 4634
8 19759 19760 19765 19764 20064 20065 20070 20069
8 19760 19761 19766 19765 20065 20066 20071 20070
8 19761 19762 19767 19766 20066 20067 20072 20071
8 19762 19763 19768 19767 20067 20068 20073 20072
8 19763 10570 10569 19768 20068 10509 10508 20073
8 4695 19764 19769 4696 4634 20069 20074 4635
8 19764 19765 19770 19769 20069 20070 20075 20074
8 19765 19766 19771 19770 20070 20071 20076 20075
8 19766 19767 19772 19771 20071 20072 20077 20076
8 19767 19768 19773 19772 20072 20073 20078 20077
8 19768 10569 10568 19773 20073 10508 10507 20078
8 4696 19769 19774 4697 4635 20074 20079 4636
8 19769 19770 19775 19774 20074 20075 20080 20079
8 19770 19771 19776 19775 20075 20076 20081 20080
8 19771 19772 19777 19776 20076 20077 20082 20081
8 19772 19773 19778 19777 20077 20078 20083 20082
8 19773 10568 10567 19778 20078 10507 10506 20083
8 4697 19774 19779 4698 4636 20079 20084 4637
8 19774 19775 19780 19779 20079 20080 20085 20084
8 19775 19776 19781 19780 20080 20081 20086 20085
8 19776 19777 19782 19781 20081 20082 20087 20086
8 19777 19778 19783 19782 20082 20083 20088 20087
8 19778 10567 10566 19783 20083 10506 10505 20088
8 4698 19779 19784 4699 4637 20084 20089 4638
8 19779 19780 19785 19784 20084 20085 20090 20089
8 19780 19781 19786 19785 20085 20086 20091 20090
8 19781 19782 19787 19786 20086 20087 20092 20091
8 19782 19783 19788 19787 20087 20088 20093 20092
8 19783 10566 10565 19788 20088 10505 10504 20093
8 4699 19784 19789 4700 4638 20089 20094 4639
8 19784 19785 19790 19789 20089 20090 20095 20094
8 19785 19786 19791 19790 20090 20091 20096 20095
8 19786 19787 19792 19791 20091 20092 20097 20096
8 19787 19788 19793 19792 20092 20093 20098 20097
8 19788 10565 10564 19793 20093 10504 10503 20098
8 4700 19789 19794 4701 4639 20094 20099 4640
8 19789 19790 19795 19794 20094 20095 20100 20099
8 19790 19791 19796 19795 20095 20096 20101 20100
8 19791 19792 19797 19796 20096 20097 20102 20101
8 19792 19793 19798 19797 20097 20098 20103 20102
8 19793 10564 10563 19798 20098 10503 10502 20103
8 4701 19794 12984 135 4640 20099 12979 134
8 19794 19795 12985 12984 20099 20100 12980 12979
8 19795 19796 12986 12985 20100 20101 12981 12980
8 19796 19797 12987 12986 20101 20102 12982 12981
8 19797 19798 12988 12987 20102 20103 12983 12982
8 19798 10563 6160 12988 20103 10502 6161 12983
8 239 11959 19799 4580 240 11964 20104 4519
8 11959 11960 19800 19799 11964 11965 20105 20104
8 11960 11961 19801 19800 11965 11966 20106 20105
8 11961 11962 19802 19801 11966 11967 20107 20106
8 11962 11963 19803 19802 11967 11968 20108 20107
8 11963 6056 10562 19803 11968 6055 10501 20108
8 4580 19799 19804 4581 4519 20104 20109 4520
8 19799 19800 19805 19804 20104 20105 20110 20109
8 19800 19801 19806 19805 20105 20106 20111 20110
8 19801 19802 19807 19806 20106 20107 20112 20111
8 19802 19803 19808 19807 20107 20108 20113 20112
8 19803 10562 10561 19808 20108 10501 10500 20113
8 4581 19804 19809 4582 4520 20109 20114 4521
8 19804 19805 19810 19809 20109 20110 20115 20114
8 19805 19806 19811 19810 20110 20111 20116 20115
8 19806 19807 19812 19811 20111 20112 20117 20116
8 19807 19808 19813 19812 20112 20113 20118 20117
8 19808 10561 10560 19813 20113 10500 10499 20118
8 4582 19809 19814 4583 4521 20114 20119 4522
8 19809 19810 19815 19814 20114 20115 20120 20119
8 19810 19811 19816 19815 20115 20116 20121 20120
8 19811 19812 19817 19816 20116 20117 20122 20121
8 19812 19813 19818 19817 20117 20118 20123 20122
8 19813 10560 10559 19818 20118 10499 10498 20123
8 4583 19814 19819 4584 4522 20119 20124 4523
8 19814 19815 19820 19819 20119 20120 20125 20124
8 19815 19816 19821 19820 20120 20121 20126 20125
8 19816 19817 19822 19821 20121 20122 20127 20126
8 19817 19818 19823 19822 20122 20123 20128 20127
8 19818 10559 10558 19823 20123 10498 10497 20128
8 4584 19819 19824 4585 4523 20124 20129 4524
8 19819 19820 19825 19824 20124 20125 20130 20129
8 19820 19821 19826 19825 20125 20126 20131 20130
8 19821 19822 19827 19826 20126 20127 20132 20131
8 19822 19823 19828 19827 20127 20128 20133 20132
8 19823 10558 10557 19828 20128 10497 10496 20133
8 4585 19824 19829 4586 4524 20129 20134 4525
8 19824 19825 19830 19829 20129 20130 20135 20134
8 19825 19826 19831 19830 20130 20131 20136 20135
8 19826 19827 19832 19831 20131 20132 20137 20136
8 19827 19828 19833 19832 20132 20133 20138 20137
8 19828 10557 10556 19833 20133 10496 10495 20138
8 4586 19829 19834 4587 4525 20134 20139 4526
8 19829 19830 19835 19834 20134 20135 20140 20139
8 19830 19831 19836 19835 20135 20136 20141 20140
8 19831 19832 19837 19836 20136 20137 20142 20141
8 19832 19833 19838 19837 20137 20138 20143 20142
8 19833 10556 10555 19838 20138 10495 10494 20143
8 4587 19834 19839 4588 4526 20139 20144 4527
8 19834 19835 19840 19839 20139 20140 20145 20144
8 19835 19836 19841 19840 20140 20141 20146 20145
8 19836 19837 19842 19841 20141 20142 20147 20146
8 19837 19838 19843 19842 20142 20143 20148 20147
8 19838 10555 10554 19843 20143 10494 10493 20148
8 4588 19839 19844 4589 4527 20144 20149 4528
8 19839 19840 19845 19844 20144 20145 20150 20149
8 19840 19841 19846 19845 20145 20146 20151 20150
8 19841 19842 19847 19846 20146 20147 20152 20151
8 19842 19843 19848 19847 20147 20148 20153 20152
8 19843 10554 10553 19848 20148 10493 10492 20153
8 4589 19844 19849 4590 4528 20149 20154 4529
8 19844 19845 19850 19849 20149 20150 20155 20154
8 19845 19846 19851 19850 20150 20151 20156 20155
8 19846 19847 19852 19851 20151 20152 20157 20156
8 19847 19848 19853 19852 20152 20153 20158 20157
8 19848 10553 10552 19853 20153 10492 10491 20158
8 4590 19849 19854 4591 4529 20154 20159 4530
8 19849 19850 19855 19854 20154 20155 20160 20159
8 19850 19851 19856 19855 20155 20156 20161 20160
8 19851 19852 19857 19856 20156 20157 20162 20161
8 19852 19853 19858 19857 20157 20158 20163 20162
8 19853 10552 10551 19858 20158 10491 10490 20163
8 4591 19854 19859 4592 4530 20159 20164 4531
8 19854 19855 19860 19859 20159 20160 20165 20164
8 19855 19856 19861 19860 20160 20161 20166 20165
8 19856 19857 19862 19861 20161 20162 20167 20166
8 19857 19858 19863 19862 20162 20163 20168 20167
8 19858 10551 10550 19863 20163 10490 10489 20168
8 4592 19859 19864 4593 4531 20164 20169 4532
8 19859 19860 19865 19864 20164 20165 20170 20169
8 19860 19861 19866 19865 20165 20166 20171 20170
8 19861 19862 19867 19866 20166 20167 20172 20171
8 19862 19863 19868 19867 20167 20168 20173 20172
8 19863 10550 10549 19868 20168 10489 10488 20173
8 4593 19864 19869 4594 4532 20169 20174 4533
8 19864 19865 19870 19869 20169 20170 20175 20174
8 19865 19866 19871 19870 20170 20171 20176 20175
8 19866 19867 19872 19871 20171 20172 20177 20176
8 19867 19868 19873 19872 20172 20173 20178 20177
8 19868 10549 10548 19873 20173 10488 10487 20178
8 4594 19869 19874 4595 4533 20174 20179 4534
8 19869 19870 19875 19874 20174 20175 20180 20179
8 19870 19871 19876 19875 20175 20176 20181 20180
8 19871 19872 19877 19876 20176 20177 20182 20181
8 19872 19873 19878 19877 20177 20178 20183 20182
8 19873 10548 10547 19878 20178 10487 10486 20183
8 4595 19874 19879 4596 4534 20179 20184 4535
8 19874 19875 19880 19879 20179 20180 20185 20184
8 19875 19876 19881 19880 20180 20181 20186 20185
8 19876 19877 19882 19881 20181 20182 20187 20186
8 19877 19878 19883 19882 20182 20183 20188 20187
8 19878 10547 10546 19883 20183 10486 10485 20188
8 4596 19879 19884 4597 4535 20184 20189 4536
8 19879 19880 19885 19884 20184 20185 20190 20189
8 19880 19881 19886 19885 20185 20186 20191 20190
8 19881 19882 19887 19886 20186 20187 20192 20191
8 19882 19883 19888 19887 20187 20188 20193 20192
8 19883 10546 10545 19888 20188 10485 10484 20193
8 4597 19884 19889 4598 4536 20189 20194 4537
8 19884 19885 19890 19889 20189 20190 20195 20194
8 19885 19886 19891 19890 20190 20191 20196 20195
8 19886 19887 19892 19891 20191 20192 20197 20196
8 19887 19888 19893 19892 20192 20193 20198 20197
8 19888 10545 10544 19893 20193 10484 10483 20198
8 4598 19889 19894 4599 4537 20194 20199 4538
8 19889 19890 19895 19894 20194 20195 20200 20199
8 19890 19891 19896 19895 20195 20196 20201 20200
8 19891 19892 19897 19896 20196 20197 20202 20201
8 19892 19893 19898 19897 20197 20198 20203 20202
8 19893 10544 10543 19898 20198 10483 10482 20203
8 4599 19894 19899 4600 4538 20199 20204 4539
8 19894 19895 19900 19899 20199 20200 20205 20204
8 19895 19896 19901 19900 20200 20201 20206 20205
8 19896 19897 19902 19901 20201 20202 20207 20206
8 19897 19898 19903 19902 20202 20203 20208 20207
8 19898 10543 10542 19903 20203 10482 10481 20208
8 19899 19900 19905 19904 20204 20205 20210 20209
8 19900 19901 19906 19905 20205 20206 20211 20210
8 19901 19902 19907 19906 20206 20207 20212 20211
8 19902 19903 19908 19907 20207 20208 20213 20212
8 19903 10542 10541 19908 20208 10481 10480 20213
8 19904 19905 19910 19909 20209 20210 20215 20214
8 19905 19906 19911 19910 20210 20211 20216 20215
8 19906 19907 19912 19911 20211 20212 20217 20216
8 19907 19908 19913 19912 20212 20213 20218 20217
8 19908 10541 10540 19913 20213 10480 10479 20218
8 19909 19910 19915 19914 20214 20215 20220 20219
8 19910 19911 19916 19915 20215 20216 20221 20220
8 19911 19912 19917 19916 20216 20217 20222 20221
8 19912 19913 19918 19917 20217 20218 20223 20222
8 19913 10540 10539 19918 20218 10479 10478 20223
8 19914 19915 19920 19919 20219 20220 20225 20224
8 19915 19916 19921 19920 20220 20221 20226 20225
8 19916 19917 19922 19921 20221 20222 20227 20226
8 19917 19918 19923 19922 20222 20223 20228 20227
8 19918 10539 10538 19923 20223 10478 10477 20228
8 19919 19920 19925 19924 20224 20225 20230 20229
8 19920 19921 19926 19925 20225 20226 20231 20230
8 19921 19922 19927 19926 20226 20227 20232 20231
8 19922 19923 19928 19927 20227 20228 20233 20232
8 19923 10538 10537 19928 20228 10477 10476 20233
8 4605 19924 19929 4606 4544 20229 20234 4545
8 19924 19925 19930 19929 20229 20230 20235 20234
8 19925 19926 19931 19930 20230 20231 20236 20235
8 19926 19927 19932 19931 20231 20232 20237 20236
8 19927 19928 19933 19932 20232 20233 20238 20237
8 19928 10537 10536 19933 20233 10476 10475 20238
8 4606 19929 19934 4607 4545 20234 20239 4546
8 19929 19930 19935 19934 20234 20235 20240 20239
8 19930 19931 19936 19935 20235 20236 20241 20240
8 19931 19932 19937 19936 20236 20237 20242 20241
8 19932 19933 19938 19937 20237 20238 20243 20242
8 19933 10536 10535 19938 20238 10475 10474 20243
8 4607 19934 19939 4608 4546 20239 20244 4547
8 19934 19935 19940 19939 20239 20240 20245 20244
8 19935 19936 19941 19940 20240 20241 20246 20245
8 19936 19937 19942 19941 20241 20242 20247 20246
8 19937 19938 19943 19942 20242 20243 20248 20247
8 19938 10535 10534 19943 20243 10474 10473 20248
8 4608 19939 19944 4609 4547 20244 20249 4548
8 19939 19940 19945 19944 20244 20245 20250 20249
8 19940 19941 19946 19945 20245 20246 20251 20250
8 19941 19942 19947 19946 20246 20247 20252 20251
8 19942 19943 19948 19947 20247 20248 20253 20252
8 19943 10534 10533 19948 20248 10473 10472 20253
8 4609 19944 19949 4610 4548 20249 20254 4549
8 19944 19945 19950 19949 20249 20250 20255 20254
8 19945 19946 19951 19950 20250 20251 20256 20255
8 19946 19947 19952 19951 20251 20252 20257 20256
8 19947 19948 19953 19952 20252 20253 20258 20257
8 19948 10533 10532 19953 20253 10472 10471 20258
8 4610 19949 19954 4611 4549 20254 20259 4550
8 19949 19950 19955 19954 20254 20255 20260 20259
8 19950 19951 19956 19955 20255 20256 20261 20260
8 19951 19952 19957 19956 20256 20257 20262 20261
8 19952 19953 19958 19957 20257 20258 20263 20262
8 19953 10532 10531 19958 20258 10471 10470 20263
8 4611 19954 19959 4612 4550 20259 20264 4551
8 19954 19955 19960 19959 20259 20260 20265 20264
8 19955 19956 19961 19960 20260 20261 20266 20265
8 19956 19957 19962 19961 20261 20262 20267 20266
8 19957 19958 19963 19962 20262 20263 20268 20267
8 19958 10531 10530 19963 20263 10470 10469 20268
8 19959 19960 19965 19964 20264 20265 20270 20269
8 19960 19961 19966 19965 20265 20266 20271 20270
8 19961 19962 19967 19966 20266 20267 20272 20271
8 19962 19963 19968 19967 20267 20268 20273 20272
8 19963 10530 10529 19968 20268 10469 10468 20273
8 19964 19965 19970 19969 20269 20270 20275 20274
8 19965 19966 19971 19970 20270 20271 20276 20275
8 19966 19967 19972 19971 20271 20272 20277 20276
8 19967 19968 19973 19972 20272 20273 20278 20277
8 19968 10529 10528 19973 20273 10468 10467 20278
8 19969 19970 19975 19974 20274 20275 20280 20279
8 19970 19971 19976 19975 20275 20276 20281 20280
8 19971 19972 19977 19976 20276 20277 20282 20281
8 19972 19973 19978 19977 20277 20278 20283 20282
8 19973 10528 10527 19978 20278 10467 10466 20283
8 19974 19975 19980 19979 20279 20280 20285 20284
8 19975 19976 19981 19980 20280 20281 20286 20285
8 19976 19977 19982 19981 20281 20282 20287 20286
8 19977 19978 19983 19982 20282 20283 20288 20287
8 19978 10527 10526 19983 20283 10466 10465 20288
8 19979 19980 19985 19984 20284 20285 20290 20289
8 19980 19981 19986 19985 20285 20286 20291 20290
8 19981 19982 19987 19986 20286 20287 20292 20291
8 19982 19983 19988 19987 20287 20288 20293 20292
8 19983 10526 10525 19988 20288 10465 10464 20293
8 4617 19984 19989 4618 4556 20289 20294 4557
8 19984 19985 19990 19989 20289 20290 20295 20294
8 19985 19986 19991 19990 20290 20291 20296 20295
8 19986 19987 19992 19991 20291 20292 20297 20296
8 19987 19988 19993 19992 20292 20293 20298 20297
8 19988 10525 10524 19993 20293 10464 10463 20298
8 4618 19989 19994 4619 4557 20294 20299 4558
8 19989 19990 19995 19994 20294 20295 20300 20299
8 19990 19991 19996 19995 20295 20296 20301 20300
8 19991 19992 19997 19996 20296 20297 20302 20301
8 19992 19993 19998 19997 20297 20298 20303 20302
8 19993 10524 10523 19998 20298 10463 10462 20303
8 4619 19994 19999 4620 4558 20299 20304 4559
8 19994 19995 20000 19999 20299 20300 20305 20304
8 19995 19996 20001 20000 20300 20301 20306 20305
8 19996 19997 20002 20001 20301 20302 20307 20306
8 19997 19998 20003 20002 20302 20303 20308 20307
8 19998 10523 10522 20003 20303 10462 10461 20308
8 4620 19999 20004 4621 4559 20304 20309 4560
8 19999 20000 20005 20004 20304 20305 20310 20309
8 20000 20001 20006 20005 20305 20306 20311 20310
8 20001 20002 20007 20006 20306 20307 20312 20311
8 20002 20003 20008 20007 20307 20308 20313 20312
8 20003 10522 10521 20008 20308 10461 10460 20313
8 4621 20004 20009 4622 4560 20309 20314 4561
8 20004 20005 20010 20009 20309 20310 20315 20314
8 20005 20006 20011 20010 20310 20311 20316 20315
8 20006 20007 20012 20011 20311 20312 20317 20316
8 20007 20008 20013 20012 20312 20313 20318 20317
8 20008 10521 10520 20013 20313 10460 10459 20318
8 4622 20009 20014 4623 4561 20314 20319 4562
8 20009 20010 20015 20014 20314 20315 20320 20319
8 20010 20011 20016 20015 20315 20316 20321 20320
8 20011 20012 20017 20016 20316 20317 20322 20321
8 20012 20013 20018 20017 20317 20318 20323 20322
8 20013 10520 10519 20018 20318 10459 10458 20323
8 4623 20014 20019 4624 4562 20319 20324 4563
8 20014 20015 20020 20019 20319 20320 20325 20324
8 20015 20016 20021 20020 20320 20321 20326 20325
8 20016 20017 20022 20021 20321 20322 20327 20326
8 20017 20018 20023 20022 20322 20323 20328 20327
8 20018 10519 10518 20023 20323 10458 10457 20328
8 4624 20019 20024 4625 4563 20324 20329 4564
8 20019 20020 20025 20024 20324 20325 20330 20329
8 20020 20021 20026 20025 20325 20326 20331 20330
8 20021 20022 20027 20026 20326 20327 20332 20331
8 20022 20023 20028 20027 20327 20328 20333 20332
8 20023 10518 10517 20028 20328 10457 10456 20333
8 20024 20025 20030 20029 20329 20330 20335 20334
8 20025 20026 20031 20030 20330 20331 20336 20335
8 20026 20027 20032 20031 20331 20332 20337 20336
8 20027 20028 20033 20032 20332 20333 20338 20337
8 20028 10517 10516 20033 20333 10456 10455 20338
8 20029 20030 20035 20034 20334 20335 20340 20339
8 20030 20031 20036 20035 20335 20336 20341 20340
8 20031 20032 20037 20036 20336 20337 20342 20341
8 20032 20033 20038 20037 20337 20338 20343 20342
8 20033 10516 10515 20038 20338 10455 10454 20343
8 20034 20035 20040 20039 20339 20340 20345 20344
8 20035 20036 20041 20040 20340 20341 20346 20345
8 20036 20037 20042 20041 20341 20342 20347 20346
8 20037 20038 20043 20042 20342 20343 20348 20347
8 20038 10515 10514 20043 20343 10454 10453 20348
8 20039 20040 20045 20044 20344 20345 20350 20349
8 20040 20041 20046 20045 20345 20346 20351 20350
8 20041 20042 20047 20046 20346 20347 20352 20351
8 20042 20043 20048 20047 20347 20348 20353 20352
8 20043 10514 10513 20048 20348 10453 10452 20353
8 20044 20045 20050 20049 20349 20350 20355 20354
8 20045 20046 20051 20050 20350 20351 20356 20355
8 20046 20047 20052 20051 20351 20352 20357 20356
8 20047 20048 20053 20052 20352 20353 20358 20357
8 20048 10513 10512 20053 20353 10452 10451 20358
8 4630 20049 20054 4631 4569 20354 20359 4570
8 20049 20050 20055 20054 20354 20355 20360 20359
8 20050 20051 20056 20055 20355 20356 20361 20360
8 20051 20052 20057 20056 20356 20357 20362 20361
8 20052 20053 20058 20057 20357 20358 20363 20362
8 20053 10512 10511 20058 20358 10451 10450 20363
8 4631 20054 20059 4632 4570 20359 20364 4571
8 20054 20055 20060 20059 20359 20360 20365 20364
8 20055 20056 20061 20060 20360 20361 20366 20365
8 20056 20057 20062 20061 20361 20362 20367 20366
8 20057 20058 20063 20062 20362 20363 20368 20367
8 20058 10511 10510 20063 20363 10450 10449 20368
8 4632 20059 20064 4633 4571 20364 20369 4572
8 20059 20060 20065 20064 20364 20365 20370 20369
8 20060 20061 20066 20065 20365 20366 20371 20370
8 20061 20062 20067 20066 20366 20367 20372 20371
8 20062 20063 20068 20067 20367 20368 20373 20372
8 20063 10510 10509 20068 20368 10449 10448 20373
8 4633 20064 20069 4634 4572 20369 20374 4573
8 20064 20065 20070 20069 20369 20370 20375 20374
8 20065 20066 20071 20070 20370 20371 20376 20375
8 20066 20067 20072 20071 20371 20372 20377 20376
8 20067 20068 20073 20072 20372 20373 20378 20377
8 20068 10509 10508 20073 20373 10448 10447 20378
8 4634 20069 20074 4635 4573 20374 20379 4574
8 20069 20070 20075 20074 20374 20375 20380 20379
8 20070 20071 20076 20075 20375 20376 20381 20380
8 20071 20072 20077 20076 20376 20377 20382 20381
8 20072 20073 20078 20077 20377 20378 20383 20382
8 20073 10508 10507 20078 20378 10447 10446 20383
8 4635 20074 20079 4636 4574 20379 20384 4575
8 20074 20075 20080 20079 20379 20380 20385 20384
8 20075 20076 20081 20080 20380 20381 20386 20385
8 20076 20077 20082 20081 20381 20382 20387 20386
8 20077 20078 20083 20082 20382 20383 20388 20387
8 20078 10507 10506 20083 20383 10446 10445 20388
8 4636 20079 20084 4637 4575 20384 20389 4576
8 20079 20080 20085 20084 20384 20385 20390 20389
8 20080 20081 20086 20085 20385 20386 20391 20390
8 20081 20082 20087 20086 20386 20387 20392 20391
8 20082 20083 20088 20087 20387 20388 20393 20392
8 20083 10506 10505 20088 20388 10445 10444 20393
8 4637 20084 20089 4638 4576 20389 20394 4577
8 20084 20085 20090 20089 20389 20390 20395 20394
8 20085 20086 20091 20090 20390 20391 20396 20395
8 20086 20087 20092 20091 20391 20392 20397 20396
8 20087 20088 20093 20092 20392 20393 20398 20397
8 20088 10505 10504 20093 20393 10444 10443 20398
8 4638 20089 20094 4639 4577 20394 20399 4578
8 20089 20090 20095 20094 20394 20395 20400 20399
8 20090 20091 20096 20095 20395 20396 20401 20400
8 20091 20092 20097 20096 20396 20397 20402 20401
8 20092 20093 20098 20097 20397 20398 20403 20402
8 20093 10504 10503 20098 20398 10443 10442 20403
8 4639 20094 20099 4640 4578 20399 20404 4579
8 20094 20095 20100 20099 20399 20400 20405 20404
8 20095 20096 20101 20100 20400 20401 20406 20405
8 20096 20097 20102 20101 20401 20402 20407 20406
8 20097 20098 20103 20102 20402 20403 20408 20407
8 20098 10503 10502 20103 20403 10442 10441 20408
8 4640 20099 12979 134 4579 20404 12974 133
8 20099 20100 12980 12979 20404 20405 12975 12974
8 20100 20101 12981 12980 20405 20406 12976 12975
8 20101 20102 12982 12981 20406 20407 12977 12976
8 20102 20103 12983 12982 20407 20408 12978 12977
8 20103 10502 6161 12983 20408 10441 6162 12978
8 240 11964 20104 4519 241 11969 20409 4458
8 11964 11965 20105 20104 11969 11970 20410 20409
8 11965 11966 20106 20105 11970 11971 20411 20410
8 11966 11967 20107 20106 11971 11972 20412 20411
8 11967 11968 20108 20107 11972 11973 20413 20412
8 11968 6055 10501 20108 11973 6054 10440 20413
8 4519 20104 20109 4520 4458 20409 20414 4459
8 20104 20105 20110 20109 20409 20410 20415 20414
8 20105 20106 20111 20110 20410 20411 20416 20415
8 20106 20107 20112 20111 20411 20412 20417 20416
8 20107 20108 20113 20112 20412 20413 20418 20417
8 20108 10501 10500 20113 20413 10440 10439 20418
8 4520 20109 20114 4521 4459 20414 20419 4460
8 20109 20110 20115 20114 20414 20415 20420 20419
8 20110 20111 20116 20115 20415 20416 20421 20420
8 20111 20112 20117 20116 20416 20417 20422 20421
8 20112 20113 20118 20117 20417 20418 20423 20422
8 20113 10500 10499 20118 20418 10439 10438 20423
8 4521 20114 20119 4522 4460 20419 20424 4461
8 20114 20115 20120 20119 20419 20420 20425 20424
8 20115 20116 20121 20120 20420 20421 20426 20425
8 20116 20117 20122 20121 20421 20422 20427 20426
8 20117 20118 20123 20122 20422 20423 20428 20427
8 20118 10499 10498 20123 20423 10438 10437 20428
8 4522 20119 20124 4523 4461 20424 20429 4462
8 20119 20120 20125 20124 20424 20425 20430 20429
8 20120 20121 20126 20125 20425 20426 20431 20430
8 20121 20122 20127 20126 20426 20427 20432 20431
8 20122 20123 20128 20127 20427 20428 20433 20432
8 20123 10498 10497 20128 20428 10437 10436 20433
8 4523 20124 20129 4524 4462 20429 20434 4463
8 20124 20125 20130 20129 20429 20430 20435 20434
8 20125 20126 20131 20130 20430 20431 20436 20435
8 20126 20127 20132 20131 20431 20432 20437 20436
8 20127 20128 20133 20132 20432 20433 20438 20437
8 20128 10497 10496 20133 20433 10436 10435 20438
8 4524 20129 20134 4525 4463 20434 20439 4464
8 20129 20130 20135 20134 20434 20435 20440 20439
8 20130 20131 20136 20135 20435 20436 20441 20440
8 20131 20132 20137 20136 20436 20437 20442 20441
8 20132 20133 20138 20137 20437 20438 20443 20442
8 20133 10496 10495 20138 20438 10435 10434 20443
8 4525 20134 20139 4526 4464 20439 20444 4465
8 20134 20135 20140 20139 20439 20440 20445 20444
8 20135 20136 20141 20140 20440 20441 20446 20445
8 20136 20137 20142 20141 20441 20442 20447 20446
8 20137 20138 20143 20142 20442 20443 20448 20447
8 20138 10495 10494 20143 20443 10434 10433 20448
8 4526 20139 20144 4527 4465 20444 20449 4466
8 20139 20140 20145 20144 20444 20445 20450 20449
8 20140 20141 20146 20145 20445 20446 20451 20450
8 20141 20142 20147 20146 20446 20447 20452 20451
8 20142 20143 20148 20147 20447 20448 20453 20452
8 20143 10494 10493 20148 20448 10433 10432 20453
8 4527 20144 20149 4528 4466 20449 20454 4467
8 20144 20145 20150 20149 20449 20450 20455 20454
8 20145 20146 20151 20150 20450 20451 20456 20455
8 20146 20147 20152 20151 20451 20452 20457 20456
8 20147 20148 20153 20152 20452 20453 20458 20457
8 20148 10493 10492 20153 20453 10432 10431 20458
8 4528 20149 20154 4529 4467 20454 20459 4468
8 20149 20150 20155 20154 20454 20455 20460 20459
8 20150 20151 20156 20155 20455 20456 20461 20460
8 20151 20152 20157 20156 20456 20457 20462 20461
8 20152 20153 20158 20157 20457 20458 20463 20462
8 20153 10492 10491 20158 20458 10431 10430 20463
8 4529 20154 20159 4530 4468 20459 20464 4469
8 20154 20155 20160 20159 20459 20460 20465 20464
8 20155 20156 20161 20160 20460 20461 20466 20465
8 20156 20157 20162 20161 20461 20462 20467 20466
8 20157 20158 20163 20162 20462 20463 20468 20467
8 20158 10491 10490 20163 20463 10430 10429 20468
8 4530 20159 20164 4531 4469 20464 20469 4470
8 20159 20160 20165 20164 20464 20465 20470 20469
8 20160 20161 20166 20165 20465 20466 20471 20470
8 20161 20162 20167 20166 20466 20467 20472 20471
8 20162 20163 20168 20167 20467 20468 20473 20472
8 20163 10490 10489 20168 20468 10429 10428 20473
8 4531 20164 20169 4532 4470 20469 20474 4471
8 20164 20165 20170 20169 20469 20470 20475 20474
8 20165 20166 20171 20170 20470 20471 20476 20475
8 20166 20167 20172 20171 20471 20472 20477 20476
8 20167 20168 20173 20172 20472 20473 20478 20477
8 20168 10489 10488 20173 20473 10428 10427 20478
8 4532 20169 20174 4533 4471 20474 20479 4472
8 20169 20170 20175 20174 20474 20475 20480 20479
8 20170 20171 20176 20175 20475 20476 20481 20480
8 20171 20172 20177 20176 20476 20477 20482 20481
8 20172 20173 20178 20177 20477 20478 20483 20482
8 20173 10488 10487 20178 20478 10427 10426 20483
8 4533 20174 20179 4534 4472 20479 20484 4473
8 20174 20175 20180 20179 20479 20480 20485 20484
8 20175 20176 20181 20180 20480 20481 20486 20485
8 20176 20177 20182 20181 20481 20482 20487 20486
8 20177 20178 20183 20182 20482 20483 20488 20487
8 20178 10487 10486 20183 20483 10426 10425 20488
8 4534 20179 20184 4535 4473 20484 20489 4474
8 20179 20180 20185 20184 20484 20485 20490 20489
8 20180 20181 20186 20185 20485 20486 20491 20490
8 20181 20182 20187 20186 20486 20487 20492 20491
8 20182 20183 20188 20187 20487 20488 20493 20492
8 20183 10486 10485 20188 20488 10425 10424 20493
8 4535 20184 20189 4536 4474 20489 20494 4475
8 20184 20185 20190 20189 20489 20490 20495 20494
8 20185 20186 20191 20190 20490 20491 20496 20495
8 20186 20187 20192 20191 20491 20492 20497 20496
8 20187 20188 20193 20192 20492 20493 20498 20497
8 20188 10485 10484 20193 20493 10424 10423 20498
8 4536 20189 20194 4537 4475 20494 20499 4476
8 20189 20190 20195 20194 20494 20495 20500 20499
8 20190 20191 20196 20195 20495 20496 20501 20500
8 20191 20192 20197 20196 20496 20497 20502 20501
8 20192 20193 20198 20197 20497 20498 20503 20502
8 20193 10484 10483 20198 20498 10423 10422 20503
8 4537 20194 20199 4538 4476 20499 20504 4477
8 20194 20195 20200 20199 20499 20500 20505 20504
8 20195 20196 20201 20200 20500 20501 20506 20505
8 20196 20197 20202 20201 20501 20502 20507 20506
8 20197 20198 20203 20202 20502 20503 20508 20507
8 20198 10483 10482 20203 20503 10422 10421 20508
8 4538 20199 20204 4539 4477 20504 20509 4478
8 20199 20200 20205 20204 20504 20505 20510 20509
8 20200 20201 20206 20205 20505 20506 20511 20510
8 20201 20202 20207 20206 20506 20507 20512 20511
8 20202 20203 20208 20207 20507 20508 20513 20512
8 20203 10482 10481 20208 20508 10421 10420 20513
8 20204 20205 20210 20209 20509 20510 20515 20514
8 20205 20206 20211 20210 20510 20511 20516 20515
8 20206 20207 20212 20211 20511 20512 20517 20516
8 20207 20208 20213 20212 20512 20513 20518 20517
8 20208 10481 10480 20213 20513 10420 10419 20518
8 20209 20210 20215 20214 20514 20515 20520 20519
8 20210 20211 20216 20215 20515 20516 20521 20520
8 20211 20212 20217 20216 20516 20517 20522 20521
8 20212 20213 20218 20217 20517 20518 20523 20522
8 20213 10480 10479 20218 20518 10419 10418 20523
8 20214 20215 20220 20219 20519 20520 20525 20524
8 20215 20216 20221 20220 20520 20521 20526 20525
8 20216 20217 20222 20221 20521 20522 20527 20526
8 20217 20218 20223 20222 20522 20523 20528 20527
8 20218 10479 10478 20223 20523 10418 10417 20528
8 20219 20220 20225 20224 20524 20525 20530 20529
8 20220 20221 20226 20225 20525 20526 20531 20530
8 20221 20222 20227 20226 20526 20527 20532 20531
8 20222 20223 20228 20227 20527 20528 20533 20532
8 20223 10478 10477 20228 20528 10417 10416 20533
8 20224 20225 20230 20229 20529 20530 20535 20534
8 20225 20226 20231 20230 20530 20531 20536 20535
8 20226 20227 20232 20231 20531 20532 20537 20536
8 20227 20228 20233 20232 20532 20533 20538 20537
8 20228 10477 10476 20233 20533 10416 10415 20538
8 20229 20230 20235 20234 20534 20535 20540 20539
8 20230 20231 20236 20235 20535 20536 20541 20540
8 20231 20232 20237 20236 20536 20537 20542 20541
8 20232 20233 20238 20237 20537 20538 20543 20542
8 20233 10476 10475 20238 20538 10415 10414 20543
8 20234 20235 20240 20239 20539 20540 20545 20544
8 20235 20236 20241 20240 20540 20541 20546 20545
8 20236 20237 20242 20241 20541 20542 20547 20546
8 20237 20238 20243 20242 20542 20543 20548 20547
8 20238 10475 10474 20243 20543 10414 10413 20548
8 20239 20240 20245 20244 20544 20545 20550 20549
8 20240 20241 20246 20245 20545 20546 20551 20550
8 20241 20242 20247 20246 20546 20547 20552 20551
8 20242 20243 20248 20247 20547 20548 20553 20552
8 20243 10474 10473 20248 20548 10413 10412 20553
8 20244 20245 20250 20249 20549 20550 20555 20554
8 20245 20246 20251 20250 20550 20551 20556 20555
8 20246 20247 20252 20251 20551 20552 20557 20556
8 20247 20248 20253 20252 20552 20553 20558 20557
8 20248 10473 10472 20253 20553 10412 10411 20558
8 20249 20250 20255 20254 20554 20555 20560 20559
8 20250 20251 20256 20255 20555 20556 20561 20560
8 20251 20252 20257 20256 20556 20557 20562 20561
8 20252 20253 20258 20257 20557 20558 20563 20562
8 20253 10472 10471 20258 20558 10411 10410 20563
8 20254 20255 20260 20259 20559 20560 20565 20564
8 20255 20256 20261 20260 20560 20561 20566 20565
8 20256 20257 20262 20261 20561 20562 20567 20566
8 20257 20258 20263 20262 20562 20563 20568 20567
8 20258 10471 10470 20263 20563 10410 10409 20568
8 20259 20260 20265 20264 20564 20565 20570 20569
8 20260 20261 20266 20265 20565 20566 20571 20570
8 20261 20262 20267 20266 20566 20567 20572 20571
8 20262 20263 20268 20267 20567 20568 20573 20572
8 20263 10470 10469 20268 20568 10409 10408 20573
8 20264 20265 20270 20269 20569 20570 20575 20574
8 20265 20266 20271 20270 20570 20571 20576 20575
8 20266 20267 20272 20271 20571 20572 20577 20576
8 20267 20268 20273 20272 20572 20573 20578 20577
8 20268 10469 10468 20273 20573 10408 10407 20578
8 20269 20270 20275 20274 20574 20575 20580 20579
8 20270 20271 20276 20275 20575 20576 20581 20580
8 20271 20272 20277 20276 20576 20577 20582 20581
8 20272 20273 20278 20277 20577 20578 20583 20582
8 20273 10468 10467 20278 20578 10407 10406 20583
8 20274 20275 20280 20279 20579 20580 20585 20584
8 20275 20276 20281 20280 20580 20581 20586 20585
8 20276 20277 20282 20281 20581 20582 20587 20586
8 20277 20278 20283 20282 20582 20583 20588 20587
8 20278 10467 10466 20283 20583 10406 10405 20588
8 20279 20280 20285 20284 20584 20585 20590 20589
8 20280 20281 20286 20285 20585 20586 20591 20590
8 20281 20282 20287 20286 20586 20587 20592 20591
8 20282 20283 20288 20287 20587 20588 20593 20592
8 20283 10466 10465 20288 20588 10405 10404 20593
8 20284 20285 20290 20289 20589 20590 20595 20594
8 20285 20286 20291 20290 20590 20591 20596 20595
8 20286 20287 20292 20291 20591 20592 20597 20596
8 20287 20288 20293 20292 20592 20593 20598 20597
8 20288 10465 10464 20293 20593 10404 10403 20598
8 4556 20289 20294 4557 4495 20594 20599 4496
8 20289 20290 20295 20294 20594 20595 20600 20599
8 20290 20291 20296 20295 20595 20596 20601 20600
8 20291 20292 20297 20296 20596 20597 20602 20601
8 20292 20293 20298 20297 20597 20598 20603 20602
8 20293 10464 10463 20298 20598 10403 10402 20603
8 4557 20294 20299 4558 4496 20599 20604 4497
8 20294 20295 20300 20299 20599 20600 20605 20604
8 20295 20296 20301 20300 20600 20601 20606 20605
8 20296 20297 20302 20301 20601 20602 20607 20606
8 20297 20298 20303 20302 20602 20603 20608 20607
8 20298 10463 10462 20303 20603 10402 10401 20608
8 4558 20299 20304 4559 4497 20604 20609 4498
8 20299 20300 20305 20304 20604 20605 20610 20609
8 20300 20301 20306 20305 20605 20606 20611 20610
8 20301 20302 20307 20306 20606 20607 20612 20611
8 20302 20303 20308 20307 20607 20608 20613 20612
8 20303 10462 10461 20308 20608 10401 10400 20613
8 4559 20304 20309 4560 4498 20609 20614 4499
8 20304 20305 20310 20309 20609 20610 20615 20614
8 20305 20306 20311 20310 20610 20611 20616 20615
8 20306 20307 20312 20311 20611 20612 20617 20616
8 20307 20308 20313 20312 20612 20613 20618 20617
8 20308 10461 10460 20313 20613 10400 10399 20618
8 4560 20309 20314 4561 4499 20614 20619 4500
8 20309 20310 20315 20314 20614 20615 20620 20619
8 20310 20311 20316 20315 20615 20616 20621 20620
8 20311 20312 20317 20316 20616 20617 20622 20621
8 20312 20313 20318 20317 20617 20618 20623 20622
8 20313 10460 10459 20318 20618 10399 10398 20623
8 4561 20314 20319 4562 4500 20619 20624 4501
8 20314 20315 20320 20319 20619 20620 20625 20624
8 20315 20316 20321 20320 20620 20621 20626 20625
8 20316 20317 20322 20321 20621 20622 20627 20626
8 20317 20318 20323 20322 20622 20623 20628 20627
8 20318 10459 10458 20323 20623 10398 10397 20628
8 4562 20319 20324 4563 4501 20624 20629 4502
8 20319 20320 20325 20324 20624 20625 20630 20629
8 20320 20321 20326 20325 20625 20626 20631 20630
8 20321 20322 20327 20326 20626 20627 20632 20631
8 20322 20323 20328 20327 20627 20628 20633 20632
8 20323 10458 10457 20328 20628 10397 10396 20633
8 4563 20324 20329 4564 4502 20629 20634 4503
8 20324 20325 20330 20329 20629 20630 20635 20634
8 20325 20326 20331 20330 20630 20631 20636 20635
8 20326 20327 20332 20331 20631 20632 20637 20636
8 20327 20328 20333 20332 20632 20633 20638 20637
8 20328 10457 10456 20333 20633 10396 10395 20638
8 20329 20330 20335 20334 20634 20635 20640 20639
8 20330 20331 20336 20335 20635 20636 20641 20640
8 20331 20332 20337 20336 20636 20637 20642 20641
8 20332 20333 20338 20337 20637 20638 20643 20642
8 20333 10456 10455 20338 20638 10395 10394 20643
8 20334 20335 20340 20339 20639 20640 20645 20644
8 20335 20336 20341 20340 20640 20641 20646 20645
8 20336 20337 20342 20341 20641 20642 20647 20646
8 20337 20338 20343 20342 20642 20643 20648 20647
8 20338 10455 10454 20343 20643 10394 10393 20648
8 20339 20340 20345 20344 20644 20645 20650 20649
8 20340 20341 20346 20345 20645 20646 20651 20650
8 20341 20342 20347 20346 20646 20647 20652 20651
8 20342 20343 20348 20347 20647 20648 20653 20652
8 20343 10454 10453 20348 20648 10393 10392 20653
8 20344 20345 20350 20349 20649 20650 20655 20654
8 20345 20346 20351 20350 20650 20651 20656 20655
8 20346 20347 20352 20351 20651 20652 20657 20656
8 20347 20348 20353 20352 20652 20653 20658 20657
8 20348 10453 10452 20353 20653 10392 10391 20658
8 20349 20350 20355 20354 20654 20655 20660 20659
8 20350 20351 20356 20355 20655 20656 20661 20660
8 20351 20352 20357 20356 20656 20657 20662 20661
8 20352 20353 20358 20357 20657 20658 20663 20662
8 20353 10452 10451 20358 20658 10391 10390 20663
8 4569 20354 20359 4570 4508 20659 20664 4509
8 20354 20355 20360 20359 20659 20660 20665 20664
8 20355 20356 20361 20360 20660 20661 20666 20665
8 20356 20357 20362 20361 20661 20662 20667 20666
8 20357 20358 20363 20362 20662 20663 20668 20667
8 20358 10451 10450 20363 20663 10390 10389 20668
8 4570 20359 20364 4571 4509 20664 20669 4510
8 20359 20360 20365 20364 20664 20665 20670 20669
8 20360 20361 20366 20365 20665 20666 20671 20670
8 20361 20362 20367 20366 20666 20667 20672 20671
8 20362 20363 20368 20367 20667 20668 20673 20672
8 20363 10450 10449 20368 20668 10389 10388 20673
8 4571 20364 20369 4572 4510 20669 20674 4511
8 20364 20365 20370 20369 20669 20670 20675 20674
8 20365 20366 20371 20370 20670 20671 20676 20675
8 20366 20367 20372 20371 20671 20672 20677 20676
8 20367 20368 20373 20372 20672 20673 20678 20677
8 20368 10449 10448 20373 20673 10388 10387 20678
8 4572 20369 20374 4573 4511 20674 20679 4512
8 20369 20370 20375 20374 20674 20675 20680 20679
8 20370 20371 20376 20375 20675 20676 20681 20680
8 20371 20372 20377 20376 20676 20677 20682 20681
8 20372 20373 20378 20377 20677 20678 20683 20682
8 20373 10448 10447 20378 20678 10387 10386 20683
8 4573 20374 20379 4574 4512 20679 20684 4513
8 20374 20375 20380 20379 20679 20680 20685 20684
8 20375 20376 20381 20380 20680 20681 20686 20685
8 20376 20377 20382 20381 20681 20682 20687 20686
8 20377 20378 20383 20382 20682 20683 20688 20687
8 20378 10447 10446 20383 20683 10386 10385 20688
8 4574 20379 20384 4575 4513 20684 20689 4514
8 20379 20380 20385 20384 20684 20685 20690 20689
8 20380 20381 20386 20385 20685 20686 20691 20690
8 20381 20382 20387 20386 20686 20687 20692 20691
8 20382 20383 20388 20387 20687 20688 20693 20692
8 20383 10446 10445 20388 20688 10385 10384 20693
8 4575 20384 20389 4576 4514 20689 20694 4515
8 20384 20385 20390 20389 20689 20690 20695 20694
8 20385 20386 20391 20390 20690 20691 20696 20695
8 20386 20387 20392 20391 20691 20692 20697 20696
8 20387 20388 20393 20392 20692 20693 20698 20697
8 20388 10445 10444 20393 20693 10384 10383 20698
8 4576 20389 20394 4577 4515 20694 20699 4516
8 20389 20390 20395 20394 20694 20695 20700 20699
8 20390 20391 20396 20395 20695 20696 20701 20700
8 20391 20392 20397 20396 20696 20697 20702 20701
8 20392 20393 20398 20397 20697 20698 20703 20702
8 20393 10444 10443 20398 20698 10383 10382 20703
8 4577 20394 20399 4578 4516 20699 20704 4517
8 20394 20395 20400 20399 20699 20700 20705 20704
8 20395 20396 20401 20400 20700 20701 20706 20705
8 20396 20397 20402 20401 20701 20702 20707 20706
8 20397 20398 20403 20402 20702 20703 20708 20707
8 20398 10443 10442 20403 20703 10382 10381 20708
8 4578 20399 20404 4579 4517 20704 20709 4518
8 20399 20400 20405 20404 20704 20705 20710 20709
8 20400 20401 20406 20405 20705 20706 20711 20710
8 20401 20402 20407 20406 20706 20707 20712 20711
8 20402 20403 20408 20407 20707 20708 20713 20712
8 20403 10442 10441 20408 20708 10381 10380 20713
8 4579 20404 12974 133 4518 20709 12969 132
8 20404 20405 12975 12974 20709 20710 12970 12969
8 20405 20406 12976 12975 20710 20711 12971 12970
8 20406 20407 12977 12976 20711 20712 12972 12971
8 20407 20408 12978 12977 20712 20713 12973 12972
8 20408 10441 6162 12978 20713 10380 6163 12973
8 241 11969 20409 4458 242 11974 20714 4397
8 11969 11970 20410 20409 11974 11975 20715 20714
8 11970 11971 20411 20410 11975 11976 20716 20715
8 11971 11972 20412 20411 11976 11977 20717 20716
8 11972 11973 20413 20412 11977 11978 20718 20717
8 11973 6054 10440 20413 11978 6053 10379 20718
8 4458 20409 20414 4459 4397 20714 20719 4398
8 20409 20410 20415 20414 20714 20715 20720 20719
8 20410 20411 20416 20415 20715 20716 20721 20720
8 20411 20412 20417 20416 20716 20717 20722 20721
8 20412 20413 20418 20417 20717 20718 20723 20722
8 20413 10440 10439 20418 20718 10379 10378 20723
8 4459 20414 20419 4460 4398 20719 20724 4399
8 20414 20415 20420 20419 20719 20720 20725 20724
8 20415 20416 20421 20420 20720 20721 20726 20725
8 20416 20417 20422 20421 20721 20722 20727 20726
8 20417 20418 20423 20422 20722 20723 20728 20727
8 20418 10439 10438 20423 20723 10378 10377 20728
8 4460 20419 20424 4461 4399 20724 20729 4400
8 20419 20420 20425 20424 20724 20725 20730 20729
8 20420 20421 20426 20425 20725 20726 20731 20730
8 20421 20422 20427 20426 20726 20727 20732 20731
8 20422 20423 20428 20427 20727 20728 20733 20732
8 20423 10438 10437 20428 20728 10377 10376 20733
8 4461 20424 20429 4462 4400 20729 20734 4401
8 20424 20425 20430 20429 20729 20730 20735 20734
8 20425 20426 20431 20430 20730 20731 20736 20735
8 20426 20427 20432 20431 20731 20732 20737 20736
8 20427 20428 20433 20432 20732 20733 20738 20737
8 20428 10437 10436 20433 20733 10376 10375 20738
8 4462 20429 20434 4463 4401 20734 20739 4402
8 20429 20430 20435 20434 20734 20735 20740 20739
8 20430 20431 20436 20435 20735 20736 20741 20740
8 20431 20432 20437 20436 20736 20737 20742 20741
8 20432 20433 20438 20437 20737 20738 20743 20742
8 20433 10436 10435 20438 20738 10375 10374 20743
8 4463 20434 20439 4464 4402 20739 20744 4403
8 20434 20435 20440 20439 20739 20740 20745 20744
8 20435 20436 20441 20440 20740 20741 20746 20745
8 20436 20437 20442 20441 20741 20742 20747 20746
8 20437 20438 20443 20442 20742 20743 20748 20747
8 20438 10435 10434 20443 20743 10374 10373 20748
8 4464 20439 20444 4465 4403 20744 20749 4404
8 20439 20440 20445 20444 20744 20745 20750 20749
8 20440 20441 20446 20445 20745 20746 20751 20750
8 20441 20442 20447 20446 20746 20747 20752 20751
8 20442 20443 20448 20447 20747 20748 20753 20752
8 20443 10434 10433 20448 20748 10373 10372 20753
8 4465 20444 20449 4466 4404 20749 20754 4405
8 20444 20445 20450 20449 20749 20750 20755 20754
8 20445 20446 20451 20450 20750 20751 20756 20755
8 20446 20447 20452 20451 20751 20752 20757 20756
8 20447 20448 20453 20452 20752 20753 20758 20757
8 20448 10433 10432 20453 20753 10372 10371 20758
8 4466 20449 20454 4467 4405 20754 20759 4406
8 20449 20450 20455 20454 20754 20755 20760 20759
8 20450 20451 20456 20455 20755 20756 20761 20760
8 20451 20452 20457 20456 20756 20757 20762 20761
8 20452 20453 20458 20457 20757 20758 20763 20762
8 20453 10432 10431 20458 20758 10371 10370 20763
8 4467 20454 20459 4468 4406 20759 20764 4407
8 20454 20455 20460 20459 20759 20760 20765 20764
8 20455 20456 20461 20460 20760 20761 20766 20765
8 20456 20457 20462 20461 20761 20762 20767 20766
8 20457 20458 20463 20462 20762 20763 20768 20767
8 20458 10431 10430 20463 20763 10370 10369 20768
8 4468 20459 20464 4469 4407 20764 20769 4408
8 20459 20460 20465 20464 20764 20765 20770 20769
8 20460 20461 20466 20465 20765 20766 20771 20770
8 20461 20462 20467 20466 20766 20767 20772 20771
8 20462 20463 20468 20467 20767 20768 20773 20772
8 20463 10430 10429 20468 20768 10369 10368 20773
8 4469 20464 20469 4470 4408 20769 20774 4409
8 20464 20465 20470 20469 20769 20770 20775 20774
8 20465 20466 20471 20470 20770 20771 20776 20775
8 20466 20467 20472 20471 20771 20772 20777 20776
8 20467 20468 20473 20472 20772 20773 20778 20777
8 20468 10429 10428 20473 20773 10368 10367 20778
8 4470 20469 20474 4471 4409 20774 20779 4410
8 20469 20470 20475 20474 20774 20775 20780 20779
8 20470 20471 20476 20475 20775 20776 20781 20780
8 20471 20472 20477 20476 20776 20777 20782 20781
8 20472 20473 20478 20477 20777 20778 20783 20782
8 20473 10428 10427 20478 20778 10367 10366 20783
8 4471 20474 20479 4472 4410 20779 20784 4411
8 20474 20475 20480 20479 20779 20780 20785 20784
8 20475 20476 20481 20480 20780 20781 20786 20785
8 20476 20477 20482 20481 20781 20782 20787 20786
8 20477 20478 20483 20482 20782 20783 20788 20787
8 20478 10427 10426 20483 20783 10366 10365 20788
8 4472 20479 20484 4473 4411 20784 20789 4412
8 20479 20480 20485 20484 20784 20785 20790 20789
8 20480 20481 20486 20485 20785 20786 20791 20790
8 20481 20482 20487 20486 20786 20787 20792 20791
8 20482 20483 20488 20487 20787 20788 20793 20792
8 20483 10426 10425 20488 20788 10365 10364 20793
8 4473 20484 20489 4474 4412 20789 20794 4413
8 20484 20485 20490 20489 20789 20790 20795 20794
8 20485 20486 20491 20490 20790 20791 20796 20795
8 20486 20487 20492 20491 20791 20792 20797 20796
8 20487 20488 20493 20492 20792 20793 20798 20797
8 20488 10425 10424 20493 20793 10364 10363 20798
8 4474 20489 20494 4475 4413 20794 20799 4414
8 20489 20490 20495 20494 20794 20795 20800 20799
8 20490 20491 20496 20495 20795 20796 20801 20800
8 20491 20492 20497 20496 20796 20797 20802 20801
8 20492 20493 20498 20497 20797 20798 20803 20802
8 20493 10424 10423 20498 20798 10363 10362 20803
8 4475 20494 20499 4476 4414 20799 20804 4415
8 20494 20495 20500 20499 20799 20800 20805 20804
8 20495 20496 20501 20500 20800 20801 20806 20805
8 20496 20497 20502 20501 20801 20802 20807 20806
8 20497 20498 20503 20502 20802 20803 20808 20807
8 20498 10423 10422 20503 20803 10362 10361 20808
8 4476 20499 20504 4477 4415 20804 20809 4416
8 20499 20500 20505 20504 20804 20805 20810 20809
8 20500 20501 20506 20505 20805 20806 20811 20810
8 20501 20502 20507 20506 20806 20807 20812 20811
8 20502 20503 20508 20507 20807 20808 20813 20812
8 20503 10422 10421 20508 20808 10361 10360 20813
8 4477 20504 20509 4478 4416 20809 20814 4417
8 20504 20505 20510 20509 20809 20810 20815 20814
8 20505 20506 20511 20510 20810 20811 20816 20815
8 20506 20507 20512 20511 20811 20812 20817 20816
8 20507 20508 20513 20512 20812 20813 20818 20817
8 20508 10421 10420 20513 20813 10360 10359 20818
8 20509 20510 20515 20514 20814 20815 20820 20819
8 20510 20511 20516 20515 20815 20816 20821 20820
8 20511 20512 20517 20516 20816 20817 20822 20821
8 20512 20513 20518 20517 20817 20818 20823 20822
8 20513 10420 10419 20518 20818 10359 10358 20823
8 20514 20515 20520 20519 20819 20820 20825 20824
8 20515 20516 20521 20520 20820 20821 20826 20825
8 20516 20517 20522 20521 20821 20822 20827 20826
8 20517 20518 20523 20522 20822 20823 20828 20827
8 20518 10419 10418 20523 20823 10358 10357 20828
8 20519 20520 20525 20524 20824 20825 20830 20829
8 20520 20521 20526 20525 20825 20826 20831 20830
8 20521 20522 20527 20526 20826 20827 20832 20831
8 20522 20523 20528 20527 20827 20828 20833 20832
8 20523 10418 10417 20528 20828 10357 10356 20833
8 20524 20525 20530 20529 20829 20830 20835 20834
8 20525 20526 20531 20530 20830 20831 20836 20835
8 20526 20527 20532 20531 20831 20832 20837 20836
8 20527 20528 20533 20532 20832 20833 20838 20837
8 20528 10417 10416 20533 20833 10356 10355 20838
8 20529 20530 20535 20534 20834 20835 20840 20839
8 20530 20531 20536 20535 20835 20836 20841 20840
8 20531 20532 20537 20536 20836 20837 20842 20841
8 20532 20533 20538 20537 20837 20838 20843 20842
8 20533 10416 10415 20538 20838 10355 10354 20843
8 20534 20535 20540 20539 20839 20840 20845 20844
8 20535 20536 20541 20540 20840 20841 20846 20845
8 20536 20537 20542 20541 20841 20842 20847 20846
8 20537 20538 20543 20542 20842 20843 20848 20847
8 20538 10415 10414 20543 20843 10354 10353 20848
8 20539 20540 20545 20544 20844 20845 20850 20849
8 20540 20541 20546 20545 20845 20846 20851 20850
8 20541 20542 20547 20546 20846 20847 20852 20851
8 20542 20543 20548 20547 20847 20848 20853 20852
8 20543 10414 10413 20548 20848 10353 10352 20853
8 20544 20545 20550 20549 20849 20850 20855 20854
8 20545 20546 20551 20550 20850 20851 20856 20855
8 20546 20547 20552 20551 20851 20852 20857 20856
8 20547 20548 20553 20552 20852 20853 20858 20857
8 20548 10413 10412 20553 20853 10352 10351 20858
8 20549 20550 20555 20554 20854 20855 20860 20859
8 20550 20551 20556 20555 20855 20856 20861 20860
8 20551 20552 20557 20556 20856 20857 20862 20861
8 20552 20553 20558 20557 20857 20858 20863 20862
8 20553 10412 10411 20558 20858 10351 10350 20863
8 20554 20555 20560 20559 20859 20860 20865 20864
8 20555 20556 20561 20560 20860 20861 20866 20865
8 20556 20557 20562 20561 20861 20862 20867 20866
8 20557 20558 20563 20562 20862 20863 20868 20867
8 20558 10411 10410 20563 20863 10350 10349 20868
8 20559 20560 20565 20564 20864 20865 20870 20869
8 20560 20561 20566 20565 20865 20866 20871 20870
8 20561 20562 20567 20566 20866 20867 20872 20871
8 20562 20563 20568 20567 20867 20868 20873 20872
8 20563 10410 10409 20568 20868 10349 10348 20873
8 20564 20565 20570 20569 20869 20870 20875 20874
8 20565 20566 20571 20570 20870 20871 20876 20875
8 20566 20567 20572 20571 20871 20872 20877 20876
8 20567 20568 20573 20572 20872 20873 20878 20877
8 20568 10409 10408 20573 20873 10348 10347 20878
8 20569 20570 20575 20574 20874 20875 20880 20879
8 20570 20571 20576 20575 20875 20876 20881 20880
8 20571 20572 20577 20576 20876 20877 20882 20881
8 20572 20573 20578 20577 20877 20878 20883 20882
8 20573 10408 10407 20578 20878 10347 10346 20883
8 20574 20575 20580 20579 20879 20880 20885 20884
8 20575 20576 20581 20580 20880 20881 20886 20885
8 20576 20577 20582 20581 20881 20882 20887 20886
8 20577 20578 20583 20582 20882 20883 20888 20887
8 20578 10407 10406 20583 20883 10346 10345 20888
8 20579 20580 20585 20584 20884 20885 20890 20889
8 20580 20581 20586 20585 20885 20886 20891 20890
8 20581 20582 20587 20586 20886 20887 20892 20891
8 20582 20583 20588 20587 20887 20888 20893 20892
8 20583 10406 10405 20588 20888 10345 10344 20893
8 20584 20585 20590 20589 20889 20890 20895 20894
8 20585 20586 20591 20590 20890 20891 20896 20895
8 20586 20587 20592 20591 20891 20892 20897 20896
8 20587 20588 20593 20592 20892 20893 20898 20897
8 20588 10405 10404 20593 20893 10344 10343 20898
8 20589 20590 20595 20594 20894 20895 20900 20899
8 20590 20591 20596 20595 20895 20896 20901 20900
8 20591 20592 20597 20596 20896 20897 20902 20901
8 20592 20593 20598 20597 20897 20898 20903 20902
8 20593 10404 10403 20598 20898 10343 10342 20903
8 4495 20594 20599 4496 4434 20899 20904 4435
8 20594 20595 20600 20599 20899 20900 20905 20904
8 20595 20596 20601 20600 20900 20901 20906 20905
8 20596 20597 20602 20601 20901 20902 20907 20906
8 20597 20598 20603 20602 20902 20903 20908 20907
8 20598 10403 10402 20603 20903 10342 10341 20908
8 4496 20599 20604 4497 4435 20904 20909 4436
8 20599 20600 20605 20604 20904 20905 20910 20909
8 20600 20601 20606 20605 20905 20906 20911 20910
8 20601 20602 20607 20606 20906 20907 20912 20911
8 20602 20603 20608 20607 20907 20908 20913 20912
8 20603 10402 10401 20608 20908 10341 10340 20913
8 4497 20604 20609 4498 4436 20909 20914 4437
8 20604 20605 20610 20609 20909 20910 20915 20914
8 20605 20606 20611 20610 20910 20911 20916 20915
8 20606 20607 20612 20611 20911 20912 20917 20916
8 20607 20608 20613 20612 20912 20913 20918 20917
8 20608 10401 10400 20613 20913 10340 10339 20918
8 4498 20609 20614 4499 4437 20914 20919 4438
8 20609 20610 20615 20614 20914 20915 20920 20919
8 20610 20611 20616 20615 20915 20916 20921 20920
8 20611 20612 20617 20616 20916 20917 20922 20921
8 20612 20613 20618 20617 20917 20918 20923 20922
8 20613 10400 10399 20618 20918 10339 10338 20923
8 4499 20614 20619 4500 4438 20919 20924 4439
8 20614 20615 20620 20619 20919 20920 20925 20924
8 20615 20616 20621 20620 20920 20921 20926 20925
8 20616 20617 20622 20621 20921 20922 20927 20926
8 20617 20618 20623 20622 20922 20923 20928 20927
8 20618 10399 10398 20623 20923 10338 10337 20928
8 4500 20619 20624 4501 4439 20924 20929 4440
8 20619 20620 20625 20624 20924 20925 20930 20929
8 20620 20621 20626 20625 20925 20926 20931 20930
8 20621 20622 20627 20626 20926 20927 20932 20931
8 20622 20623 20628 20627 20927 20928 20933 20932
8 20623 10398 10397 20628 20928 10337 10336 20933
8 4501 20624 20629 4502 4440 20929 20934 4441
8 20624 20625 20630 20629 20929 20930 20935 20934
8 20625 20626 20631 20630 20930 20931 20936 20935
8 20626 20627 20632 20631 20931 20932 20937 20936
8 20627 20628 20633 20632 20932 20933 20938 20937
8 20628 10397 10396 20633 20933 10336 10335 20938
8 4502 20629 20634 4503 4441 20934 20939 4442
8 20629 20630 20635 20634 20934 20935 20940 20939
8 20630 20631 20636 20635 20935 20936 20941 20940
8 20631 20632 20637 20636 20936 20937 20942 20941
8 20632 20633 20638 20637 20937 20938 20943 20942
8 20633 10396 10395 20638 20938 10335 10334 20943
8 20634 20635 20640 20639 20939 20940 20945 20944
8 20635 20636 20641 20640 20940 20941 20946 20945
8 20636 20637 20642 20641 20941 20942 20947 20946
8 20637 20638 20643 20642 20942 20943 20948 20947
8 20638 10395 10394 20643 20943 10334 10333 20948
8 20639 20640 20645 20644 20944 20945 20950 20949
8 20640 20641 20646 20645 20945 20946 20951 20950
8 20641 20642 20647 20646 20946 20947 20952 20951
8 20642 20643 20648 20647 20947 20948 20953 20952
8 20643 10394 10393 20648 20948 10333 10332 20953
8 20644 20645 20650 20649 20949 20950 20955 20954
8 20645 20646 20651 20650 20950 20951 20956 20955
8 20646 20647 20652 20651 20951 20952 20957 20956
8 20647 20648 20653 20652 20952 20953 20958 20957
8 20648 10393 10392 20653 20953 10332 10331 20958
8 20649 20650 20655 20654 20954 20955 20960 20959
8 20650 20651 20656 20655 20955 20956 20961 20960
8 20651 20652 20657 20656 20956 20957 20962 20961
8 20652 20653 20658 20657 20957 20958 20963 20962
8 20653 10392 10391 20658 20958 10331 10330 20963
8 20654 20655 20660 20659 20959 20960 20965 20964
8 20655 20656 20661 20660 20960 20961 20966 20965
8 20656 20657 20662 20661 20961 20962 20967 20966
8 20657 20658 20663 20662 20962 20963 20968 20967
8 20658 10391 10390 20663 20963 10330 10329 20968
8 4508 20659 20664 4509 4447 20964 20969 4448
8 20659 20660 20665 20664 20964 20965 20970 20969
8 20660 20661 20666 20665 20965 20966 20971 20970
8 20661 20662 20667 20666 20966 20967 20972 20971
8 20662 20663 20668 20667 20967 20968 20973 20972
8 20663 10390 10389 20668 20968 10329 10328 20973
8 4509 20664 20669 4510 4448 20969 20974 4449
8 20664 20665 20670 20669 20969 20970 20975 20974
8 20665 20666 20671 20670 20970 20971 20976 20975
8 20666 20667 20672 20671 20971 20972 20977 20976
8 20667 20668 20673 20672 20972 20973 20978 20977
8 20668 10389 10388 20673 20973 10328 10327 20978
8 4510 20669 20674 4511 4449 20974 20979 4450
8 20669 20670 20675 20674 20974 20975 20980 20979
8 20670 20671 20676 20675 20975 20976 20981 20980
8 20671 20672 20677 20676 20976 20977 20982 20981
8 20672 20673 20678 20677 20977 20978 20983 20982
8 20673 10388 10387 20678 20978 10327 10326 20983
8 4511 20674 20679 4512 4450 20979 20984 4451
8 20674 20675 20680 20679 20979 20980 20985 20984
8 20675 20676 20681 20680 20980 20981 20986 20985
8 20676 20677 20682 20681 20981 20982 20987 20986
8 20677 20678 20683 20682 20982 20983 20988 20987
8 20678 10387 10386 20683 20983 10326 10325 20988
8 4512 20679 20684 4513 4451 20984 20989 4452
8 20679 20680 20685 20684 20984 20985 20990 20989
8 20680 20681 20686 20685 20985 20986 20991 20990
8 20681 20682 20687 20686 20986 20987 20992 20991
8 20682 20683 20688 20687 20987 20988 20993 20992
8 20683 10386 10385 20688 20988 10325 10324 20993
8 4513 20684 20689 4514 4452 20989 20994 4453
8 20684 20685 20690 20689 20989 20990 20995 20994
8 20685 20686 20691 20690 20990 20991 20996 20995
8 20686 20687 20692 20691 20991 20992 20997 20996
8 20687 20688 20693 20692 20992 20993 20998 20997
8 20688 10385 10384 20693 20993 10324 10323 20998
8 4514 20689 20694 4515 4453 20994 20999 4454
8 20689 20690 20695 20694 20994 20995 21000 20999
8 20690 20691 20696 20695 20995 20996 21001 21000
8 20691 20692 20697 20696 20996 20997 21002 21001
8 20692 20693 20698 20697 20997 20998 21003 21002
8 20693 10384 10383 20698 20998 10323 10322 21003
8 4515 20694 20699 4516 4454 20999 21004 4455
8 20694 20695 20700 20699 20999 21000 21005 21004
8 20695 20696 20701 20700 21000 21001 21006 21005
8 20696 20697 20702 20701 21001 21002 21007 21006
8 20697 20698 20703 20702 21002 21003 21008 21007
8 20698 10383 10382 20703 21003 10322 10321 21008
8 4516 20699 20704 4517 4455 21004 21009 4456
8 20699 20700 20705 20704 21004 21005 21010 21009
8 20700 20701 20706 20705 21005 21006 21011 21010
8 20701 20702 20707 20706 21006 21007 21012 21011
8 20702 20703 20708 20707 21007 21008 21013 21012
8 20703 10382 10381 20708 21008 10321 10320 21013
8 4517 20704 20709 4518 4456 21009 21014 4457
8 20704 20705 20710 20709 21009 21010 21015 21014
8 20705 20706 20711 20710 21010 21011 21016 21015
8 20706 20707 20712 20711 21011 21012 21017 21016
8 20707 20708 20713 20712 21012 21013 21018 21017
8 20708 10381 10380 20713 21013 10320 10319 21018
8 4518 20709 12969 132 4457 21014 12964 131
8 20709 20710 12970 12969 21014 21015 12965 12964
8 20710 20711 12971 12970 21015 21016 12966 12965
8 20711 20712 12972 12971 21016 21017 12967 12966
8 20712 20713 12973 12972 21017 21018 12968 12967
8 20713 10380 6163 12973 21018 10319 6164 12968
8 242 11974 20714 4397 243 11979 21019 4336
8 11974 11975 20715 20714 11979 11980 21020 21019
8 11975 11976 20716 20715 11980 11981 21021 21020
8 11976 11977 20717 20716 11981 11982 21022 21021
8 11977 11978 20718 20717 11982 11983 21023 21022
8 11978 6053 10379 20718 11983 6052 10318 21023
8 4397 20714 20719 4398 4336 21019 21024 4337
8 20714 20715 20720 20719 21019 21020 21025 21024
8 20715 20716 20721 20720 21020 21021 21026 21025
8 20716 20717 20722 20721 21021 21022 21027 21026
8 20717 20718 20723 20722 21022 21023 21028 21027
8 20718 10379 10378 20723 21023 10318 10317 21028
8 4398 20719 20724 4399 4337 21024 21029 4338
8 20719 20720 20725 20724 21024 21025 21030 21029
8 20720 20721 20726 20725 21025 21026 21031 21030
8 20721 20722 20727 20726 21026 21027 21032 21031
8 20722 20723 20728 20727 21027 21028 21033 21032
8 20723 10378 10377 20728 21028 10317 10316 21033
8 4399 20724 20729 4400 4338 21029 21034 4339
8 20724 20725 20730 20729 21029 21030 21035 21034
8 20725 20726 20731 20730 21030 21031 21036 21035
8 20726 20727 20732 20731 21031 21032 21037 21036
8 20727 20728 20733 20732 21032 21033 21038 21037
8 20728 10377 10376 20733 21033 10316 10315 21038
8 4400 20729 20734 4401 4339 21034 21039 4340
8 20729 20730 20735 20734 21034 21035 21040 21039
8 20730 20731 20736 20735 21035 21036 21041 21040
8 20731 20732 20737 20736 21036 21037 21042 21041
8 20732 20733 20738 20737 21037 21038 21043 21042
8 20733 10376 10375 20738 21038 10315 10314 21043
8 4401 20734 20739 4402 4340 21039 21044 4341
8 20734 20735 20740 20739 21039 21040 21045 21044
8 20735 20736 20741 20740 21040 21041 21046 21045
8 20736 20737 20742 20741 21041 21042 21047 21046
8 20737 20738 20743 20742 21042 21043 21048 21047
8 20738 10375 10374 20743 21043 10314 10313 21048
8 4402 20739 20744 4403 4341 21044 21049 4342
8 20739 20740 20745 20744 21044 21045 21050 21049
8 20740 20741 20746 20745 21045 21046 21051 21050
8 20741 20742 20747 20746 21046 21047 21052 21051
8 20742 20743 20748 20747 21047 21048 21053 21052
8 20743 10374 10373 20748 21048 10313 10312 21053
8 4403 20744 20749 4404 4342 21049 21054 4343
8 20744 20745 20750 20749 21049 21050 21055 21054
8 20745 20746 20751 20750 21050 21051 21056 21055
8 20746 20747 20752 20751 21051 21052 21057 21056
8 20747 20748 20753 20752 21052 21053 21058 21057
8 20748 10373 10372 20753 21053 10312 10311 21058
8 4404 20749 20754 4405 4343 21054 21059 4344
8 20749 20750 20755 20754 21054 21055 21060 21059
8 20750 20751 20756 20755 21055 21056 21061 21060
8 20751 20752 20757 20756 21056 21057 21062 21061
8 20752 20753 20758 20757 21057 21058 21063 21062
8 20753 10372 10371 20758 21058 10311 10310 21063
8 4405 20754 20759 4406 4344 21059 21064 4345
8 20754 20755 20760 20759 21059 21060 21065 21064
8 20755 20756 20761 20760 21060 21061 21066 21065
8 20756 20757 20762 20761 21061 21062 21067 21066
8 20757 20758 20763 20762 21062 21063 21068 21067
8 20758 10371 10370 20763 21063 10310 10309 21068
8 4406 20759 20764 4407 4345 21064 21069 4346
8 20759 20760 20765 20764 21064 21065 21070 21069
8 20760 20761 20766 20765 21065 21066 21071 21070
8 20761 20762 20767 20766 21066 21067 21072 21071
8 20762 20763 20768 20767 21067 21068 21073 21072
8 20763 10370 10369 20768 21068 10309 10308 21073
8 4407 20764 20769 4408 4346 21069 21074 4347
8 20764 20765 20770 20769 21069 21070 21075 21074
8 20765 20766 20771 20770 21070 21071 21076 21075
8 20766 20767 20772 20771 21071 21072 21077 21076
8 20767 20768 20773 20772 21072 21073 21078 21077
8 20768 10369 10368 20773 21073 10308 10307 21078
8 4408 20769 20774 4409 4347 21074 21079 4348
8 20769 20770 20775 20774 21074 21075 21080 21079
8 20770 20771 20776 20775 21075 21076 21081 21080
8 20771 20772 20777 20776 21076 21077 21082 21081
8 20772 20773 20778 20777 21077 21078 21083 21082
8 20773 10368 10367 20778 21078 10307 10306 21083
8 4409 20774 20779 4410 4348 21079 21084 4349
8 20774 20775 20780 20779 21079 21080 21085 21084
8 20775 20776 20781 20780 21080 21081 21086 21085
8 20776 20777 20782 20781 21081 21082 21087 21086
8 20777 20778 20783 20782 21082 21083 21088 21087
8 20778 10367 10366 20783 21083 10306 10305 21088
8 4410 20779 20784 4411 4349 21084 21089 4350
8 20779 20780 20785 20784 21084 21085 21090 21089
8 20780 20781 20786 20785 21085 21086 21091 21090
8 20781 20782 20787 20786 21086 21087 21092 21091
8 20782 20783 20788 20787 21087 21088 21093 21092
8 20783 10366 10365 20788 21088 10305 10304 21093
8 4411 20784 20789 4412 4350 21089 21094 4351
8 20784 20785 20790 20789 21089 21090 21095 21094
8 20785 20786 20791 20790 21090 21091 21096 21095
8 20786 20787 20792 20791 21091 21092 21097 21096
8 20787 20788 20793 20792 21092 21093 21098 21097
8 20788 10365 10364 20793 21093 10304 10303 21098
8 4412 20789 20794 4413 4351 21094 21099 4352
8 20789 20790 20795 20794 21094 21095 21100 21099
8 20790 20791 20796 20795 21095 21096 21101 21100
8 20791 20792 20797 20796 21096 21097 21102 21101
8 20792 20793 20798 20797 21097 21098 21103 21102
8 20793 10364 10363 20798 21098 10303 10302 21103
8 4413 20794 20799 4414 4352 21099 21104 4353
8 20794 20795 20800 20799 21099 21100 21105 21104
8 20795 20796 20801 20800 21100 21101 21106 21105
8 20796 20797 20802 20801 21101 21102 21107 21106
8 20797 20798 20803 20802 21102 21103 21108 21107
8 20798 10363 10362 20803 21103 10302 10301 21108
8 4414 20799 20804 4415 4353 21104 21109 4354
8 20799 20800 20805 20804 21104 21105 21110 21109
8 20800 20801 20806 20805 21105 21106 21111 21110
8 20801 20802 20807 20806 21106 21107 21112 21111
8 20802 20803 20808 20807 21107 21108 21113 21112
8 20803 10362 10361 20808 21108 10301 10300 21113
8 4415 20804 20809 4416 4354 21109 21114 4355
8 20804 20805 20810 20809 21109 21110 21115 21114
8 20805 20806 20811 20810 21110 21111 21116 21115
8 20806 20807 20812 20811 21111 21112 21117 21116
8 20807 20808 20813 20812 21112 21113 21118 21117
8 20808 10361 10360 20813 21113 10300 10299 21118
8 4416 20809 20814 4417 4355 21114 21119 4356
8 20809 20810 20815 20814 21114 21115 21120 21119
8 20810 20811 20816 20815 21115 21116 21121 21120
8 20811 20812 20817 20816 21116 21117 21122 21121
8 20812 20813 20818 20817 21117 21118 21123 21122
8 20813 10360 10359 20818 21118 10299 10298 21123
8 20814 20815 20820 20819 21119 21120 21125 21124
8 20815 20816 20821 20820 21120 21121 21126 21125
8 20816 20817 20822 20821 21121 21122 21127 21126
8 20817 20818 20823 20822 21122 21123 21128 21127
8 20818 10359 10358 20823 21123 10298 10297 21128
8 20819 20820 20825 20824 21124 21125 21130 21129
8 20820 20821 20826 20825 21125 21126 21131 21130
8 20821 20822 20827 20826 21126 21127 21132 21131
8 20822 20823 20828 20827 21127 21128 21133 21132
8 20823 10358 10357 20828 21128 10297 10296 21133
8 20824 20825 20830 20829 21129 21130 21135 21134
8 20825 20826 20831 20830 21130 21131 21136 21135
8 20826 20827 20832 20831 21131 21132 21137 21136
8 20827 20828 20833 20832 21132 21133 21138 21137
8 20828 10357 10356 20833 21133 10296 10295 21138
8 20829 20830 20835 20834 21134 21135 21140 21139
8 20830 20831 20836 20835 21135 21136 21141 21140
8 20831 20832 20837 20836 21136 21137 21142 21141
8 20832 20833 20838 20837 21137 21138 21143 21142
8 20833 10356 10355 20838 21138 10295 10294 21143
8 20834 20835 20840 20839 21139 21140 21145 21144
8 20835 20836 20841 20840 21140 21141 21146 21145
8 20836 20837 20842 20841 21141 21142 21147 21146
8 20837 20838 20843 20842 21142 21143 21148 21147
8 20838 10355 10354 20843 21143 10294 10293 21148
8 20839 20840 20845 20844 21144 21145 21150 21149
8 20840 20841 20846 20845 21145 21146 21151 21150
8 20841 20842 20847 20846 21146 21147 21152 21151
8 20842 20843 20848 20847 21147 21148 21153 21152
8 20843 10354 10353 20848 21148 10293 10292 21153
8 20844 20845 20850 20849 21149 21150 21155 21154
8 20845 20846 20851 20850 21150 21151 21156 21155
8 20846 20847 20852 20851 21151 21152 21157 21156
8 20847 20848 20853 20852 21152 21153 21158 21157
8 20848 10353 10352 20853 21153 10292 10291 21158
8 20849 20850 20855 20854 21154 21155 21160 21159
8 20850 20851 20856 20855 21155 21156 21161 21160
8 20851 20852 20857 20856 21156 21157 21162 21161
8 20852 20853 20858 20857 21157 21158 21163 21162
8 20853 10352 10351 20858 21158 10291 10290 21163
8 20854 20855 20860 20859 21159 21160 21165 21164
8 20855 20856 20861 20860 21160 21161 21166 21165
8 20856 20857 20862 20861 21161 21162 21167 21166
8 20857 20858 20863 20862 21162 21163 21168 21167
8 20858 10351 10350 20863 21163 10290 10289 21168
8 20859 20860 20865 20864 21164 21165 21170 21169
8 20860 20861 20866 20865 21165 21166 21171 21170
8 20861 20862 20867 20866 21166 21167 21172 21171
8 20862 20863 20868 20867 21167 21168 21173 21172
8 20863 10350 10349 20868 21168 10289 10288 21173
8 20864 20865 20870 20869 21169 21170 21175 21174
8 20865 20866 20871 20870 21170 21171 21176 21175
8 20866 20867 20872 20871 21171 21172 21177 21176
8 20867 20868 20873 20872 21172 21173 21178 21177
8 20868 10349 10348 20873 21173 10288 10287 21178
8 20869 20870 20875 20874 21174 21175 21180 21179
8 20870 20871 20876 20875 21175 21176 21181 21180
8 20871 20872 20877 20876 21176 21177 21182 21181
8 20872 20873 20878 20877 21177 21178 21183 21182
8 20873 10348 10347 20878 21178 10287 10286 21183
8 20874 20875 20880 20879 21179 21180 21185 21184
8 20875 20876 20881 20880 21180 21181 21186 21185
8 20876 20877 20882 20881 21181 21182 21187 21186
8 20877 20878 20883 20882 21182 21183 21188 21187
8 20878 10347 10346 20883 21183 10286 10285 21188
8 20879 20880 20885 20884 21184 21185 21190 21189
8 20880 20881 20886 20885 21185 21186 21191 21190
8 20881 20882 20887 20886 21186 21187 21192 21191
8 20882 20883 20888 20887 21187 21188 21193 21192
8 20883 10346 10345 20888 21188 10285 10284 21193
8 20884 20885 20890 20889 21189 21190 21195 21194
8 20885 20886 20891 20890 21190 21191 21196 21195
8 20886 20887 20892 20891 21191 21192 21197 21196
8 20887 20888 20893 20892 21192 21193 21198 21197
8 20888 10345 10344 20893 21193 10284 10283 21198
8 20889 20890 20895 20894 21194 21195 21200 21199
8 20890 20891 20896 20895 21195 21196 21201 21200
8 20891 20892 20897 20896 21196 21197 21202 21201
8 20892 20893 20898 20897 21197 21198 21203 21202
8 20893 10344 10343 20898 21198 10283 10282 21203
8 20894 20895 20900 20899 21199 21200 21205 21204
8 20895 20896 20901 20900 21200 21201 21206 21205
8 20896 20897 20902 20901 21201 21202 21207 21206
8 20897 20898 20903 20902 21202 21203 21208 21207
8 20898 10343 10342 20903 21203 10282 10281 21208
8 4434 20899 20904 4435 4373 21204 21209 4374
8 20899 20900 20905 20904 21204 21205 21210 21209
8 20900 20901 20906 20905 21205 21206 21211 21210
8 20901 20902 20907 20906 21206 21207 21212 21211
8 20902 20903 20908 20907 21207 21208 21213 21212
8 20903 10342 10341 20908 21208 10281 10280 21213
8 4435 20904 20909 4436 4374 21209 21214 4375
8 20904 20905 20910 20909 21209 21210 21215 21214
8 20905 20906 20911 20910 21210 21211 21216 21215
8 20906 20907 20912 20911 21211 21212 21217 21216
8 20907 20908 20913 20912 21212 21213 21218 21217
8 20908 10341 10340 20913 21213 10280 10279 21218
8 4436 20909 20914 4437 4375 21214 21219 4376
8 20909 20910 20915 20914 21214 21215 21220 21219
8 20910 20911 20916 20915 21215 21216 21221 21220
8 20911 20912 20917 20916 21216 21217 21222 21221
8 20912 20913 20918 20917 21217 21218 21223 21222
8 20913 10340 10339 20918 21218 10279 10278 21223
8 4437 20914 20919 4438 4376 21219 21224 4377
8 20914 20915 20920 20919 21219 21220 21225 21224
8 20915 20916 20921 20920 21220 21221 21226 21225
8 20916 20917 20922 20921 21221 21222 21227 21226
8 20917 20918 20923 20922 21222 21223 21228 21227
8 20918 10339 10338 20923 21223 10278 10277 21228
8 4438 20919 20924 4439 4377 21224 21229 4378
8 20919 20920 20925 20924 21224 21225 21230 21229
8 20920 20921 20926 20925 21225 21226 21231 21230
8 20921 20922 20927 20926 21226 21227 21232 21231
8 20922 20923 20928 20927 21227 21228 21233 21232
8 20923 10338 10337 20928 21228 10277 10276 21233
8 4439 20924 20929 4440 4378 21229 21234 4379
8 20924 20925 20930 20929 21229 21230 21235 21234
8 20925 20926 20931 20930 21230 21231 21236 21235
8 20926 20927 20932 20931 21231 21232 21237 21236
8 20927 20928 20933 20932 21232 21233 21238 21237
8 20928 10337 10336 20933 21233 10276 10275 21238
8 4440 20929 20934 4441 4379 21234 21239 4380
8 20929 20930 20935 20934 21234 21235 21240 21239
8 20930 20931 20936 20935 21235 21236 21241 21240
8 20931 20932 20937 20936 21236 21237 21242 21241
8 20932 20933 20938 20937 21237 21238 21243 21242
8 20933 10336 10335 20938 21238 10275 10274 21243
8 4441 20934 20939 4442 4380 21239 21244 4381
8 20934 20935 20940 20939 21239 21240 21245 21244
8 20935 20936 20941 20940 21240 21241 21246 21245
8 20936 20937 20942 20941 21241 21242 21247 21246
8 20937 20938 20943 20942 21242 21243 21248 21247
8 20938 10335 10334 20943 21243 10274 10273 21248
8 20939 20940 20945 20944 21244 21245 21250 21249
8 20940 20941 20946 20945 21245 21246 21251 21250
8 20941 20942 20947 20946 21246 21247 21252 21251
8 20942 20943 20948 20947 21247 21248 21253 21252
8 20943 10334 10333 20948 21248 10273 10272 21253
8 20944 20945 20950 20949 21249 21250 21255 21254
8 20945 20946 20951 20950 21250 21251 21256 21255
8 20946 20947 20952 20951 21251 21252 21257 21256
8 20947 20948 20953 20952 21252 21253 21258 21257
8 20948 10333 10332 20953 21253 10272 10271 21258
8 20949 20950 20955 20954 21254 21255 21260 21259
8 20950 20951 20956 20955 21255 21256 21261 21260
8 20951 20952 20957 20956 21256 21257 21262 21261
8 20952 20953 20958 20957 21257 21258 21263 21262
8 20953 10332 10331 20958 21258 10271 10270 21263
8 20954 20955 20960 20959 21259 21260 21265 21264
8 20955 20956 20961 20960 21260 21261 21266 21265
8 20956 20957 20962 20961 21261 21262 21267 21266
8 20957 20958 20963 20962 21262 21263 21268 21267
8 20958 10331 10330 20963 21263 10270 10269 21268
8 20959 20960 20965 20964 21264 21265 21270 21269
8 20960 20961 20966 20965 21265 21266 21271 21270
8 20961 20962 20967 20966 21266 21267 21272 21271
8 20962 20963 20968 20967 21267 21268 21273 21272
8 20963 10330 10329 20968 21268 10269 10268 21273
8 4447 20964 20969 4448 4386 21269 21274 4387
8 20964 20965 20970 20969 21269 21270 21275 21274
8 20965 20966 20971 20970 21270 21271 21276 21275
8 20966 20967 20972 20971 21271 21272 21277 21276
8 20967 20968 20973 20972 21272 21273 21278 21277
8 20968 10329 10328 20973 21273 10268 10267 21278
8 4448 20969 20974 4449 4387 21274 21279 4388
8 20969 20970 20975 20974 21274 21275 21280 21279
8 20970 20971 20976 20975 21275 21276 21281 21280
8 20971 20972 20977 20976 21276 21277 21282 21281
8 20972 20973 20978 20977 21277 21278 21283 21282
8 20973 10328 10327 20978 21278 10267 10266 21283
8 4449 20974 20979 4450 4388 21279 21284 4389
8 20974 20975 20980 20979 21279 21280 21285 21284
8 20975 20976 20981 20980 21280 21281 21286 21285
8 20976 20977 20982 20981 21281 21282 21287 21286
8 20977 20978 20983 20982 21282 21283 21288 21287
8 20978 10327 10326 20983 21283 10266 10265 21288
8 4450 20979 20984 4451 4389 21284 21289 4390
8 20979 20980 20985 20984 21284 21285 21290 21289
8 20980 20981 20986 20985 21285 21286 21291 21290
8 20981 20982 20987 20986 21286 21287 21292 21291
8 20982 20983 20988 20987 21287 21288 21293 21292
8 20983 10326 10325 20988 21288 10265 10264 21293
8 4451 20984 20989 4452 4390 21289 21294 4391
8 20984 20985 20990 20989 21289 21290 21295 21294
8 20985 20986 20991 20990 21290 21291 21296 21295
8 20986 20987 20992 20991 21291 21292 21297 21296
8 20987 20988 20993 20992 21292 21293 21298 21297
8 20988 10325 10324 20993 21293 10264 10263 21298
8 4452 20989 20994 4453 4391 21294 21299 4392
8 20989 20990 20995 20994 21294 21295 21300 21299
8 20990 20991 20996 20995 21295 21296 21301 21300
8 20991 20992 20997 20996 21296 21297 21302 21301
8 20992 20993 20998 20997 21297 21298 21303 21302
8 20993 10324 10323 20998 21298 10263 10262 21303
8 4453 20994 20999 4454 4392 21299 21304 4393
8 20994 20995 21000 20999 21299 21300 21305 21304
8 20995 20996 21001 21000 21300 21301 21306 21305
8 20996 20997 21002 21001 21301 21302 21307 21306
8 20997 20998 21003 21002 21302 21303 21308 21307
8 20998 10323 10322 21003 21303 10262 10261 21308
8 4454 20999 21004 4455 4393 21304 21309 4394
8 20999 21000 21005 21004 21304 21305 21310 21309
8 21000 21001 21006 21005 21305 21306 21311 21310
8 21001 21002 21007 21006 21306 21307 21312 21311
8 21002 21003 21008 21007 21307 21308 21313 21312
8 21003 10322 10321 21008 21308 10261 10260 21313
8 4455 21004 21009 4456 4394 21309 21314 4395
8 21004 21005 21010 21009 21309 21310 21315 21314
8 21005 21006 21011 21010 21310 21311 21316 21315
8 21006 21007 21012 21011 21311 21312 21317 21316
8 21007 21008 21013 21012 21312 21313 21318 21317
8 21008 10321 10320 21013 21313 10260 10259 21318
8 4456 21009 21014 4457 4395 21314 21319 4396
8 21009 21010 21015 21014 21314 21315 21320 21319
8 21010 21011 21016 21015 21315 21316 21321 21320
8 21011 21012 21017 21016 21316 21317 21322 21321
8 21012 21013 21018 21017 21317 21318 21323 21322
8 21013 10320 10319 21018 21318 10259 10258 21323
8 4457 21014 12964 131 4396 21319 12959 130
8 21014 21015 12965 12964 21319 21320 12960 12959
8 21015 21016 12966 12965 21320 21321 12961 12960
8 21016 21017 12967 12966 21321 21322 12962 12961
8 21017 21018 12968 12967 21322 21323 12963 12962
8 21018 10319 6164 12968 21323 10258 6165 12963
8 243 11979 21019 4336 244 11984 21324 4275
8 11979 11980 21020 21019 11984 11985 21325 21324
8 11980 11981 21021 21020 11985 11986 21326 21325
8 11981 11982 21022 21021 11986 11987 21327 21326
8 11982 11983 21023 21022 11987 11988 21328 21327
8 11983 6052 10318 21023 11988 6051 10257 21328
8 4336 21019 21024 4337 4275 21324 21329 4276
8 21019 21020 21025 21024 21324 21325 21330 21329
8 21020 21021 21026 21025 21325 21326 21331 21330
8 21021 21022 21027 21026 21326 21327 21332 21331
8 21022 21023 21028 21027 21327 21328 21333 21332
8 21023 10318 10317 21028 21328 10257 10256 21333
8 4337 21024 21029 4338 4276 21329 21334 4277
8 21024 21025 21030 21029 21329 21330 21335 21334
8 21025 21026 21031 21030 21330 21331 21336 21335
8 21026 21027 21032 21031 21331 21332 21337 21336
8 21027 21028 21033 21032 21332 21333 21338 21337
8 21028 10317 10316 21033 21333 10256 10255 21338
8 4338 21029 21034 4339 4277 21334 21339 4278
8 21029 21030 21035 21034 21334 21335 21340 21339
8 21030 21031 21036 21035 21335 21336 21341 21340
8 21031 21032 21037 21036 21336 21337 21342 21341
8 21032 21033 21038 21037 21337 21338 21343 21342
8 21033 10316 10315 21038 21338 10255 10254 21343
8 4339 21034 21039 4340 4278 21339 21344 4279
8 21034 21035 21040 21039 21339 21340 21345 21344
8 21035 21036 21041 21040 21340 21341 21346 21345
8 21036 21037 21042 21041 21341 21342 21347 21346
8 21037 21038 21043 21042 21342 21343 21348 21347
8 21038 10315 10314 21043 21343 10254 10253 21348
8 4340 21039 21044 4341 4279 21344 21349 4280
8 21039 21040 21045 21044 21344 21345 21350 21349
8 21040 21041 21046 21045 21345 21346 21351 21350
8 21041 21042 21047 21046 21346 21347 21352 21351
8 21042 21043 21048 21047 21347 21348 21353 21352
8 21043 10314 10313 21048 21348 10253 10252 21353
8 4341 21044 21049 4342 4280 21349 21354 4281
8 21044 21045 21050 21049 21349 21350 21355 21354
8 21045 21046 21051 21050 21350 21351 21356 21355
8 21046 21047 21052 21051 21351 21352 21357 21356
8 21047 21048 21053 21052 21352 21353 21358 21357
8 21048 10313 10312 21053 21353 10252 10251 21358
8 4342 21049 21054 4343 4281 21354 21359 4282
8 21049 21050 21055 21054 21354 21355 21360 21359
8 21050 21051 21056 21055 21355 21356 21361 21360
8 21051 21052 21057 21056 21356 21357 21362 21361
8 21052 21053 21058 21057 21357 21358 21363 21362
8 21053 10312 10311 21058 21358 10251 10250 21363
8 4343 21054 21059 4344 4282 21359 21364 4283
8 21054 21055 21060 21059 21359 21360 21365 21364
8 21055 21056 21061 21060 21360 21361 21366 21365
8 21056 21057 21062 21061 21361 21362 21367 21366
8 21057 21058 21063 21062 21362 21363 21368 21367
8 21058 10311 10310 21063 21363 10250 10249 21368
8 4344 21059 21064 4345 4283 21364 21369 4284
8 21059 21060 21065 21064 21364 21365 21370 21369
8 21060 21061 21066 21065 21365 21366 21371 21370
8 21061 21062 21067 21066 21366 21367 21372 21371
8 21062 21063 21068 21067 21367 21368 21373 21372
8 21063 10310 10309 21068 21368 10249 10248 21373
8 4345 21064 21069 4346 4284 21369 21374 4285
8 21064 21065 21070 21069 21369 21370 21375 21374
8 21065 21066 21071 21070 21370 21371 21376 21375
8 21066 21067 21072 21071 21371 21372 21377 21376
8 21067 21068 21073 21072 21372 21373 21378 21377
8 21068 10309 10308 21073 21373 10248 10247 21378
8 4346 21069 21074 4347 4285 21374 21379 4286
8 21069 21070 21075 21074 21374 21375 21380 21379
8 21070 21071 21076 21075 21375 21376 21381 21380
8 21071 21072 21077 21076 21376 21377 21382 21381
8 21072 21073 21078 21077 21377 21378 21383 21382
8 21073 10308 10307 21078 21378 10247 10246 21383
8 4347 21074 21079 4348 4286 21379 21384 4287
8 21074 21075 21080 21079 21379 21380 21385 21384
8 21075 21076 21081 21080 21380 21381 21386 21385
8 21076 21077 21082 21081 21381 21382 21387 21386
8 21077 21078 21083 21082 21382 21383 21388 21387
8 21078 10307 10306 21083 21383 10246 10245 21388
8 4348 21079 21084 4349 4287 21384 21389 4288
8 21079 21080 21085 21084 21384 21385 21390 21389
8 21080 21081 21086 21085 21385 21386 21391 21390
8 21081 21082 21087 21086 21386 21387 21392 21391
8 21082 21083 21088 21087 21387 21388 21393 21392
8 21083 10306 10305 21088 21388 10245 10244 21393
8 4349 21084 21089 4350 4288 21389 21394 4289
8 21084 21085 21090 21089 21389 21390 21395 21394
8 21085 21086 21091 21090 21390 21391 21396 21395
8 21086 21087 21092 21091 21391 21392 21397 21396
8 21087 21088 21093 21092 21392 21393 21398 21397
8 21088 10305 10304 21093 21393 10244 10243 21398
8 4350 21089 21094 4351 4289 21394 21399 4290
8 21089 21090 21095 21094 21394 21395 21400 21399
8 21090 21091 21096 21095 21395 21396 21401 21400
8 21091 21092 21097 21096 21396 21397 21402 21401
8 21092 21093 21098 21097 21397 21398 21403 21402
8 21093 10304 10303 21098 21398 10243 10242 21403
8 4351 21094 21099 4352 4290 21399 21404 4291
8 21094 21095 21100 21099 21399 21400 21405 21404
8 21095 21096 21101 21100 21400 21401 21406 21405
8 21096 21097 21102 21101 21401 21402 21407 21406
8 21097 21098 21103 21102 21402 21403 21408 21407
8 21098 10303 10302 21103 21403 10242 10241 21408
8 4352 21099 21104 4353 4291 21404 21409 4292
8 21099 21100 21105 21104 21404 21405 21410 21409
8 21100 21101 21106 21105 21405 21406 21411 21410
8 21101 21102 21107 21106 21406 21407 21412 21411
8 21102 21103 21108 21107 21407 21408 21413 21412
8 21103 10302 10301 21108 21408 10241 10240 21413
8 4353 21104 21109 4354 4292 21409 21414 4293
8 21104 21105 21110 21109 21409 21410 21415 21414
8 21105 21106 21111 21110 21410 21411 21416 21415
8 21106 21107 21112 21111 21411 21412 21417 21416
8 21107 21108 21113 21112 21412 21413 21418 21417
8 21108 10301 10300 21113 21413 10240 10239 21418
8 4354 21109 21114 4355 4293 21414 21419 4294
8 21109 21110 21115 21114 21414 21415 21420 21419
8 21110 21111 21116 21115 21415 21416 21421 21420
8 21111 21112 21117 21116 21416 21417 21422 21421
8 21112 21113 21118 21117 21417 21418 21423 21422
8 21113 10300 10299 21118 21418 10239 10238 21423
8 4355 21114 21119 4356 4294 21419 21424 4295
8 21114 21115 21120 21119 21419 21420 21425 21424
8 21115 21116 21121 21120 21420 21421 21426 21425
8 21116 21117 21122 21121 21421 21422 21427 21426
8 21117 21118 21123 21122 21422 21423 21428 21427
8 21118 10299 10298 21123 21423 10238 10237 21428
8 21119 21120 21125 21124 21424 21425 21430 21429
8 21120 21121 21126 21125 21425 21426 21431 21430
8 21121 21122 21127 21126 21426 21427 21432 21431
8 21122 21123 21128 21127 21427 21428 21433 21432
8 21123 10298 10297 21128 21428 10237 10236 21433
8 21124 21125 21130 21129 21429 21430 21435 21434
8 21125 21126 21131 21130 21430 21431 21436 21435
8 21126 21127 21132 21131 21431 21432 21437 21436
8 21127 21128 21133 21132 21432 21433 21438 21437
8 21128 10297 10296 21133 21433 10236 10235 21438
8 21129 21130 21135 21134 21434 21435 21440 21439
8 21130 21131 21136 21135 21435 21436 21441 21440
8 21131 21132 21137 21136 21436 21437 21442 21441
8 21132 21133 21138 21137 21437 21438 21443 21442
8 21133 10296 10295 21138 21438 10235 10234 21443
8 21134 21135 21140 21139 21439 21440 21445 21444
8 21135 21136 21141 21140 21440 21441 21446 21445
8 21136 21137 21142 21141 21441 21442 21447 21446
8 21137 21138 21143 21142 21442 21443 21448 21447
8 21138 10295 10294 21143 21443 10234 10233 21448
8 21139 21140 21145 21144 21444 21445 21450 21449
8 21140 21141 21146 21145 21445 21446 21451 21450
8 21141 21142 21147 21146 21446 21447 21452 21451
8 21142 21143 21148 21147 21447 21448 21453 21452
8 21143 10294 10293 21148 21448 10233 10232 21453
8 21144 21145 21150 21149 21449 21450 21455 21454
8 21145 21146 21151 21150 21450 21451 21456 21455
8 21146 21147 21152 21151 21451 21452 21457 21456
8 21147 21148 21153 21152 21452 21453 21458 21457
8 21148 10293 10292 21153 21453 10232 10231 21458
8 21149 21150 21155 21154 21454 21455 21460 21459
8 21150 21151 21156 21155 21455 21456 21461 21460
8 21151 21152 21157 21156 21456 21457 21462 21461
8 21152 21153 21158 21157 21457 21458 21463 21462
8 21153 10292 10291 21158 21458 10231 10230 21463
8 21154 21155 21160 21159 21459 21460 21465 21464
8 21155 21156 21161 21160 21460 21461 21466 21465
8 21156 21157 21162 21161 21461 21462 21467 21466
8 21157 21158 21163 21162 21462 21463 21468 21467
8 21158 10291 10290 21163 21463 10230 10229 21468
8 21159 21160 21165 21164 21464 21465 21470 21469
8 21160 21161 21166 21165 21465 21466 21471 21470
8 21161 21162 21167 21166 21466 21467 21472 21471
8 21162 21163 21168 21167 21467 21468 21473 21472
8 21163 10290 10289 21168 21468 10229 10228 21473
8 21164 21165 21170 21169 21469 21470 21475 21474
8 21165 21166 21171 21170 21470 21471 21476 21475
8 21166 21167 21172 21171 21471 21472 21477 21476
8 21167 21168 21173 21172 21472 21473 21478 21477
8 21168 10289 10288 21173 21473 10228 10227 21478
8 21169 21170 21175 21174 21474 21475 21480 21479
8 21170 21171 21176 21175 21475 21476 21481 21480
8 21171 21172 21177 21176 21476 21477 21482 21481
8 21172 21173 21178 21177 21477 21478 21483 21482
8 21173 10288 10287 21178 21478 10227 10226 21483
8 21174 21175 21180 21179 21479 21480 21485 21484
8 21175 21176 21181 21180 21480 21481 21486 21485
8 21176 21177 21182 21181 21481 21482 21487 21486
8 21177 21178 21183 21182 21482 21483 21488 21487
8 21178 10287 10286 21183 21483 10226 10225 21488
8 21179 21180 21185 21184 21484 21485 21490 21489
8 21180 21181 21186 21185 21485 21486 21491 21490
8 21181 21182 21187 21186 21486 21487 21492 21491
8 21182 21183 21188 21187 21487 21488 21493 21492
8 21183 10286 10285 21188 21488 10225 10224 21493
8 21184 21185 21190 21189 21489 21490 21495 21494
8 21185 21186 21191 21190 21490 21491 21496 21495
8 21186 21187 21192 21191 21491 21492 21497 21496
8 21187 21188 21193 21192 21492 21493 21498 21497
8 21188 10285 10284 21193 21493 10224 10223 21498
8 21189 21190 21195 21194 21494 21495 21500 21499
8 21190 21191 21196 21195 21495 21496 21501 21500
8 21191 21192 21197 21196 21496 21497 21502 21501
8 21192 21193 21198 21197 21497 21498 21503 21502
8 21193 10284 10283 21198 21498 10223 10222 21503
8 21194 21195 21200 21199 21499 21500 21505 21504
8 21195 21196 21201 21200 21500 21501 21506 21505
8 21196 21197 21202 21201 21501 21502 21507 21506
8 21197 21198 21203 21202 21502 21503 21508 21507
8 21198 10283 10282 21203 21503 10222 10221 21508
8 21199 21200 21205 21204 21504 21505 21510 21509
8 21200 21201 21206 21205 21505 21506 21511 21510
8 21201 21202 21207 21206 21506 21507 21512 21511
8 21202 21203 21208 21207 21507 21508 21513 21512
8 21203 10282 10281 21208 21508 10221 10220 21513
8 4373 21204 21209 4374 4312 21509 21514 4313
8 21204 21205 21210 21209 21509 21510 21515 21514
8 21205 21206 21211 21210 21510 21511 21516 21515
8 21206 21207 21212 21211 21511 21512 21517 21516
8 21207 21208 21213 21212 21512 21513 21518 21517
8 21208 10281 10280 21213 21513 10220 10219 21518
8 4374 21209 21214 4375 4313 21514 21519 4314
8 21209 21210 21215 21214 21514 21515 21520 21519
8 21210 21211 21216 21215 21515 21516 21521 21520
8 21211 21212 21217 21216 21516 21517 21522 21521
8 21212 21213 21218 21217 21517 21518 21523 21522
8 21213 10280 10279 21218 21518 10219 10218 21523
8 4375 21214 21219 4376 4314 21519 21524 4315
8 21214 21215 21220 21219 21519 21520 21525 21524
8 21215 21216 21221 21220 21520 21521 21526 21525
8 21216 21217 21222 21221 21521 21522 21527 21526
8 21217 21218 21223 21222 21522 21523 21528 21527
8 21218 10279 10278 21223 21523 10218 10217 21528
8 4376 21219 21224 4377 4315 21524 21529 4316
8 21219 21220 21225 21224 21524 21525 21530 21529
8 21220 21221 21226 21225 21525 21526 21531 21530
8 21221 21222 21227 21226 21526 21527 21532 21531
8 21222 21223 21228 21227 21527 21528 21533 21532
8 21223 10278 10277 21228 21528 10217 10216 21533
8 4377 21224 21229 4378 4316 21529 21534 4317
8 21224 21225 21230 21229 21529 21530 21535 21534
8 21225 21226 21231 21230 21530 21531 21536 21535
8 21226 21227 21232 21231 21531 21532 21537 21536
8 21227 21228 21233 21232 21532 21533 21538 21537
8 21228 10277 10276 21233 21533 10216 10215 21538
8 4378 21229 21234 4379 4317 21534 21539 4318
8 21229 21230 21235 21234 21534 21535 21540 21539
8 21230 21231 21236 21235 21535 21536 21541 21540
8 21231 21232 21237 21236 21536 21537 21542 21541
8 21232 21233 21238 21237 21537 21538 21543 21542
8 21233 10276 10275 21238 21538 10215 10214 21543
8 4379 21234 21239 4380 4318 21539 21544 4319
8 21234 21235 21240 21239 21539 21540 21545 21544
8 21235 21236 21241 21240 21540 21541 21546 21545
8 21236 21237 21242 21241 21541 21542 21547 21546
8 21237 21238 21243 21242 21542 21543 21548 21547
8 21238 10275 10274 21243 21543 10214 10213 21548
8 4380 21239 21244 4381 4319 21544 21549 4320
8 21239 21240 21245 21244 21544 21545 21550 21549
8 21240 21241 21246 21245 21545 21546 21551 21550
8 21241 21242 21247 21246 21546 21547 21552 21551
8 21242 21243 21248 21247 21547 21548 21553 21552
8 21243 10274 10273 21248 21548 10213 10212 21553
8 21244 21245 21250 21249 21549 21550 21555 21554
8 21245 21246 21251 21250 21550 21551 21556 21555
8 21246 21247 21252 21251 21551 21552 21557 21556
8 21247 21248 21253 21252 21552 21553 21558 21557
8 21248 10273 10272 21253 21553 10212 10211 21558
8 21249 21250 21255 21254 21554 21555 21560 21559
8 21250 21251 21256 21255 21555 21556 21561 21560
8 21251 21252 21257 21256 21556 21557 21562 21561
8 21252 21253 21258 21257 21557 21558 21563 21562
8 21253 10272 10271 21258 21558 10211 10210 21563
8 21254 21255 21260 21259 21559 21560 21565 21564
8 21255 21256 21261 21260 21560 21561 21566 21565
8 21256 21257 21262 21261 21561 21562 21567 21566
8 21257 21258 21263 21262 21562 21563 21568 21567
8 21258 10271 10270 21263 21563 10210 10209 21568
8 21259 21260 21265 21264 21564 21565 21570 21569
8 21260 21261 21266 21265 21565 21566 21571 21570
8 21261 21262 21267 21266 21566 21567 21572 21571
8 21262 21263 21268 21267 21567 21568 21573 21572
8 21263 10270 10269 21268 21568 10209 10208 21573
8 21264 21265 21270 21269 21569 21570 21575 21574
8 21265 21266 21271 21270 21570 21571 21576 21575
8 21266 21267 21272 21271 21571 21572 21577 21576
8 21267 21268 21273 21272 21572 21573 21578 21577
8 21268 10269 10268 21273 21573 10208 10207 21578
8 4386 21269 21274 4387 4325 21574 21579 4326
8 21269 21270 21275 21274 21574 21575 21580 21579
8 21270 21271 21276 21275 21575 21576 21581 21580
8 21271 21272 21277 21276 21576 21577 21582 21581
8 21272 21273 21278 21277 21577 21578 21583 21582
8 21273 10268 10267 21278 21578 10207 10206 21583
8 4387 21274 21279 4388 4326 21579 21584 4327
8 21274 21275 21280 21279 21579 21580 21585 21584
8 21275 21276 21281 21280 21580 21581 21586 21585
8 21276 21277 21282 21281 21581 21582 21587 21586
8 21277 21278 21283 21282 21582 21583 21588 21587
8 21278 10267 10266 21283 21583 10206 10205 21588
8 4388 21279 21284 4389 4327 21584 21589 4328
8 21279 21280 21285 21284 21584 21585 21590 21589
8 21280 21281 21286 21285 21585 21586 21591 21590
8 21281 21282 21287 21286 21586 21587 21592 21591
8 21282 21283 21288 21287 21587 21588 21593 21592
8 21283 10266 10265 21288 21588 10205 10204 21593
8 4389 21284 21289 4390 4328 21589 21594 4329
8 21284 21285 21290 21289 21589 21590 21595 21594
8 21285 21286 21291 21290 21590 21591 21596 21595
8 21286 21287 21292 21291 21591 21592 21597 21596
8 21287 21288 21293 21292 21592 21593 21598 21597
8 21288 10265 10264 21293 21593 10204 10203 21598
8 4390 21289 21294 4391 4329 21594 21599 4330
8 21289 21290 21295 21294 21594 21595 21600 21599
8 21290 21291 21296 21295 21595 21596 21601 21600
8 21291 21292 21297 21296 21596 21597 21602 21601
8 21292 21293 21298 21297 21597 21598 21603 21602
8 21293 10264 10263 21298 21598 10203 10202 21603
8 4391 21294 21299 4392 4330 21599 21604 4331
8 21294 21295 21300 21299 21599 21600 21605 21604
8 21295 21296 21301 21300 21600 21601 21606 21605
8 21296 21297 21302 21301 21601 21602 21607 21606
8 21297 21298 21303 21302 21602 21603 21608 21607
8 21298 10263 10262 21303 21603 10202 10201 21608
8 4392 21299 21304 4393 4331 21604 21609 4332
8 21299 21300 21305 21304 21604 21605 21610 21609
8 21300 21301 21306 21305 21605 21606 21611 21610
8 21301 21302 21307 21306 21606 21607 21612 21611
8 21302 21303 21308 21307 21607 21608 21613 21612
8 21303 10262 10261 21308 21608 10201 10200 21613
8 4393 21304 21309 4394 4332 21609 21614 4333
8 21304 21305 21310 21309 21609 21610 21615 21614
8 21305 21306 21311 21310 21610 21611 21616 21615
8 21306 21307 21312 21311 21611 21612 21617 21616
8 21307 21308 21313 21312 21612 21613 21618 21617
8 21308 10261 10260 21313 21613 10200 10199 21618
8 4394 21309 21314 4395 4333 21614 21619 4334
8 21309 21310 21315 21314 21614 21615 21620 21619
8 21310 21311 21316 21315 21615 21616 21621 21620
8 21311 21312 21317 21316 21616 21617 21622 21621
8 21312 21313 21318 21317 21617 21618 21623 21622
8 21313 10260 10259 21318 21618 10199 10198 21623
8 4395 21314 21319 4396 4334 21619 21624 4335
8 21314 21315 21320 21319 21619 21620 21625 21624
8 21315 21316 21321 21320 21620 21621 21626 21625
8 21316 21317 21322 21321 21621 21622 21627 21626
8 21317 21318 21323 21322 21622 21623 21628 21627
8 21318 10259 10258 21323 21623 10198 10197 21628
8 4396 21319 12959 130 4335 21624 12954 129
8 21319 21320 12960 12959 21624 21625 12955 12954
8 21320 21321 12961 12960 21625 21626 12956 12955
8 21321 21322 12962 12961 21626 21627 12957 12956
8 21322 21323 12963 12962 21627 21628 12958 12957
8 21323 10258 6165 12963 21628 10197 6166 12958
8 244 11984 21324 4275 245 11989 21629 4214
8 11984 11985 21325 21324 11989 11990 21630 21629
8 11985 11986 21326 21325 11990 11991 21631 21630
8 11986 11987 21327 21326 11991 11992 21632 21631
8 11987 11988 21328 21327 11992 11993 21633 21632
8 11988 6051 10257 21328 11993 6050 10196 21633
8 4275 21324 21329 4276 4214 21629 21634 4215
8 21324 21325 21330 21329 21629 21630 21635 21634
8 21325 21326 21331 21330 21630 21631 21636 21635
8 21326 21327 21332 21331 21631 21632 21637 21636
8 21327 21328 21333 21332 21632 21633 21638 21637
8 21328 10257 10256 21333 21633 10196 10195 21638
8 4276 21329 21334 4277 4215 21634 21639 4216
8 21329 21330 21335 21334 21634 21635 21640 21639
8 21330 21331 21336 21335 21635 21636 21641 21640
8 21331 21332 21337 21336 21636 21637 21642 21641
8 21332 21333 21338 21337 21637 21638 21643 21642
8 21333 10256 10255 21338 21638 10195 10194 21643
8 4277 21334 21339 4278 4216 21639 21644 4217
8 21334 21335 21340 21339 21639 21640 21645 21644
8 21335 21336 21341 21340 21640 21641 21646 21645
8 21336 21337 21342 21341 21641 21642 21647 21646
8 21337 21338 21343 21342 21642 21643 21648 21647
8 21338 10255 10254 21343 21643 10194 10193 21648
8 4278 21339 21344 4279 4217 21644 21649 4218
8 21339 21340 21345 21344 21644 21645 21650 21649
8 21340 21341 21346 21345 21645 21646 21651 21650
8 21341 21342 21347 21346 21646 21647 21652 21651
8 21342 21343 21348 21347 21647 21648 21653 21652
8 21343 10254 10253 21348 21648 10193 10192 21653
8 4279 21344 21349 4280 4218 21649 21654 4219
8 21344 21345 21350 21349 21649 21650 21655 21654
8 21345 21346 21351 21350 21650 21651 21656 21655
8 21346 21347 21352 21351 21651 21652 21657 21656
8 21347 21348 21353 21352 21652 21653 21658 21657
8 21348 10253 10252 21353 21653 10192 10191 21658
8 4280 21349 21354 4281 4219 21654 21659 4220
8 21349 21350 21355 21354 21654 21655 21660 21659
8 21350 21351 21356 21355 21655 21656 21661 21660
8 21351 21352 21357 21356 21656 21657 21662 21661
8 21352 21353 21358 21357 21657 21658 21663 21662
8 21353 10252 10251 21358 21658 10191 10190 21663
8 4281 21354 21359 4282 4220 21659 21664 4221
8 21354 21355 21360 21359 21659 21660 21665 21664
8 21355 21356 21361 21360 21660 21661 21666 21665
8 21356 21357 21362 21361 21661 21662 21667 21666
8 21357 21358 21363 21362 21662 21663 21668 21667
8 21358 10251 10250 21363 21663 10190 10189 21668
8 4282 21359 21364 4283 4221 21664 21669 4222
8 21359 21360 21365 21364 21664 21665 21670 21669
8 21360 21361 21366 21365 21665 21666 21671 21670
8 21361 21362 21367 21366 21666 21667 21672 21671
8 21362 21363 21368 21367 21667 21668 21673 21672
8 21363 10250 10249 21368 21668 10189 10188 21673
8 4283 21364 21369 4284 4222 21669 21674 4223
8 21364 21365 21370 21369 21669 21670 21675 21674
8 21365 21366 21371 21370 21670 21671 21676 21675
8 21366 21367 21372 21371 21671 21672 21677 21676
8 21367 21368 21373 21372 21672 21673 21678 21677
8 21368 10249 10248 21373 21673 10188 10187 21678
8 4284 21369 21374 4285 4223 21674 21679 4224
8 21369 21370 21375 21374 21674 21675 21680 21679
8 21370 21371 21376 21375 21675 21676 21681 21680
8 21371 21372 21377 21376 21676 21677 21682 21681
8 21372 21373 21378 21377 21677 21678 21683 21682
8 21373 10248 10247 21378 21678 10187 10186 21683
8 4285 21374 21379 4286 4224 21679 21684 4225
8 21374 21375 21380 21379 21679 21680 21685 21684
8 21375 21376 21381 21380 21680 21681 21686 21685
8 21376 21377 21382 21381 21681 21682 21687 21686
8 21377 21378 21383 21382 21682 21683 21688 21687
8 21378 10247 10246 21383 21683 10186 10185 21688
8 4286 21379 21384 4287 4225 21684 21689 4226
8 21379 21380 21385 21384 21684 21685 21690 21689
8 21380 21381 21386 21385 21685 21686 21691 21690
8 21381 21382 21387 21386 21686 21687 21692 21691
8 21382 21383 21388 21387 21687 21688 21693 21692
8 21383 10246 10245 21388 21688 10185 10184 21693
8 4287 21384 21389 4288 4226 21689 21694 4227
8 21384 21385 21390 21389 21689 21690 21695 21694
8 21385 21386 21391 21390 21690 21691 21696 21695
8 21386 21387 21392 21391 21691 21692 21697 21696
8 21387 21388 21393 21392 21692 21693 21698 21697
8 21388 10245 10244 21393 21693 10184 10183 21698
8 4288 21389 21394 4289 4227 21694 21699 4228
8 21389 21390 21395 21394 21694 21695 21700 21699
8 21390 21391 21396 21395 21695 21696 21701 21700
8 21391 21392 21397 21396 21696 21697 21702 21701
8 21392 21393 21398 21397 21697 21698 21703 21702
8 21393 10244 10243 21398 21698 10183 10182 21703
8 4289 21394 21399 4290 4228 21699 21704 4229
8 21394 21395 21400 21399 21699 21700 21705 21704
8 21395 21396 21401 21400 21700 21701 21706 21705
8 21396 21397 21402 21401 21701 21702 21707 21706
8 21397 21398 21403 21402 21702 21703 21708 21707
8 21398 10243 10242 21403 21703 10182 10181 21708
8 4290 21399 21404 4291 4229 21704 21709 4230
8 21399 21400 21405 21404 21704 21705 21710 21709
8 21400 21401 21406 21405 21705 21706 21711 21710
8 21401 21402 21407 21406 21706 21707 21712 21711
8 21402 21403 21408 21407 21707 21708 21713 21712
8 21403 10242 10241 21408 21708 10181 10180 21713
8 4291 21404 21409 4292 4230 21709 21714 4231
8 21404 21405 21410 21409 21709 21710 21715 21714
8 21405 21406 21411 21410 21710 21711 21716 21715
8 21406 21407 21412 21411 21711 21712 21717 21716
8 21407 21408 21413 21412 21712 21713 21718 21717
8 21408 10241 10240 21413 21713 10180 10179 21718
8 4292 21409 21414 4293 4231 21714 21719 4232
8 21409 21410 21415 21414 21714 21715 21720 21719
8 21410 21411 21416 21415 21715 21716 21721 21720
8 21411 21412 21417 21416 21716 21717 21722 21721
8 21412 21413 21418 21417 21717 21718 21723 21722
8 21413 10240 10239 21418 21718 10179 10178 21723
8 4293 21414 21419 4294 4232 21719 21724 4233
8 21414 21415 21420 21419 21719 21720 21725 21724
8 21415 21416 21421 21420 21720 21721 21726 21725
8 21416 21417 21422 21421 21721 21722 21727 21726
8 21417 21418 21423 21422 21722 21723 21728 21727
8 21418 10239 10238 21423 21723 10178 10177 21728
8 4294 21419 21424 4295 4233 21724 21729 4234
8 21419 21420 21425 21424 21724 21725 21730 21729
8 21420 21421 21426 21425 21725 21726 21731 21730
8 21421 21422 21427 21426 21726 21727 21732 21731
8 21422 21423 21428 21427 21727 21728 21733 21732
8 21423 10238 10237 21428 21728 10177 10176 21733
8 21424 21425 21430 21429 21729 21730 21735 21734
8 21425 21426 21431 21430 21730 21731 21736 21735
8 21426 21427 21432 21431 21731 21732 21737 21736
8 21427 21428 21433 21432 21732 21733 21738 21737
8 21428 10237 10236 21433 21733 10176 10175 21738
8 21429 21430 21435 21434 21734 21735 21740 21739
8 21430 21431 21436 21435 21735 21736 21741 21740
8 21431 21432 21437 21436 21736 21737 21742 21741
8 21432 21433 21438 21437 21737 21738 21743 21742
8 21433 10236 10235 21438 21738 10175 10174 21743
8 21434 21435 21440 21439 21739 21740 21745 21744
8 21435 21436 21441 21440 21740 21741 21746 21745
8 21436 21437 21442 21441 21741 21742 21747 21746
8 21437 21438 21443 21442 21742 21743 21748 21747
8 21438 10235 10234 21443 21743 10174 10173 21748
8 21439 21440 21445 21444 21744 21745 21750 21749
8 21440 21441 21446 21445 21745 21746 21751 21750
8 21441 21442 21447 21446 21746 21747 21752 21751
8 21442 21443 21448 21447 21747 21748 21753 21752
8 21443 10234 10233 21448 21748 10173 10172 21753
8 21444 21445 21450 21449 21749 21750 21755 21754
8 21445 21446 21451 21450 21750 21751 21756 21755
8 21446 21447 21452 21451 21751 21752 21757 21756
8 21447 21448 21453 21452 21752 21753 21758 21757
8 21448 10233 10232 21453 21753 10172 10171 21758
8 21449 21450 21455 21454 21754 21755 21760 21759
8 21450 21451 21456 21455 21755 21756 21761 21760
8 21451 21452 21457 21456 21756 21757 21762 21761
8 21452 21453 21458 21457 21757 21758 21763 21762
8 21453 10232 10231 21458 21758 10171 10170 21763
8 21454 21455 21460 21459 21759 21760 21765 21764
8 21455 21456 21461 21460 21760 21761 21766 21765
8 21456 21457 21462 21461 21761 21762 21767 21766
8 21457 21458 21463 21462 21762 21763 21768 21767
8 21458 10231 10230 21463 21763 10170 10169 21768
8 21459 21460 21465 21464 21764 21765 21770 21769
8 21460 21461 21466 21465 21765 21766 21771 21770
8 21461 21462 21467 21466 21766 21767 21772 21771
8 21462 21463 21468 21467 21767 21768 21773 21772
8 21463 10230 10229 21468 21768 10169 10168 21773
8 21464 21465 21470 21469 21769 21770 21775 21774
8 21465 21466 21471 21470 21770 21771 21776 21775
8 21466 21467 21472 21471 21771 21772 21777 21776
8 21467 21468 21473 21472 21772 21773 21778 21777
8 21468 10229 10228 21473 21773 10168 10167 21778
8 21469 21470 21475 21474 21774 21775 21780 21779
8 21470 21471 21476 21475 21775 21776 21781 21780
8 21471 21472 21477 21476 21776 21777 21782 21781
8 21472 21473 21478 21477 21777 21778 21783 21782
8 21473 10228 10227 21478 21778 10167 10166 21783
8 21474 21475 21480 21479 21779 21780 21785 21784
8 21475 21476 21481 21480 21780 21781 21786 21785
8 21476 21477 21482 21481 21781 21782 21787 21786
8 21477 21478 21483 21482 21782 21783 21788 21787
8 21478 10227 10226 21483 21783 10166 10165 21788
8 21479 21480 21485 21484 21784 21785 21790 21789
8 21480 21481 21486 21485 21785 21786 21791 21790
8 21481 21482 21487 21486 21786 21787 21792 21791
8 21482 21483 21488 21487 21787 21788 21793 21792
8 21483 10226 10225 21488 21788 10165 10164 21793
8 21484 21485 21490 21489 21789 21790 21795 21794
8 21485 21486 21491 21490 21790 21791 21796 21795
8 21486 21487 21492 21491 21791 21792 21797 21796
8 21487 21488 21493 21492 21792 21793 21798 21797
8 21488 10225 10224 21493 21793 10164 10163 21798
8 21489 21490 21495 21494 21794 21795 21800 21799
8 21490 21491 21496 21495 21795 21796 21801 21800
8 21491 21492 21497 21496 21796 21797 21802 21801
8 21492 21493 21498 21497 21797 21798 21803 21802
8 21493 10224 10223 21498 21798 10163 10162 21803
8 21494 21495 21500 21499 21799 21800 21805 21804
8 21495 21496 21501 21500 21800 21801 21806 21805
8 21496 21497 21502 21501 21801 21802 21807 21806
8 21497 21498 21503 21502 21802 21803 21808 21807
8 21498 10223 10222 21503 21803 10162 10161 21808
8 21499 21500 21505 21504 21804 21805 21810 21809
8 21500 21501 21506 21505 21805 21806 21811 21810
8 21501 21502 21507 21506 21806 21807 21812 21811
8 21502 21503 21508 21507 21807 21808 21813 21812
8 21503 10222 10221 21508 21808 10161 10160 21813
8 21504 21505 21510 21509 21809 21810 21815 21814
8 21505 21506 21511 21510 21810 21811 21816 21815
8 21506 21507 21512 21511 21811 21812 21817 21816
8 21507 21508 21513 21512 21812 21813 21818 21817
8 21508 10221 10220 21513 21813 10160 10159 21818
8 4312 21509 21514 4313 4251 21814 21819 4252
8 21509 21510 21515 21514 21814 21815 21820 21819
8 21510 21511 21516 21515 21815 21816 21821 21820
8 21511 21512 21517 21516 21816 21817 21822 21821
8 21512 21513 21518 21517 21817 21818 21823 21822
8 21513 10220 10219 21518 21818 10159 10158 21823
8 4313 21514 21519 4314 4252 21819 21824 4253
8 21514 21515 21520 21519 21819 21820 21825 21824
8 21515 21516 21521 21520 21820 21821 21826 21825
8 21516 21517 21522 21521 21821 21822 21827 21826
8 21517 21518 21523 21522 21822 21823 21828 21827
8 21518 10219 10218 21523 21823 10158 10157 21828
8 4314 21519 21524 4315 4253 21824 21829 4254
8 21519 21520 21525 21524 21824 21825 21830 21829
8 21520 21521 21526 21525 21825 21826 21831 21830
8 21521 21522 21527 21526 21826 21827 21832 21831
8 21522 21523 21528 21527 21827 21828 21833 21832
8 21523 10218 10217 21528 21828 10157 10156 21833
8 4315 21524 21529 4316 4254 21829 21834 4255
8 21524 21525 21530 21529 21829 21830 21835 21834
8 21525 21526 21531 21530 21830 21831 21836 21835
8 21526 21527 21532 21531 21831 21832 21837 21836
8 21527 21528 21533 21532 21832 21833 21838 21837
8 21528 10217 10216 21533 21833 10156 10155 21838
8 4316 21529 21534 4317 4255 21834 21839 4256
8 21529 21530 21535 21534 21834 21835 21840 21839
8 21530 21531 21536 21535 21835 21836 21841 21840
8 21531 21532 21537 21536 21836 21837 21842 21841
8 21532 21533 21538 21537 21837 21838 21843 21842
8 21533 10216 10215 21538 21838 10155 10154 21843
8 4317 21534 21539 4318 4256 21839 21844 4257
8 21534 21535 21540 21539 21839 21840 21845 21844
8 21535 21536 21541 21540 21840 21841 21846 21845
8 21536 21537 21542 21541 21841 21842 21847 21846
8 21537 21538 21543 21542 21842 21843 21848 21847
8 21538 10215 10214 21543 21843 10154 10153 21848
8 4318 21539 21544 4319 4257 21844 21849 4258
8 21539 21540 21545 21544 21844 21845 21850 21849
8 21540 21541 21546 21545 21845 21846 21851 21850
8 21541 21542 21547 21546 21846 21847 21852 21851
8 21542 21543 21548 21547 21847 21848 21853 21852
8 21543 10214 10213 21548 21848 10153 10152 21853
8 4319 21544 21549 4320 4258 21849 21854 4259
8 21544 21545 21550 21549 21849 21850 21855 21854
8 21545 21546 21551 21550 21850 21851 21856 21855
8 21546 21547 21552 21551 21851 21852 21857 21856
8 21547 21548 21553 21552 21852 21853 21858 21857
8 21548 10213 10212 21553 21853 10152 10151 21858
8 21549 21550 21555 21554 21854 21855 21860 21859
8 21550 21551 21556 21555 21855 21856 21861 21860
8 21551 21552 21557 21556 21856 21857 21862 21861
8 21552 21553 21558 21557 21857 21858 21863 21862
8 21553 10212 10211 21558 21858 10151 10150 21863
8 21554 21555 21560 21559 21859 21860 21865 21864
8 21555 21556 21561 21560 21860 21861 21866 21865
8 21556 21557 21562 21561 21861 21862 21867 21866
8 21557 21558 21563 21562 21862 21863 21868 21867
8 21558 10211 10210 21563 21863 10150 10149 21868
8 21559 21560 21565 21564 21864 21865 21870 21869
8 21560 21561 21566 21565 21865 21866 21871 21870
8 21561 21562 21567 21566 21866 21867 21872 21871
8 21562 21563 21568 21567 21867 21868 21873 21872
8 21563 10210 10209 21568 21868 10149 10148 21873
8 21564 21565 21570 21569 21869 21870 21875 21874
8 21565 21566 21571 21570 21870 21871 21876 21875
8 21566 21567 21572 21571 21871 21872 21877 21876
8 21567 21568 21573 21572 21872 21873 21878 21877
8 21568 10209 10208 21573 21873 10148 10147 21878
8 21569 21570 21575 21574 21874 21875 21880 21879
8 21570 21571 21576 21575 21875 21876 21881 21880
8 21571 21572 21577 21576 21876 21877 21882 21881
8 21572 21573 21578 21577 21877 21878 21883 21882
8 21573 10208 10207 21578 21878 10147 10146 21883
8 4325 21574 21579 4326 4264 21879 21884 4265
8 21574 21575 21580 21579 21879 21880 21885 21884
8 21575 21576 21581 21580 21880 21881 21886 21885
8 21576 21577 21582 21581 21881 21882 21887 21886
8 21577 21578 21583 21582 21882 21883 21888 21887
8 21578 10207 10206 21583 21883 10146 10145 21888
8 4326 21579 21584 4327 4265 21884 21889 4266
8 21579 21580 21585 21584 21884 21885 21890 21889
8 21580 21581 21586 21585 21885 21886 21891 21890
8 21581 21582 21587 21586 21886 21887 21892 21891
8 21582 21583 21588 21587 21887 21888 21893 21892
8 21583 10206 10205 21588 21888 10145 10144 21893
8 4327 21584 21589 4328 4266 21889 21894 4267
8 21584 21585 21590 21589 21889 21890 21895 21894
8 21585 21586 21591 21590 21890 21891 21896 21895
8 21586 21587 21592 21591 21891 21892 21897 21896
8 21587 21588 21593 21592 21892 21893 21898 21897
8 21588 10205 10204 21593 21893 10144 10143 21898
8 4328 21589 21594 4329 4267 21894 21899 4268
8 21589 21590 21595 21594 21894 21895 21900 21899
8 21590 21591 21596 21595 21895 21896 21901 21900
8 21591 21592 21597 21596 21896 21897 21902 21901
8 21592 21593 21598 21597 21897 21898 21903 21902
8 21593 10204 10203 21598 21898 10143 10142 21903
8 4329 21594 21599 4330 4268 21899 21904 4269
8 21594 21595 21600 21599 21899 21900 21905 21904
8 21595 21596 21601 21600 21900 21901 21906 21905
8 21596 21597 21602 21601 21901 21902 21907 21906
8 21597 21598 21603 21602 21902 21903 21908 21907
8 21598 10203 10202 21603 21903 10142 10141 21908
8 4330 21599 21604 4331 4269 21904 21909 4270
8 21599 21600 21605 21604 21904 21905 21910 21909
8 21600 21601 21606 21605 21905 21906 21911 21910
8 21601 21602 21607 21606 21906 21907 21912 21911
8 21602 21603 21608 21607 21907 21908 21913 21912
8 21603 10202 10201 21608 21908 10141 10140 21913
8 4331 21604 21609 4332 4270 21909 21914 4271
8 21604 21605 21610 21609 21909 21910 21915 21914
8 21605 21606 21611 21610 21910 21911 21916 21915
8 21606 21607 21612 21611 21911 21912 21917 21916
8 21607 21608 21613 21612 21912 21913 21918 21917
8 21608 10201 10200 21613 21913 10140 10139 21918
8 4332 21609 21614 4333 4271 21914 21919 4272
8 21609 21610 21615 21614 21914 21915 21920 21919
8 21610 21611 21616 21615 21915 21916 21921 21920
8 21611 21612 21617 21616 21916 21917 21922 21921
8 21612 21613 21618 21617 21917 21918 21923 21922
8 21613 10200 10199 21618 21918 10139 10138 21923
8 4333 21614 21619 4334 4272 21919 21924 4273
8 21614 21615 21620 21619 21919 21920 21925 21924
8 21615 21616 21621 21620 21920 21921 21926 21925
8 21616 21617 21622 21621 21921 21922 21927 21926
8 21617 21618 21623 21622 21922 21923 21928 21927
8 21618 10199 10198 21623 21923 10138 10137 21928
8 4334 21619 21624 4335 4273 21924 21929 4274
8 21619 21620 21625 21624 21924 21925 21930 21929
8 21620 21621 21626 21625 21925 21926 21931 21930
8 21621 21622 21627 21626 21926 21927 21932 21931
8 21622 21623 21628 21627 21927 21928 21933 21932
8 21623 10198 10197 21628 21928 10137 10136 21933
8 4335 21624 12954 129 4274 21929 12949 128
8 21624 21625 12955 12954 21929 21930 12950 12949
8 21625 21626 12956 12955 21930 21931 12951 12950
8 21626 21627 12957 12956 21931 21932 12952 12951
8 21627 21628 12958 12957 21932 21933 12953 12952
8 21628 10197 6166 12958 21933 10136 6167 12953
8 245 11989 21629 4214 246 11994 21934 4153
8 11989 11990 21630 21629 11994 11995 21935 21934
8 11990 11991 21631 21630 11995 11996 21936 21935
8 11991 11992 21632 21631 11996 11997 21937 21936
8 11992 11993 21633 21632 11997 11998 21938 21937
8 11993 6050 10196 21633 11998 6049 10135 21938
8 4214 21629 21634 4215 4153 21934 21939 4154
8 21629 21630 21635 21634 21934 21935 21940 21939
8 21630 21631 21636 21635 21935 21936 21941 21940
8 21631 21632 21637 21636 21936 21937 21942 21941
8 21632 21633 21638 21637 21937 21938 21943 21942
8 21633 10196 10195 21638 21938 10135 10134 21943
8 4215 21634 21639 4216 4154 21939 21944 4155
8 21634 21635 21640 21639 21939 21940 21945 21944
8 21635 21636 21641 21640 21940 21941 21946 21945
8 21636 21637 21642 21641 21941 21942 21947 21946
8 21637 21638 21643 21642 21942 21943 21948 21947
8 21638 10195 10194 21643 21943 10134 10133 21948
8 4216 21639 21644 4217 4155 21944 21949 4156
8 21639 21640 21645 21644 21944 21945 21950 21949
8 21640 21641 21646 21645 21945 21946 21951 21950
8 21641 21642 21647 21646 21946 21947 21952 21951
8 21642 21643 21648 21647 21947 21948 21953 21952
8 21643 10194 10193 21648 21948 10133 10132 21953
8 4217 21644 21649 4218 4156 21949 21954 4157
8 21644 21645 21650 21649 21949 21950 21955 21954
8 21645 21646 21651 21650 21950 21951 21956 21955
8 21646 21647 21652 21651 21951 21952 21957 21956
8 21647 21648 21653 21652 21952 21953 21958 21957
8 21648 10193 10192 21653 21953 10132 10131 21958
8 4218 21649 21654 4219 4157 21954 21959 4158
8 21649 21650 21655 21654 21954 21955 21960 21959
8 21650 21651 21656 21655 21955 21956 21961 21960
8 21651 21652 21657 21656 21956 21957 21962 21961
8 21652 21653 21658 21657 21957 21958 21963 21962
8 21653 10192 10191 21658 21958 10131 10130 21963
8 4219 21654 21659 4220 4158 21959 21964 4159
8 21654 21655 21660 21659 21959 21960 21965 21964
8 21655 21656 21661 21660 21960 21961 21966 21965
8 21656 21657 21662 21661 21961 21962 21967 21966
8 21657 21658 21663 21662 21962 21963 21968 21967
8 21658 10191 10190 21663 21963 10130 10129 21968
8 4220 21659 21664 4221 4159 21964 21969 4160
8 21659 21660 21665 21664 21964 21965 21970 21969
8 21660 21661 21666 21665 21965 21966 21971 21970
8 21661 21662 21667 21666 21966 21967 21972 21971
8 21662 21663 21668 21667 21967 21968 21973 21972
8 21663 10190 10189 21668 21968 10129 10128 21973
8 4221 21664 21669 4222 4160 21969 21974 4161
8 21664 21665 21670 21669 21969 21970 21975 21974
8 21665 21666 21671 21670 21970 21971 21976 21975
8 21666 21667 21672 21671 21971 21972 21977 21976
8 21667 21668 21673 21672 21972 21973 21978 21977
8 21668 10189 10188 21673 21973 10128 10127 21978
8 4222 21669 21674 4223 4161 21974 21979 4162
8 21669 21670 21675 21674 21974 21975 21980 21979
8 21670 21671 21676 21675 21975 21976 21981 21980
8 21671 21672 21677 21676 21976 21977 21982 21981
8 21672 21673 21678 21677 21977 21978 21983 21982
8 21673 10188 10187 21678 21978 10127 10126 21983
8 4223 21674 21679 4224 4162 21979 21984 4163
8 21674 21675 21680 21679 21979 21980 21985 21984
8 21675 21676 21681 21680 21980 21981 21986 21985
8 21676 21677 21682 21681 21981 21982 21987 21986
8 21677 21678 21683 21682 21982 21983 21988 21987
8 21678 10187 10186 21683 21983 10126 10125 21988
8 4224 21679 21684 4225 4163 21984 21989 4164
8 21679 21680 21685 21684 21984 21985 21990 21989
8 21680 21681 21686 21685 21985 21986 21991 21990
8 21681 21682 21687 21686 21986 21987 21992 21991
8 21682 21683 21688 21687 21987 21988 21993 21992
8 21683 10186 10185 21688 21988 10125 10124 21993
8 4225 21684 21689 4226 4164 21989 21994 4165
8 21684 21685 21690 21689 21989 21990 21995 21994
8 21685 21686 21691 21690 21990 21991 21996 21995
8 21686 21687 21692 21691 21991 21992 21997 21996
8 21687 21688 21693 21692 21992 21993 21998 21997
8 21688 10185 10184 21693 21993 10124 10123 21998
8 4226 21689 21694 4227 4165 21994 21999 4166
8 21689 21690 21695 21694 21994 21995 22000 21999
8 21690 21691 21696 21695 21995 21996 22001 22000
8 21691 21692 21697 21696 21996 21997 22002 22001
8 21692 21693 21698 21697 21997 21998 22003 22002
8 21693 10184 10183 21698 21998 10123 10122 22003
8 4227 21694 21699 4228 4166 21999 22004 4167
8 21694 21695 21700 21699 21999 22000 22005 22004
8 21695 21696 21701 21700 22000 22001 22006 22005
8 21696 21697 21702 21701 22001 22002 22007 22006
8 21697 21698 21703 21702 22002 22003 22008 22007
8 21698 10183 10182 21703 22003 10122 10121 22008
8 4228 21699 21704 4229 4167 22004 22009 4168
8 21699 21700 21705 21704 22004 22005 22010 22009
8 21700 21701 21706 21705 22005 22006 22011 22010
8 21701 21702 21707 21706 22006 22007 22012 22011
8 21702 21703 21708 21707 22007 22008 22013 22012
8 21703 10182 10181 21708 22008 10121 10120 22013
8 4229 21704 21709 4230 4168 22009 22014 4169
8 21704 21705 21710 21709 22009 22010 22015 22014
8 21705 21706 21711 21710 22010 22011 22016 22015
8 21706 21707 21712 21711 22011 22012 22017 22016
8 21707 21708 21713 21712 22012 22013 22018 22017
8 21708 10181 10180 21713 22013 10120 10119 22018
8 4230 21709 21714 4231 4169 22014 22019 4170
8 21709 21710 21715 21714 22014 22015 22020 22019
8 21710 21711 21716 21715 22015 22016 22021 22020
8 21711 21712 21717 21716 22016 22017 22022 22021
8 21712 21713 21718 21717 22017 22018 22023 22022
8 21713 10180 10179 21718 22018 10119 10118 22023
8 4231 21714 21719 4232 4170 22019 22024 4171
8 21714 21715 21720 21719 22019 22020 22025 22024
8 21715 21716 21721 21720 22020 22021 22026 22025
8 21716 21717 21722 21721 22021 22022 22027 22026
8 21717 21718 21723 21722 22022 22023 22028 22027
8 21718 10179 10178 21723 22023 10118 10117 22028
8 4232 21719 21724 4233 4171 22024 22029 4172
8 21719 21720 21725 21724 22024 22025 22030 22029
8 21720 21721 21726 21725 22025 22026 22031 22030
8 21721 21722 21727 21726 22026 22027 22032 22031
8 21722 21723 21728 21727 22027 22028 22033 22032
8 21723 10178 10177 21728 22028 10117 10116 22033
8 4233 21724 21729 4234 4172 22029 22034 4173
8 21724 21725 21730 21729 22029 22030 22035 22034
8 21725 21726 21731 21730 22030 22031 22036 22035
8 21726 21727 21732 21731 22031 22032 22037 22036
8 21727 21728 21733 21732 22032 22033 22038 22037
8 21728 10177 10176 21733 22033 10116 10115 22038
8 4234 21729 21734 4235 4173 22034 22039 4174
8 21729 21730 21735 21734 22034 22035 22040 22039
8 21730 21731 21736 21735 22035 22036 22041 22040
8 21731 21732 21737 21736 22036 22037 22042 22041
8 21732 21733 21738 21737 22037 22038 22043 22042
8 21733 10176 10175 21738 22038 10115 10114 22043
8 4235 21734 21739 4236 4174 22039 22044 4175
8 21734 21735 21740 21739 22039 22040 22045 22044
8 21735 21736 21741 21740 22040 22041 22046 22045
8 21736 21737 21742 21741 22041 22042 22047 22046
8 21737 21738 21743 21742 22042 22043 22048 22047
8 21738 10175 10174 21743 22043 10114 10113 22048
8 4236 21739 21744 4237 4175 22044 22049 4176
8 21739 21740 21745 21744 22044 22045 22050 22049
8 21740 21741 21746 21745 22045 22046 22051 22050
8 21741 21742 21747 21746 22046 22047 22052 22051
8 21742 21743 21748 21747 22047 22048 22053 22052
8 21743 10174 10173 21748 22048 10113 10112 22053
8 4237 21744 21749 4238 4176 22049 22054 4177
8 21744 21745 21750 21749 22049 22050 22055 22054
8 21745 21746 21751 21750 22050 22051 22056 22055
8 21746 21747 21752 21751 22051 22052 22057 22056
8 21747 21748 21753 21752 22052 22053 22058 22057
8 21748 10173 10172 21753 22053 10112 10111 22058
8 4238 21749 21754 4239 4177 22054 22059 4178
8 21749 21750 21755 21754 22054 22055 22060 22059
8 21750 21751 21756 21755 22055 22056 22061 22060
8 21751 21752 21757 21756 22056 22057 22062 22061
8 21752 21753 21758 21757 22057 22058 22063 22062
8 21753 10172 10171 21758 22058 10111 10110 22063
8 4239 21754 21759 4240 4178 22059 22064 4179
8 21754 21755 21760 21759 22059 22060 22065 22064
8 21755 21756 21761 21760 22060 22061 22066 22065
8 21756 21757 21762 21761 22061 22062 22067 22066
8 21757 21758 21763 21762 22062 22063 22068 22067
8 21758 10171 10170 21763 22063 10110 10109 22068
8 4240 21759 21764 4241 4179 22064 22069 4180
8 21759 21760 21765 21764 22064 22065 22070 22069
8 21760 21761 21766 21765 22065 22066 22071 22070
8 21761 21762 21767 21766 22066 22067 22072 22071
8 21762 21763 21768 21767 22067 22068 22073 22072
8 21763 10170 10169 21768 22068 10109 10108 22073
8 4241 21764 21769 4242 4180 22069 22074 4181
8 21764 21765 21770 21769 22069 22070 22075 22074
8 21765 21766 21771 21770 22070 22071 22076 22075
8 21766 21767 21772 21771 22071 22072 22077 22076
8 21767 21768 21773 21772 22072 22073 22078 22077
8 21768 10169 10168 21773 22073 10108 10107 22078
8 4242 21769 21774 4243 4181 22074 22079 4182
8 21769 21770 21775 21774 22074 22075 22080 22079
8 21770 21771 21776 21775 22075 22076 22081 22080
8 21771 21772 21777 21776 22076 22077 22082 22081
8 21772 21773 21778 21777 22077 22078 22083 22082
8 21773 10168 10167 21778 22078 10107 10106 22083
8 4243 21774 21779 4244 4182 22079 22084 4183
8 21774 21775 21780 21779 22079 22080 22085 22084
8 21775 21776 21781 21780 22080 22081 22086 22085
8 21776 21777 21782 21781 22081 22082 22087 22086
8 21777 21778 21783 21782 22082 22083 22088 22087
8 21778 10167 10166 21783 22083 10106 10105 22088
8 4244 21779 21784 4245 4183 22084 22089 4184
8 21779 21780 21785 21784 22084 22085 22090 22089
8 21780 21781 21786 21785 22085 22086 22091 22090
8 21781 21782 21787 21786 22086 22087 22092 22091
8 21782 21783 21788 21787 22087 22088 22093 22092
8 21783 10166 10165 21788 22088 10105 10104 22093
8 4245 21784 21789 4246 4184 22089 22094 4185
8 21784 21785 21790 21789 22089 22090 22095 22094
8 21785 21786 21791 21790 22090 22091 22096 22095
8 21786 21787 21792 21791 22091 22092 22097 22096
8 21787 21788 21793 21792 22092 22093 22098 22097
8 21788 10165 10164 21793 22093 10104 10103 22098
8 4246 21789 21794 4247 4185 22094 22099 4186
8 21789 21790 21795 21794 22094 22095 22100 22099
8 21790 21791 21796 21795 22095 22096 22101 22100
8 21791 21792 21797 21796 22096 22097 22102 22101
8 21792 21793 21798 21797 22097 22098 22103 22102
8 21793 10164 10163 21798 22098 10103 10102 22103
8 4247 21794 21799 4248 4186 22099 22104 4187
8 21794 21795 21800 21799 22099 22100 22105 22104
8 21795 21796 21801 21800 22100 22101 22106 22105
8 21796 21797 21802 21801 22101 22102 22107 22106
8 21797 21798 21803 21802 22102 22103 22108 22107
8 21798 10163 10162 21803 22103 10102 10101 22108
8 4248 21799 21804 4249 4187 22104 22109 4188
8 21799 21800 21805 21804 22104 22105 22110 22109
8 21800 21801 21806 21805 22105 22106 22111 22110
8 21801 21802 21807 21806 22106 22107 22112 22111
8 21802 21803 21808 21807 22107 22108 22113 22112
8 21803 10162 10161 21808 22108 10101 10100 22113
8 4249 21804 21809 4250 4188 22109 22114 4189
8 21804 21805 21810 21809 22109 22110 22115 22114
8 21805 21806 21811 21810 22110 22111 22116 22115
8 21806 21807 21812 21811 22111 22112 22117 22116
8 21807 21808 21813 21812 22112 22113 22118 22117
8 21808 10161 10160 21813 22113 10100 10099 22118
8 4250 21809 21814 4251 4189 22114 22119 4190
8 21809 21810 21815 21814 22114 22115 22120 22119
8 21810 21811 21816 21815 22115 22116 22121 22120
8 21811 21812 21817 21816 22116 22117 22122 22121
8 21812 21813 21818 21817 22117 22118 22123 22122
8 21813 10160 10159 21818 22118 10099 10098 22123
8 4251 21814 21819 4252 4190 22119 22124 4191
8 21814 21815 21820 21819 22119 22120 22125 22124
8 21815 21816 21821 21820 22120 22121 22126 22125
8 21816 21817 21822 21821 22121 22122 22127 22126
8 21817 21818 21823 21822 22122 22123 22128 22127
8 21818 10159 10158 21823 22123 10098 10097 22128
8 4252 21819 21824 4253 4191 22124 22129 4192
8 21819 21820 21825 21824 22124 22125 22130 22129
8 21820 21821 21826 21825 22125 22126 22131 22130
8 21821 21822 21827 21826 22126 22127 22132 22131
8 21822 21823 21828 21827 22127 22128 22133 22132
8 21823 10158 10157 21828 22128 10097 10096 22133
8 4253 21824 21829 4254 4192 22129 22134 4193
8 21824 21825 21830 21829 22129 22130 22135 22134
8 21825 21826 21831 21830 22130 22131 22136 22135
8 21826 21827 21832 21831 22131 22132 22137 22136
8 21827 21828 21833 21832 22132 22133 22138 22137
8 21828 10157 10156 21833 22133 10096 10095 22138
8 4254 21829 21834 4255 4193 22134 22139 4194
8 21829 21830 21835 21834 22134 22135 22140 22139
8 21830 21831 21836 21835 22135 22136 22141 22140
8 21831 21832 21837 21836 22136 22137 22142 22141
8 21832 21833 21838 21837 22137 22138 22143 22142
8 21833 10156 10155 21838 22138 10095 10094 22143
8 4255 21834 21839 4256 4194 22139 22144 4195
8 21834 21835 21840 21839 22139 22140 22145 22144
8 21835 21836 21841 21840 22140 22141 22146 22145
8 21836 21837 21842 21841 22141 22142 22147 22146
8 21837 21838 21843 21842 22142 22143 22148 22147
8 21838 10155 10154 21843 22143 10094 10093 22148
8 4256 21839 21844 4257 4195 22144 22149 4196
8 21839 21840 21845 21844 22144 22145 22150 22149
8 21840 21841 21846 21845 22145 22146 22151 22150
8 21841 21842 21847 21846 22146 22147 22152 22151
8 21842 21843 21848 21847 22147 22148 22153 22152
8 21843 10154 10153 21848 22148 10093 10092 22153
8 4257 21844 21849 4258 4196 22149 22154 4197
8 21844 21845 21850 21849 22149 22150 22155 22154
8 21845 21846 21851 21850 22150 22151 22156 22155
8 21846 21847 21852 21851 22151 22152 22157 22156
8 21847 21848 21853 21852 22152 22153 22158 22157
8 21848 10153 10152 21853 22153 10092 10091 22158
8 4258 21849 21854 4259 4197 22154 22159 4198
8 21849 21850 21855 21854 22154 22155 22160 22159
8 21850 21851 21856 21855 22155 22156 22161 22160
8 21851 21852 21857 21856 22156 22157 22162 22161
8 21852 21853 21858 21857 22157 22158 22163 22162
8 21853 10152 10151 21858 22158 10091 10090 22163
8 4259 21854 21859 4260 4198 22159 22164 4199
8 21854 21855 21860 21859 22159 22160 22165 22164
8 21855 21856 21861 21860 22160 22161 22166 22165
8 21856 21857 21862 21861 22161 22162 22167 22166
8 21857 21858 21863 21862 22162 22163 22168 22167
8 21858 10151 10150 21863 22163 10090 10089 22168
8 4260 21859 21864 4261 4199 22164 22169 4200
8 21859 21860 21865 21864 22164 22165 22170 22169
8 21860 21861 21866 21865 22165 22166 22171 22170
8 21861 21862 21867 21866 22166 22167 22172 22171
8 21862 21863 21868 21867 22167 22168 22173 22172
8 21863 10150 10149 21868 22168 10089 10088 22173
8 4261 21864 21869 4262 4200 22169 22174 4201
8 21864 21865 21870 21869 22169 22170 22175 22174
8 21865 21866 21871 21870 22170 22171 22176 22175
8 21866 21867 21872 21871 22171 22172 22177 22176
8 21867 21868 21873 21872 22172 22173 22178 22177
8 21868 10149 10148 21873 22173 10088 10087 22178
8 4262 21869 21874 4263 4201 22174 22179 4202
8 21869 21870 21875 21874 22174 22175 22180 22179
8 21870 21871 21876 21875 22175 22176 22181 22180
8 21871 21872 21877 21876 22176 22177 22182 22181
8 21872 21873 21878 21877 22177 22178 22183 22182
8 21873 10148 10147 21878 22178 10087 10086 22183
8 4263 21874 21879 4264 4202 22179 22184 4203
8 21874 21875 21880 21879 22179 22180 22185 22184
8 21875 21876 21881 21880 22180 22181 22186 22185
8 21876 21877 21882 21881 22181 22182 22187 22186
8 21877 21878 21883 21882 22182 22183 22188 22187
8 21878 10147 10146 21883 22183 10086 10085 22188
8 4264 21879 21884 4265 4203 22184 22189 4204
8 21879 21880 21885 21884 22184 22185 22190 22189
8 21880 21881 21886 21885 22185 22186 22191 22190
8 21881 21882 21887 21886 22186 22187 22192 22191
8 21882 21883 21888 21887 22187 22188 22193 22192
8 21883 10146 10145 21888 22188 10085 10084 22193
8 4265 21884 21889 4266 4204 22189 22194 4205
8 21884 21885 21890 21889 22189 22190 22195 22194
8 21885 21886 21891 21890 22190 22191 22196 22195
8 21886 21887 21892 21891 22191 22192 22197 22196
8 21887 21888 21893 21892 22192 22193 22198 22197
8 21888 10145 10144 21893 22193 10084 10083 22198
8 4266 21889 21894 4267 4205 22194 22199 4206
8 21889 21890 21895 21894 22194 22195 22200 22199
8 21890 21891 21896 21895 22195 22196 22201 22200
8 21891 21892 21897 21896 22196 22197 22202 22201
8 21892 21893 21898 21897 22197 22198 22203 22202
8 21893 10144 10143 21898 22198 10083 10082 22203
8 4267 21894 21899 4268 4206 22199 22204 4207
8 21894 21895 21900 21899 22199 22200 22205 22204
8 21895 21896 21901 21900 22200 22201 22206 22205
8 21896 21897 21902 21901 22201 22202 22207 22206
8 21897 21898 21903 21902 22202 22203 22208 22207
8 21898 10143 10142 21903 22203 10082 10081 22208
8 4268 21899 21904 4269 4207 22204 22209 4208
8 21899 21900 21905 21904 22204 22205 22210 22209
8 21900 21901 21906 21905 22205 22206 22211 22210
8 21901 21902 21907 21906 22206 22207 22212 22211
8 21902 21903 21908 21907 22207 22208 22213 22212
8 21903 10142 10141 21908 22208 10081 10080 22213
8 4269 21904 21909 4270 4208 22209 22214 4209
8 21904 21905 21910 21909 22209 22210 22215 22214
8 21905 21906 21911 21910 22210 22211 22216 22215
8 21906 21907 21912 21911 22211 22212 22217 22216
8 21907 21908 21913 21912 22212 22213 22218 22217
8 21908 10141 10140 21913 22213 10080 10079 22218
8 4270 21909 21914 4271 4209 22214 22219 4210
8 21909 21910 21915 21914 22214 22215 22220 22219
8 21910 21911 21916 21915 22215 22216 22221 22220
8 21911 21912 21917 21916 22216 22217 22222 22221
8 21912 21913 21918 21917 22217 22218 22223 22222
8 21913 10140 10139 21918 22218 10079 10078 22223
8 4271 21914 21919 4272 4210 22219 22224 4211
8 21914 21915 21920 21919 22219 22220 22225 22224
8 21915 21916 21921 21920 22220 22221 22226 22225
8 21916 21917 21922 21921 22221 22222 22227 22226
8 21917 21918 21923 21922 22222 22223 22228 22227
8 21918 10139 10138 21923 22223 10078 10077 22228
8 4272 21919 21924 4273 4211 22224 22229 4212
8 21919 21920 21925 21924 22224 22225 22230 22229
8 21920 21921 21926 21925 22225 22226 22231 22230
8 21921 21922 21927 21926 22226 22227 22232 22231
8 21922 21923 21928 21927 22227 22228 22233 22232
8 21923 10138 10137 21928 22228 10077 10076 22233
8 4273 21924 21929 4274 4212 22229 22234 4213
8 21924 21925 21930 21929 22229 22230 22235 22234
8 21925 21926 21931 21930 22230 22231 22236 22235
8 21926 21927 21932 21931 22231 22232 22237 22236
8 21927 21928 21933 21932 22232 22233 22238 22237
8 21928 10137 10136 21933 22233 10076 10075 22238
8 4274 21929 12949 128 4213 22234 12944 127
8 21929 21930 12950 12949 22234 22235 12945 12944
8 21930 21931 12951 12950 22235 22236 12946 12945
8 21931 21932 12952 12951 22236 22237 12947 12946
8 21932 21933 12953 12952 22237 22238 12948 12947
8 21933 10136 6167 12953 22238 10075 6168 12948
8 246 11994 21934 4153 247 11999 22239 4092
8 11994 11995 21935 21934 11999 12000 22240 22239
8 11995 11996 21936 21935 12000 12001 22241 22240
8 11996 11997 21937 21936 12001 12002 22242 22241
8 11997 11998 21938 21937 12002 12003 22243 22242
8 11998 6049 10135 21938 12003 6048 10074 22243
8 4153 21934 21939 4154 4092 22239 22244 4093
8 21934 21935 21940 21939 22239 22240 22245 22244
8 21935 21936 21941 21940 22240 22241 22246 22245
8 21936 21937 21942 21941 22241 22242 22247 22246
8 21937 21938 21943 21942 22242 22243 22248 22247
8 21938 10135 10134 21943 22243 10074 10073 22248
8 4154 21939 21944 4155 4093 22244 22249 4094
8 21939 21940 21945 21944 22244 22245 22250 22249
8 21940 21941 21946 21945 22245 22246 22251 22250
8 21941 21942 21947 21946 22246 22247 22252 22251
8 21942 21943 21948 21947 22247 22248 22253 22252
8 21943 10134 10133 21948 22248 10073 10072 22253
8 4155 21944 21949 4156 4094 22249 22254 4095
8 21944 21945 21950 21949 22249 22250 22255 22254
8 21945 21946 21951 21950 22250 22251 22256 22255
8 21946 21947 21952 21951 22251 22252 22257 22256
8 21947 21948 21953 21952 22252 22253 22258 22257
8 21948 10133 10132 21953 22253 10072 10071 22258
8 4156 21949 21954 4157 4095 22254 22259 4096
8 21949 21950 21955 21954 22254 22255 22260 22259
8 21950 21951 21956 21955 22255 22256 22261 22260
8 21951 21952 21957 21956 22256 22257 22262 22261
8 21952 21953 21958 21957 22257 22258 22263 22262
8 21953 10132 10131 21958 22258 10071 10070 22263
8 4157 21954 21959 4158 4096 22259 22264 4097
8 21954 21955 21960 21959 22259 22260 22265 22264
8 21955 21956 21961 21960 22260 22261 22266 22265
8 21956 21957 21962 21961 22261 22262 22267 22266
8 21957 21958 21963 21962 22262 22263 22268 22267
8 21958 10131 10130 21963 22263 10070 10069 22268
8 4158 21959 21964 4159 4097 22264 22269 4098
8 21959 21960 21965 21964 22264 22265 22270 22269
8 21960 21961 21966 21965 22265 22266 22271 22270
8 21961 21962 21967 21966 22266 22267 22272 22271
8 21962 21963 21968 21967 22267 22268 22273 22272
8 21963 10130 10129 21968 22268 10069 10068 22273
8 4159 21964 21969 4160 4098 22269 22274 4099
8 21964 21965 21970 21969 22269 22270 22275 22274
8 21965 21966 21971 21970 22270 22271 22276 22275
8 21966 21967 21972 21971 22271 22272 22277 22276
8 21967 21968 21973 21972 22272 22273 22278 22277
8 21968 10129 10128 21973 22273 10068 10067 22278
8 4160 21969 21974 4161 4099 22274 22279 4100
8 21969 21970 21975 21974 22274 22275 22280 22279
8 21970 21971 21976 21975 22275 22276 22281 22280
8 21971 21972 21977 21976 22276 22277 22282 22281
8 21972 21973 21978 21977 22277 22278 22283 22282
8 21973 10128 10127 21978 22278 10067 10066 22283
8 4161 21974 21979 4162 4100 22279 22284 4101
8 21974 21975 21980 21979 22279 22280 22285 22284
8 21975 21976 21981 21980 22280 22281 22286 22285
8 21976 21977 21982 21981 22281 22282 22287 22286
8 21977 21978 21983 21982 22282 22283 22288 22287
8 21978 10127 10126 21983 22283 10066 10065 22288
8 4162 21979 21984 4163 4101 22284 22289 4102
8 21979 21980 21985 21984 22284 22285 22290 22289
8 21980 21981 21986 21985 22285 22286 22291 22290
8 21981 21982 21987 21986 22286 22287 22292 22291
8 21982 21983 21988 21987 22287 22288 22293 22292
8 21983 10126 10125 21988 22288 10065 10064 22293
8 4163 21984 21989 4164 4102 22289 22294 4103
8 21984 21985 21990 21989 22289 22290 22295 22294
8 21985 21986 21991 21990 22290 22291 22296 22295
8 21986 21987 21992 21991 22291 22292 22297 22296
8 21987 21988 21993 21992 22292 22293 22298 22297
8 21988 10125 10124 21993 22293 10064 10063 22298
8 4164 21989 21994 4165 4103 22294 22299 4104
8 21989 21990 21995 21994 22294 22295 22300 22299
8 21990 21991 21996 21995 22295 22296 22301 22300
8 21991 21992 21997 21996 22296 22297 22302 22301
8 21992 21993 21998 21997 22297 22298 22303 22302
8 21993 10124 10123 21998 22298 10063 10062 22303
8 4165 21994 21999 4166 4104 22299 22304 4105
8 21994 21995 22000 21999 22299 22300 22305 22304
8 21995 21996 22001 22000 22300 22301 22306 22305
8 21996 21997 22002 22001 22301 22302 22307 22306
8 21997 21998 22003 22002 22302 22303 22308 22307
8 21998 10123 10122 22003 22303 10062 10061 22308
8 4166 21999 22004 4167 4105 22304 22309 4106
8 21999 22000 22005 22004 22304 22305 22310 22309
8 22000 22001 22006 22005 22305 22306 22311 22310
8 22001 22002 22007 22006 22306 22307 22312 22311
8 22002 22003 22008 22007 22307 22308 22313 22312
8 22003 10122 10121 22008 22308 10061 10060 22313
8 4167 22004 22009 4168 4106 22309 22314 4107
8 22004 22005 22010 22009 22309 22310 22315 22314
8 22005 22006 22011 22010 22310 22311 22316 22315
8 22006 22007 22012 22011 22311 22312 22317 22316
8 22007 22008 22013 22012 22312 22313 22318 22317
8 22008 10121 10120 22013 22313 10060 10059 22318
8 4168 22009 22014 4169 4107 22314 22319 4108
8 22009 22010 22015 22014 22314 22315 22320 22319
8 22010 22011 22016 22015 22315 22316 22321 22320
8 22011 22012 22017 22016 22316 22317 22322 22321
8 22012 22013 22018 22017 22317 22318 22323 22322
8 22013 10120 10119 22018 22318 10059 10058 22323
8 4169 22014 22019 4170 4108 22319 22324 4109
8 22014 22015 22020 22019 22319 22320 22325 22324
8 22015 22016 22021 22020 22320 22321 22326 22325
8 22016 22017 22022 22021 22321 22322 22327 22326
8 22017 22018 22023 22022 22322 22323 22328 22327
8 22018 10119 10118 22023 22323 10058 10057 22328
8 4170 22019 22024 4171 4109 22324 22329 4110
8 22019 22020 22025 22024 22324 22325 22330 22329
8 22020 22021 22026 22025 22325 22326 22331 22330
8 22021 22022 22027 22026 22326 22327 22332 22331
8 22022 22023 22028 22027 22327 22328 22333 22332
8 22023 10118 10117 22028 22328 10057 10056 22333
8 4171 22024 22029 4172 4110 22329 22334 4111
8 22024 22025 22030 22029 22329 22330 22335 22334
8 22025 22026 22031 22030 22330 22331 22336 22335
8 22026 22027 22032 22031 22331 22332 22337 22336
8 22027 22028 22033 22032 22332 22333 22338 22337
8 22028 10117 10116 22033 22333 10056 10055 22338
8 4172 22029 22034 4173 4111 22334 22339 4112
8 22029 22030 22035 22034 22334 22335 22340 22339
8 22030 22031 22036 22035 22335 22336 22341 22340
8 22031 22032 22037 22036 22336 22337 22342 22341
8 22032 22033 22038 22037 22337 22338 22343 22342
8 22033 10116 10115 22038 22338 10055 10054 22343
8 4173 22034 22039 4174 4112 22339 22344 4113
8 22034 22035 22040 22039 22339 22340 22345 22344
8 22035 22036 22041 22040 22340 22341 22346 22345
8 22036 22037 22042 22041 22341 22342 22347 22346
8 22037 22038 22043 22042 22342 22343 22348 22347
8 22038 10115 10114 22043 22343 10054 10053 22348
8 4174 22039 22044 4175 4113 22344 22349 4114
8 22039 22040 22045 22044 22344 22345 22350 22349
8 22040 22041 22046 22045 22345 22346 22351 22350
8 22041 22042 22047 22046 22346 22347 22352 22351
8 22042 22043 22048 22047 22347 22348 22353 22352
8 22043 10114 10113 22048 22348 10053 10052 22353
8 4175 22044 22049 4176 4114 22349 22354 4115
8 22044 22045 22050 22049 22349 22350 22355 22354
8 22045 22046 22051 22050 22350 22351 22356 22355
8 22046 22047 22052 22051 22351 22352 22357 22356
8 22047 22048 22053 22052 22352 22353 22358 22357
8 22048 10113 10112 22053 22353 10052 10051 22358
8 4176 22049 22054 4177 4115 22354 22359 4116
8 22049 22050 22055 22054 22354 22355 22360 22359
8 22050 22051 22056 22055 22355 22356 22361 22360
8 22051 22052 22057 22056 22356 22357 22362 22361
8 22052 22053 22058 22057 22357 22358 22363 22362
8 22053 10112 10111 22058 22358 10051 10050 22363
8 4177 22054 22059 4178 4116 22359 22364 4117
8 22054 22055 22060 22059 22359 22360 22365 22364
8 22055 22056 22061 22060 22360 22361 22366 22365
8 22056 22057 22062 22061 22361 22362 22367 22366
8 22057 22058 22063 22062 22362 22363 22368 22367
8 22058 10111 10110 22063 22363 10050 10049 22368
8 4178 22059 22064 4179 4117 22364 22369 4118
8 22059 22060 22065 22064 22364 22365 22370 22369
8 22060 22061 22066 22065 22365 22366 22371 22370
8 22061 22062 22067 22066 22366 22367 22372 22371
8 22062 22063 22068 22067 22367 22368 22373 22372
8 22063 10110 10109 22068 22368 10049 10048 22373
8 4179 22064 22069 4180 4118 22369 22374 4119
8 22064 22065 22070 22069 22369 22370 22375 22374
8 22065 22066 22071 22070 22370 22371 22376 22375
8 22066 22067 22072 22071 22371 22372 22377 22376
8 22067 22068 22073 22072 22372 22373 22378 22377
8 22068 10109 10108 22073 22373 10048 10047 22378
8 4180 22069 22074 4181 4119 22374 22379 4120
8 22069 22070 22075 22074 22374 22375 22380 22379
8 22070 22071 22076 22075 22375 22376 22381 22380
8 22071 22072 22077 22076 22376 22377 22382 22381
8 22072 22073 22078 22077 22377 22378 22383 22382
8 22073 10108 10107 22078 22378 10047 10046 22383
8 4181 22074 22079 4182 4120 22379 22384 4121
8 22074 22075 22080 22079 22379 22380 22385 22384
8 22075 22076 22081 22080 22380 22381 22386 22385
8 22076 22077 22082 22081 22381 22382 22387 22386
8 22077 22078 22083 22082 22382 22383 22388 22387
8 22078 10107 10106 22083 22383 10046 10045 22388
8 4182 22079 22084 4183 4121 22384 22389 4122
8 22079 22080 22085 22084 22384 22385 22390 22389
8 22080 22081 22086 22085 22385 22386 22391 22390
8 22081 22082 22087 22086 22386 22387 22392 22391
8 22082 22083 22088 22087 22387 22388 22393 22392
8 22083 10106 10105 22088 22388 10045 10044 22393
8 4183 22084 22089 4184 4122 22389 22394 4123
8 22084 22085 22090 22089 22389 22390 22395 22394
8 22085 22086 22091 22090 22390 22391 22396 22395
8 22086 22087 22092 22091 22391 22392 22397 22396
8 22087 22088 22093 22092 22392 22393 22398 22397
8 22088 10105 10104 22093 22393 10044 10043 22398
8 4184 22089 22094 4185 4123 22394 22399 4124
8 22089 22090 22095 22094 22394 22395 22400 22399
8 22090 22091 22096 22095 22395 22396 22401 22400
8 22091 22092 22097 22096 22396 22397 22402 22401
8 22092 22093 22098 22097 22397 22398 22403 22402
8 22093 10104 10103 22098 22398 10043 10042 22403
8 4185 22094 22099 4186 4124 22399 22404 4125
8 22094 22095 22100 22099 22399 22400 22405 22404
8 22095 22096 22101 22100 22400 22401 22406 22405
8 22096 22097 22102 22101 22401 22402 22407 22406
8 22097 22098 22103 22102 22402 22403 22408 22407
8 22098 10103 10102 22103 22403 10042 10041 22408
8 4186 22099 22104 4187 4125 22404 22409 4126
8 22099 22100 22105 22104 22404 22405 22410 22409
8 22100 22101 22106 22105 22405 22406 22411 22410
8 22101 22102 22107 22106 22406 22407 22412 22411
8 22102 22103 22108 22107 22407 22408 22413 22412
8 22103 10102 10101 22108 22408 10041 10040 22413
8 4187 22104 22109 4188 4126 22409 22414 4127
8 22104 22105 22110 22109 22409 22410 22415 22414
8 22105 22106 22111 22110 22410 22411 22416 22415
8 22106 22107 22112 22111 22411 22412 22417 22416
8 22107 22108 22113 22112 22412 22413 22418 22417
8 22108 10101 10100 22113 22413 10040 10039 22418
8 4188 22109 22114 4189 4127 22414 22419 4128
8 22109 22110 22115 22114 22414 22415 22420 22419
8 22110 22111 22116 22115 22415 22416 22421 22420
8 22111 22112 22117 22116 22416 22417 22422 22421
8 22112 22113 22118 22117 22417 22418 22423 22422
8 22113 10100 10099 22118 22418 10039 10038 22423
8 4189 22114 22119 4190 4128 22419 22424 4129
8 22114 22115 22120 22119 22419 22420 22425 22424
8 22115 22116 22121 22120 22420 22421 22426 22425
8 22116 22117 22122 22121 22421 22422 22427 22426
8 22117 22118 22123 22122 22422 22423 22428 22427
8 22118 10099 10098 22123 22423 10038 10037 22428
8 4190 22119 22124 4191 4129 22424 22429 4130
8 22119 22120 22125 22124 22424 22425 22430 22429
8 22120 22121 22126 22125 22425 22426 22431 22430
8 22121 22122 22127 22126 22426 22427 22432 22431
8 22122 22123 22128 22127 22427 22428 22433 22432
8 22123 10098 10097 22128 22428 10037 10036 22433
8 4191 22124 22129 4192 4130 22429 22434 4131
8 22124 22125 22130 22129 22429 22430 22435 22434
8 22125 22126 22131 22130 22430 22431 22436 22435
8 22126 22127 22132 22131 22431 22432 22437 22436
8 22127 22128 22133 22132 22432 22433 22438 22437
8 22128 10097 10096 22133 22433 10036 10035 22438
8 4192 22129 22134 4193 4131 22434 22439 4132
8 22129 22130 22135 22134 22434 22435 22440 22439
8 22130 22131 22136 22135 22435 22436 22441 22440
8 22131 22132 22137 22136 22436 22437 22442 22441
8 22132 22133 22138 22137 22437 22438 22443 22442
8 22133 10096 10095 22138 22438 10035 10034 22443
8 4193 22134 22139 4194 4132 22439 22444 4133
8 22134 22135 22140 22139 22439 22440 22445 22444
8 22135 22136 22141 22140 22440 22441 22446 22445
8 22136 22137 22142 22141 22441 22442 22447 22446
8 22137 22138 22143 22142 22442 22443 22448 22447
8 22138 10095 10094 22143 22443 10034 10033 22448
8 4194 22139 22144 4195 4133 22444 22449 4134
8 22139 22140 22145 22144 22444 22445 22450 22449
8 22140 22141 22146 22145 22445 22446 22451 22450
8 22141 22142 22147 22146 22446 22447 22452 22451
8 22142 22143 22148 22147 22447 22448 22453 22452
8 22143 10094 10093 22148 22448 10033 10032 22453
8 4195 22144 22149 4196 4134 22449 22454 4135
8 22144 22145 22150 22149 22449 22450 22455 22454
8 22145 22146 22151 22150 22450 22451 22456 22455
8 22146 22147 22152 22151 22451 22452 22457 22456
8 22147 22148 22153 22152 22452 22453 22458 22457
8 22148 10093 10092 22153 22453 10032 10031 22458
8 4196 22149 22154 4197 4135 22454 22459 4136
8 22149 22150 22155 22154 22454 22455 22460 22459
8 22150 22151 22156 22155 22455 22456 22461 22460
8 22151 22152 22157 22156 22456 22457 22462 22461
8 22152 22153 22158 22157 22457 22458 22463 22462
8 22153 10092 10091 22158 22458 10031 10030 22463
8 4197 22154 22159 4198 4136 22459 22464 4137
8 22154 22155 22160 22159 22459 22460 22465 22464
8 22155 22156 22161 22160 22460 22461 22466 22465
8 22156 22157 22162 22161 22461 22462 22467 22466
8 22157 22158 22163 22162 22462 22463 22468 22467
8 22158 10091 10090 22163 22463 10030 10029 22468
8 4198 22159 22164 4199 4137 22464 22469 4138
8 22159 22160 22165 22164 22464 22465 22470 22469
8 22160 22161 22166 22165 22465 22466 22471 22470
8 22161 22162 22167 22166 22466 22467 22472 22471
8 22162 22163 22168 22167 22467 22468 22473 22472
8 22163 10090 10089 22168 22468 10029 10028 22473
8 4199 22164 22169 4200 4138 22469 22474 4139
8 22164 22165 22170 22169 22469 22470 22475 22474
8 22165 22166 22171 22170 22470 22471 22476 22475
8 22166 22167 22172 22171 22471 22472 22477 22476
8 22167 22168 22173 22172 22472 22473 22478 22477
8 22168 10089 10088 22173 22473 10028 10027 22478
8 4200 22169 22174 4201 4139 22474 22479 4140
8 22169 22170 22175 22174 22474 22475 22480 22479
8 22170 22171 22176 22175 22475 22476 22481 22480
8 22171 22172 22177 22176 22476 22477 22482 22481
8 22172 22173 22178 22177 22477 22478 22483 22482
8 22173 10088 10087 22178 22478 10027 10026 22483
8 4201 22174 22179 4202 4140 22479 22484 4141
8 22174 22175 22180 22179 22479 22480 22485 22484
8 22175 22176 22181 22180 22480 22481 22486 22485
8 22176 22177 22182 22181 22481 22482 22487 22486
8 22177 22178 22183 22182 22482 22483 22488 22487
8 22178 10087 10086 22183 22483 10026 10025 22488
8 4202 22179 22184 4203 4141 22484 22489 4142
8 22179 22180 22185 22184 22484 22485 22490 22489
8 22180 22181 22186 22185 22485 22486 22491 22490
8 22181 22182 22187 22186 22486 22487 22492 22491
8 22182 22183 22188 22187 22487 22488 22493 22492
8 22183 10086 10085 22188 22488 10025 10024 22493
8 4203 22184 22189 4204 4142 22489 22494 4143
8 22184 22185 22190 22189 22489 22490 22495 22494
8 22185 22186 22191 22190 22490 22491 22496 22495
8 22186 22187 22192 22191 22491 22492 22497 22496
8 22187 22188 22193 22192 22492 22493 22498 22497
8 22188 10085 10084 22193 22493 10024 10023 22498
8 4204 22189 22194 4205 4143 22494 22499 4144
8 22189 22190 22195 22194 22494 22495 22500 22499
8 22190 22191 22196 22195 22495 22496 22501 22500
8 22191 22192 22197 22196 22496 22497 22502 22501
8 22192 22193 22198 22197 22497 22498 22503 22502
8 22193 10084 10083 22198 22498 10023 10022 22503
8 4205 22194 22199 4206 4144 22499 22504 4145
8 22194 22195 22200 22199 22499 22500 22505 22504
8 22195 22196 22201 22200 22500 22501 22506 22505
8 22196 22197 22202 22201 22501 22502 22507 22506
8 22197 22198 22203 22202 22502 22503 22508 22507
8 22198 10083 10082 22203 22503 10022 10021 22508
8 4206 22199 22204 4207 4145 22504 22509 4146
8 22199 22200 22205 22204 22504 22505 22510 22509
8 22200 22201 22206 22205 22505 22506 22511 22510
8 22201 22202 22207 22206 22506 22507 22512 22511
8 22202 22203 22208 22207 22507 22508 22513 22512
8 22203 10082 10081 22208 22508 10021 10020 22513
8 4207 22204 22209 4208 4146 22509 22514 4147
8 22204 22205 22210 22209 22509 22510 22515 22514
8 22205 22206 22211 22210 22510 22511 22516 22515
8 22206 22207 22212 22211 22511 22512 22517 22516
8 22207 22208 22213 22212 22512 22513 22518 22517
8 22208 10081 10080 22213 22513 10020 10019 22518
8 4208 22209 22214 4209 4147 22514 22519 4148
8 22209 22210 22215 22214 22514 22515 22520 22519
8 22210 22211 22216 22215 22515 22516 22521 22520
8 22211 22212 22217 22216 22516 22517 22522 22521
8 22212 22213 22218 22217 22517 22518 22523 22522
8 22213 10080 10079 22218 22518 10019 10018 22523
8 4209 22214 22219 4210 4148 22519 22524 4149
8 22214 22215 22220 22219 22519 22520 22525 22524
8 22215 22216 22221 22220 22520 22521 22526 22525
8 22216 22217 22222 22221 22521 22522 22527 22526
8 22217 22218 22223 22222 22522 22523 22528 22527
8 22218 10079 10078 22223 22523 10018 10017 22528
8 4210 22219 22224 4211 4149 22524 22529 4150
8 22219 22220 22225 22224 22524 22525 22530 22529
8 22220 22221 22226 22225 22525 22526 22531 22530
8 22221 22222 22227 22226 22526 22527 22532 22531
8 22222 22223 22228 22227 22527 22528 22533 22532
8 22223 10078 10077 22228 22528 10017 10016 22533
8 4211 22224 22229 4212 4150 22529 22534 4151
8 22224 22225 22230 22229 22529 22530 22535 22534
8 22225 22226 22231 22230 22530 22531 22536 22535
8 22226 22227 22232 22231 22531 22532 22537 22536
8 22227 22228 22233 22232 22532 22533 22538 22537
8 22228 10077 10076 22233 22533 10016 10015 22538
8 4212 22229 22234 4213 4151 22534 22539 4152
8 22229 22230 22235 22234 22534 22535 22540 22539
8 22230 22231 22236 22235 22535 22536 22541 22540
8 22231 22232 22237 22236 22536 22537 22542 22541
8 22232 22233 22238 22237 22537 22538 22543 22542
8 22233 10076 10075 22238 22538 10015 10014 22543
8 4213 22234 12944 127 4152 22539 12939 126
8 22234 22235 12945 12944 22539 22540 12940 12939
8 22235 22236 12946 12945 22540 22541 12941 12940
8 22236 22237 12947 12946 22541 22542 12942 12941
8 22237 22238 12948 12947 22542 22543 12943 12942
8 22238 10075 6168 12948 22543 10014 6169 12943
8 247 11999 22239 4092 248 12004 22544 4031
8 11999 12000 22240 22239 12004 12005 22545 22544
8 12000 12001 22241 22240 12005 12006 22546 22545
8 12001 12002 22242 22241 12006 12007 22547 22546
8 12002 12003 22243 22242 12007 12008 22548 22547
8 12003 6048 10074 22243 12008 6047 10013 22548
8 4092 22239 22244 4093 4031 22544 22549 4032
8 22239 22240 22245 22244 22544 22545 22550 22549
8 22240 22241 22246 22245 22545 22546 22551 22550
8 22241 22242 22247 22246 22546 22547 22552 22551
8 22242 22243 22248 22247 22547 22548 22553 22552
8 22243 10074 10073 22248 22548 10013 10012 22553
8 4093 22244 22249 4094 4032 22549 22554 4033
8 22244 22245 22250 22249 22549 22550 22555 22554
8 22245 22246 22251 22250 22550 22551 22556 22555
8 22246 22247 22252 22251 22551 22552 22557 22556
8 22247 22248 22253 22252 22552 22553 22558 22557
8 22248 10073 10072 22253 22553 10012 10011 22558
8 4094 22249 22254 4095 4033 22554 22559 4034
8 22249 22250 22255 22254 22554 22555 22560 22559
8 22250 22251 22256 22255 22555 22556 22561 22560
8 22251 22252 22257 22256 22556 22557 22562 22561
8 22252 22253 22258 22257 22557 22558 22563 22562
8 22253 10072 10071 22258 22558 10011 10010 22563
8 4095 22254 22259 4096 4034 22559 22564 4035
8 22254 22255 22260 22259 22559 22560 22565 22564
8 22255 22256 22261 22260 22560 22561 22566 22565
8 22256 22257 22262 22261 22561 22562 22567 22566
8 22257 22258 22263 22262 22562 22563 22568 22567
8 22258 10071 10070 22263 22563 10010 10009 22568
8 4096 22259 22264 4097 4035 22564 22569 4036
8 22259 22260 22265 22264 22564 22565 22570 22569
8 22260 22261 22266 22265 22565 22566 22571 22570
8 22261 22262 22267 22266 22566 22567 22572 22571
8 22262 22263 22268 22267 22567 22568 22573 22572
8 22263 10070 10069 22268 22568 10009 10008 22573
8 4097 22264 22269 4098 4036 22569 22574 4037
8 22264 22265 22270 22269 22569 22570 22575 22574
8 22265 22266 22271 22270 22570 22571 22576 22575
8 22266 22267 22272 22271 22571 22572 22577 22576
8 22267 22268 22273 22272 22572 22573 22578 22577
8 22268 10069 10068 22273 22573 10008 10007 22578
8 4098 22269 22274 4099 4037 22574 22579 4038
8 22269 22270 22275 22274 22574 22575 22580 22579
8 22270 22271 22276 22275 22575 22576 22581 22580
8 22271 22272 22277 22276 22576 22577 22582 22581
8 22272 22273 22278 22277 22577 22578 22583 22582
8 22273 10068 10067 22278 22578 10007 10006 22583
8 4099 22274 22279 4100 4038 22579 22584 4039
8 22274 22275 22280 22279 22579 22580 22585 22584
8 22275 22276 22281 22280 22580 22581 22586 22585
8 22276 22277 22282 22281 22581 22582 22587 22586
8 22277 22278 22283 22282 22582 22583 22588 22587
8 22278 10067 10066 22283 22583 10006 10005 22588
8 4100 22279 22284 4101 4039 22584 22589 4040
8 22279 22280 22285 22284 22584 22585 22590 22589
8 22280 22281 22286 22285 22585 22586 22591 22590
8 22281 22282 22287 22286 22586 22587 22592 22591
8 22282 22283 22288 22287 22587 22588 22593 22592
8 22283 10066 10065 22288 22588 10005 10004 22593
8 4101 22284 22289 4102 4040 22589 22594 4041
8 22284 22285 22290 22289 22589 22590 22595 22594
8 22285 22286 22291 22290 22590 22591 22596 22595
8 22286 22287 22292 22291 22591 22592 22597 22596
8 22287 22288 22293 22292 22592 22593 22598 22597
8 22288 10065 10064 22293 22593 10004 10003 22598
8 4102 22289 22294 4103 4041 22594 22599 4042
8 22289 22290 22295 22294 22594 22595 22600 22599
8 22290 22291 22296 22295 22595 22596 22601 22600
8 22291 22292 22297 22296 22596 22597 22602 22601
8 22292 22293 22298 22297 22597 22598 22603 22602
8 22293 10064 10063 22298 22598 10003 10002 22603
8 4103 22294 22299 4104 4042 22599 22604 4043
8 22294 22295 22300 22299 22599 22600 22605 22604
8 22295 22296 22301 22300 22600 22601 22606 22605
8 22296 22297 22302 22301 22601 22602 22607 22606
8 22297 22298 22303 22302 22602 22603 22608 22607
8 22298 10063 10062 22303 22603 10002 10001 22608
8 4104 22299 22304 4105 4043 22604 22609 4044
8 22299 22300 22305 22304 22604 22605 22610 22609
8 22300 22301 22306 22305 22605 22606 22611 22610
8 22301 22302 22307 22306 22606 22607 22612 22611
8 22302 22303 22308 22307 22607 22608 22613 22612
8 22303 10062 10061 22308 22608 10001 10000 22613
8 4105 22304 22309 4106 4044 22609 22614 4045
8 22304 22305 22310 22309 22609 22610 22615 22614
8 22305 22306 22311 22310 22610 22611 22616 22615
8 22306 22307 22312 22311 22611 22612 22617 22616
8 22307 22308 22313 22312 22612 22613 22618 22617
8 22308 10061 10060 22313 22613 10000 9999 22618
8 4106 22309 22314 4107 4045 22614 22619 4046
8 22309 22310 22315 22314 22614 22615 22620 22619
8 22310 22311 22316 22315 22615 22616 22621 22620
8 22311 22312 22317 22316 22616 22617 22622 22621
8 22312 22313 22318 22317 22617 22618 22623 22622
8 22313 10060 10059 22318 22618 9999 9998 22623
8 4107 22314 22319 4108 4046 22619 22624 4047
8 22314 22315 22320 22319 22619 22620 22625 22624
8 22315 22316 22321 22320 22620 22621 22626 22625
8 22316 22317 22322 22321 22621 22622 22627 22626
8 22317 22318 22323 22322 22622 22623 22628 22627
8 22318 10059 10058 22323 22623 9998 9997 22628
8 4108 22319 22324 4109 4047 22624 22629 4048
8 22319 22320 22325 22324 22624 22625 22630 22629
8 22320 22321 22326 22325 22625 22626 22631 22630
8 22321 22322 22327 22326 22626 22627 22632 22631
8 22322 22323 22328 22327 22627 22628 22633 22632
8 22323 10058 10057 22328 22628 9997 9996 22633
8 4109 22324 22329 4110 4048 22629 22634 4049
8 22324 22325 22330 22329 22629 22630 22635 22634
8 22325 22326 22331 22330 22630 22631 22636 22635
8 22326 22327 22332 22331 22631 22632 22637 22636
8 22327 22328 22333 22332 22632 22633 22638 22637
8 22328 10057 10056 22333 22633 9996 9995 22638
8 4110 22329 22334 4111 4049 22634 22639 4050
8 22329 22330 22335 22334 22634 22635 22640 22639
8 22330 22331 22336 22335 22635 22636 22641 22640
8 22331 22332 22337 22336 22636 22637 22642 22641
8 22332 22333 22338 22337 22637 22638 22643 22642
8 22333 10056 10055 22338 22638 9995 9994 22643
8 4111 22334 22339 4112 4050 22639 22644 4051
8 22334 22335 22340 22339 22639 22640 22645 22644
8 22335 22336 22341 22340 22640 22641 22646 22645
8 22336 22337 22342 22341 22641 22642 22647 22646
8 22337 22338 22343 22342 22642 22643 22648 22647
8 22338 10055 10054 22343 22643 9994 9993 22648
8 22339 22340 22345 22344 22644 22645 22650 22649
8 22340 22341 22346 22345 22645 22646 22651 22650
8 22341 22342 22347 22346 22646 22647 22652 22651
8 22342 22343 22348 22347 22647 22648 22653 22652
8 22343 10054 10053 22348 22648 9993 9992 22653
8 22344 22345 22350 22349 22649 22650 22655 22654
8 22345 22346 22351 22350 22650 22651 22656 22655
8 22346 22347 22352 22351 22651 22652 22657 22656
8 22347 22348 22353 22352 22652 22653 22658 22657
8 22348 10053 10052 22353 22653 9992 9991 22658
8 22349 22350 22355 22354 22654 22655 22660 22659
8 22350 22351 22356 22355 22655 22656 22661 22660
8 22351 22352 22357 22356 22656 22657 22662 22661
8 22352 22353 22358 22357 22657 22658 22663 22662
8 22353 10052 10051 22358 22658 9991 9990 22663
8 22354 22355 22360 22359 22659 22660 22665 22664
8 22355 22356 22361 22360 22660 22661 22666 22665
8 22356 22357 22362 22361 22661 22662 22667 22666
8 22357 22358 22363 22362 22662 22663 22668 22667
8 22358 10051 10050 22363 22663 9990 9989 22668
8 22359 22360 22365 22364 22664 22665 22670 22669
8 22360 22361 22366 22365 22665 22666 22671 22670
8 22361 22362 22367 22366 22666 22667 22672 22671
8 22362 22363 22368 22367 22667 22668 22673 22672
8 22363 10050 10049 22368 22668 9989 9988 22673
8 22364 22365 22370 22369 22669 22670 22675 22674
8 22365 22366 22371 22370 22670 22671 22676 22675
8 22366 22367 22372 22371 22671 22672 22677 22676
8 22367 22368 22373 22372 22672 22673 22678 22677
8 22368 10049 10048 22373 22673 9988 9987 22678
8 22369 22370 22375 22374 22674 22675 22680 22679
8 22370 22371 22376 22375 22675 22676 22681 22680
8 22371 22372 22377 22376 22676 22677 22682 22681
8 22372 22373 22378 22377 22677 22678 22683 22682
8 22373 10048 10047 22378 22678 9987 9986 22683
8 22374 22375 22380 22379 22679 22680 22685 22684
8 22375 22376 22381 22380 22680 22681 22686 22685
8 22376 22377 22382 22381 22681 22682 22687 22686
8 22377 22378 22383 22382 22682 22683 22688 22687
8 22378 10047 10046 22383 22683 9986 9985 22688
8 22379 22380 22385 22384 22684 22685 22690 22689
8 22380 22381 22386 22385 22685 22686 22691 22690
8 22381 22382 22387 22386 22686 22687 22692 22691
8 22382 22383 22388 22387 22687 22688 22693 22692
8 22383 10046 10045 22388 22688 9985 9984 22693
8 22384 22385 22390 22389 22689 22690 22695 22694
8 22385 22386 22391 22390 22690 22691 22696 22695
8 22386 22387 22392 22391 22691 22692 22697 22696
8 22387 22388 22393 22392 22692 22693 22698 22697
8 22388 10045 10044 22393 22693 9984 9983 22698
8 22389 22390 22395 22394 22694 22695 22700 22699
8 22390 22391 22396 22395 22695 22696 22701 22700
8 22391 22392 22397 22396 22696 22697 22702 22701
8 22392 22393 22398 22397 22697 22698 22703 22702
8 22393 10044 10043 22398 22698 9983 9982 22703
8 22394 22395 22400 22399 22699 22700 22705 22704
8 22395 22396 22401 22400 22700 22701 22706 22705
8 22396 22397 22402 22401 22701 22702 22707 22706
8 22397 22398 22403 22402 22702 22703 22708 22707
8 22398 10043 10042 22403 22703 9982 9981 22708
8 22399 22400 22405 22404 22704 22705 22710 22709
8 22400 22401 22406 22405 22705 22706 22711 22710
8 22401 22402 22407 22406 22706 22707 22712 22711
8 22402 22403 22408 22407 22707 22708 22713 22712
8 22403 10042 10041 22408 22708 9981 9980 22713
8 22404 22405 22410 22409 22709 22710 22715 22714
8 22405 22406 22411 22410 22710 22711 22716 22715
8 22406 22407 22412 22411 22711 22712 22717 22716
8 22407 22408 22413 22412 22712 22713 22718 22717
8 22408 10041 10040 22413 22713 9980 9979 22718
8 22409 22410 22415 22414 22714 22715 22720 22719
8 22410 22411 22416 22415 22715 22716 22721 22720
8 22411 22412 22417 22416 22716 22717 22722 22721
8 22412 22413 22418 22417 22717 22718 22723 22722
8 22413 10040 10039 22418 22718 9979 9978 22723
8 22414 22415 22420 22419 22719 22720 22725 22724
8 22415 22416 22421 22420 22720 22721 22726 22725
8 22416 22417 22422 22421 22721 22722 22727 22726
8 22417 22418 22423 22422 22722 22723 22728 22727
8 22418 10039 10038 22423 22723 9978 9977 22728
8 22419 22420 22425 22424 22724 22725 22730 22729
8 22420 22421 22426 22425 22725 22726 22731 22730
8 22421 22422 22427 22426 22726 22727 22732 22731
8 22422 22423 22428 22427 22727 22728 22733 22732
8 22423 10038 10037 22428 22728 9977 9976 22733
8 22424 22425 22430 22429 22729 22730 22735 22734
8 22425 22426 22431 22430 22730 22731 22736 22735
8 22426 22427 22432 22431 22731 22732 22737 22736
8 22427 22428 22433 22432 22732 22733 22738 22737
8 22428 10037 10036 22433 22733 9976 9975 22738
8 22429 22430 22435 22434 22734 22735 22740 22739
8 22430 22431 22436 22435 22735 22736 22741 22740
8 22431 22432 22437 22436 22736 22737 22742 22741
8 22432 22433 22438 22437 22737 22738 22743 22742
8 22433 10036 10035 22438 22738 9975 9974 22743
8 22434 22435 22440 22439 22739 22740 22745 22744
8 22435 22436 22441 22440 22740 22741 22746 22745
8 22436 22437 22442 22441 22741 22742 22747 22746
8 22437 22438 22443 22442 22742 22743 22748 22747
8 22438 10035 10034 22443 22743 9974 9973 22748
8 22439 22440 22445 22444 22744 22745 22750 22749
8 22440 22441 22446 22445 22745 22746 22751 22750
8 22441 22442 22447 22446 22746 22747 22752 22751
8 22442 22443 22448 22447 22747 22748 22753 22752
8 22443 10034 10033 22448 22748 9973 9972 22753
8 22444 22445 22450 22449 22749 22750 22755 22754
8 22445 22446 22451 22450 22750 22751 22756 22755
8 22446 22447 22452 22451 22751 22752 22757 22756
8 22447 22448 22453 22452 22752 22753 22758 22757
8 22448 10033 10032 22453 22753 9972 9971 22758
8 22449 22450 22455 22454 22754 22755 22760 22759
8 22450 22451 22456 22455 22755 22756 22761 22760
8 22451 22452 22457 22456 22756 22757 22762 22761
8 22452 22453 22458 22457 22757 22758 22763 22762
8 22453 10032 10031 22458 22758 9971 9970 22763
8 22454 22455 22460 22459 22759 22760 22765 22764
8 22455 22456 22461 22460 22760 22761 22766 22765
8 22456 22457 22462 22461 22761 22762 22767 22766
8 22457 22458 22463 22462 22762 22763 22768 22767
8 22458 10031 10030 22463 22763 9970 9969 22768
8 22459 22460 22465 22464 22764 22765 22770 22769
8 22460 22461 22466 22465 22765 22766 22771 22770
8 22461 22462 22467 22466 22766 22767 22772 22771
8 22462 22463 22468 22467 22767 22768 22773 22772
8 22463 10030 10029 22468 22768 9969 9968 22773
8 22464 22465 22470 22469 22769 22770 22775 22774
8 22465 22466 22471 22470 22770 22771 22776 22775
8 22466 22467 22472 22471 22771 22772 22777 22776
8 22467 22468 22473 22472 22772 22773 22778 22777
8 22468 10029 10028 22473 22773 9968 9967 22778
8 22469 22470 22475 22474 22774 22775 22780 22779
8 22470 22471 22476 22475 22775 22776 22781 22780
8 22471 22472 22477 22476 22776 22777 22782 22781
8 22472 22473 22478 22477 22777 22778 22783 22782
8 22473 10028 10027 22478 22778 9967 9966 22783
8 22474 22475 22480 22479 22779 22780 22785 22784
8 22475 22476 22481 22480 22780 22781 22786 22785
8 22476 22477 22482 22481 22781 22782 22787 22786
8 22477 22478 22483 22482 22782 22783 22788 22787
8 22478 10027 10026 22483 22783 9966 9965 22788
8 22479 22480 22485 22484 22784 22785 22790 22789
8 22480 22481 22486 22485 22785 22786 22791 22790
8 22481 22482 22487 22486 22786 22787 22792 22791
8 22482 22483 22488 22487 22787 22788 22793 22792
8 22483 10026 10025 22488 22788 9965 9964 22793
8 22484 22485 22490 22489 22789 22790 22795 22794
8 22485 22486 22491 22490 22790 22791 22796 22795
8 22486 22487 22492 22491 22791 22792 22797 22796
8 22487 22488 22493 22492 22792 22793 22798 22797
8 22488 10025 10024 22493 22793 9964 9963 22798
8 22489 22490 22495 22494 22794 22795 22800 22799
8 22490 22491 22496 22495 22795 22796 22801 22800
8 22491 22492 22497 22496 22796 22797 22802 22801
8 22492 22493 22498 22497 22797 22798 22803 22802
8 22493 10024 10023 22498 22798 9963 9962 22803
8 4143 22494 22499 4144 4082 22799 22804 4083
8 22494 22495 22500 22499 22799 22800 22805 22804
8 22495 22496 22501 22500 22800 22801 22806 22805
8 22496 22497 22502 22501 22801 22802 22807 22806
8 22497 22498 22503 22502 22802 22803 22808 22807
8 22498 10023 10022 22503 22803 9962 9961 22808
8 4144 22499 22504 4145 4083 22804 22809 4084
8 22499 22500 22505 22504 22804 22805 22810 22809
8 22500 22501 22506 22505 22805 22806 22811 22810
8 22501 22502 22507 22506 22806 22807 22812 22811
8 22502 22503 22508 22507 22807 22808 22813 22812
8 22503 10022 10021 22508 22808 9961 9960 22813
8 4145 22504 22509 4146 4084 22809 22814 4085
8 22504 22505 22510 22509 22809 22810 22815 22814
8 22505 22506 22511 22510 22810 22811 22816 22815
8 22506 22507 22512 22511 22811 22812 22817 22816
8 22507 22508 22513 22512 22812 22813 22818 22817
8 22508 10021 10020 22513 22813 9960 9959 22818
8 4146 22509 22514 4147 4085 22814 22819 4086
8 22509 22510 22515 22514 22814 22815 22820 22819
8 22510 22511 22516 22515 22815 22816 22821 22820
8 22511 22512 22517 22516 22816 22817 22822 22821
8 22512 22513 22518 22517 22817 22818 22823 22822
8 22513 10020 10019 22518 22818 9959 9958 22823
8 4147 22514 22519 4148 4086 22819 22824 4087
8 22514 22515 22520 22519 22819 22820 22825 22824
8 22515 22516 22521 22520 22820 22821 22826 22825
8 22516 22517 22522 22521 22821 22822 22827 22826
8 22517 22518 22523 22522 22822 22823 22828 22827
8 22518 10019 10018 22523 22823 9958 9957 22828
8 4148 22519 22524 4149 4087 22824 22829 4088
8 22519 22520 22525 22524 22824 22825 22830 22829
8 22520 22521 22526 22525 22825 22826 22831 22830
8 22521 22522 22527 22526 22826 22827 22832 22831
8 22522 22523 22528 22527 22827 22828 22833 22832
8 22523 10018 10017 22528 22828 9957 9956 22833
8 4149 22524 22529 4150 4088 22829 22834 4089
8 22524 22525 22530 22529 22829 22830 22835 22834
8 22525 22526 22531 22530 22830 22831 22836 22835
8 22526 22527 22532 22531 22831 22832 22837 22836
8 22527 22528 22533 22532 22832 22833 22838 22837
8 22528 10017 10016 22533 22833 9956 9955 22838
8 4150 22529 22534 4151 4089 22834 22839 4090
8 22529 22530 22535 22534 22834 22835 22840 22839
8 22530 22531 22536 22535 22835 22836 22841 22840
8 22531 22532 22537 22536 22836 22837 22842 22841
8 22532 22533 22538 22537 22837 22838 22843 22842
8 22533 10016 10015 22538 22838 9955 9954 22843
8 4151 22534 22539 4152 4090 22839 22844 4091
8 22534 22535 22540 22539 22839 22840 22845 22844
8 22535 22536 22541 22540 22840 22841 22846 22845
8 22536 22537 22542 22541 22841 22842 22847 22846
8 22537 22538 22543 22542 22842 22843 22848 22847
8 22538 10015 10014 22543 22843 9954 9953 22848
8 4152 22539 12939 126 4091 22844 12934 125
8 22539 22540 12940 12939 22844 22845 12935 12934
8 22540 22541 12941 12940 22845 22846 12936 12935
8 22541 22542 12942 12941 22846 22847 12937 12936
8 22542 22543 12943 12942 22847 22848 12938 12937
8 22543 10014 6169 12943 22848 9953 6170 12938
8 248 12004 22544 4031 249 12009 22849 3970
8 12004 12005 22545 22544 12009 12010 22850 22849
8 12005 12006 22546 22545 12010 12011 22851 22850
8 12006 12007 22547 22546 12011 12012 22852 22851
8 12007 12008 22548 22547 12012 12013 22853 22852
8 12008 6047 10013 22548 12013 6046 9952 22853
8 4031 22544 22549 4032 3970 22849 22854 3971
8 22544 22545 22550 22549 22849 22850 22855 22854
8 22545 22546 22551 22550 22850 22851 22856 22855
8 22546 22547 22552 22551 22851 22852 22857 22856
8 22547 22548 22553 22552 22852 22853 22858 22857
8 22548 10013 10012 22553 22853 9952 9951 22858
8 4032 22549 22554 4033 3971 22854 22859 3972
8 22549 22550 22555 22554 22854 22855 22860 22859
8 22550 22551 22556 22555 22855 22856 22861 22860
8 22551 22552 22557 22556 22856 22857 22862 22861
8 22552 22553 22558 22557 22857 22858 22863 22862
8 22553 10012 10011 22558 22858 9951 9950 22863
8 4033 22554 22559 4034 3972 22859 22864 3973
8 22554 22555 22560 22559 22859 22860 22865 22864
8 22555 22556 22561 22560 22860 22861 22866 22865
8 22556 22557 22562 22561 22861 22862 22867 22866
8 22557 22558 22563 22562 22862 22863 22868 22867
8 22558 10011 10010 22563 22863 9950 9949 22868
8 4034 22559 22564 4035 3973 22864 22869 3974
8 22559 22560 22565 22564 22864 22865 22870 22869
8 22560 22561 22566 22565 22865 22866 22871 22870
8 22561 22562 22567 22566 22866 22867 22872 22871
8 22562 22563 22568 22567 22867 22868 22873 22872
8 22563 10010 10009 22568 22868 9949 9948 22873
8 4035 22564 22569 4036 3974 22869 22874 3975
8 22564 22565 22570 22569 22869 22870 22875 22874
8 22565 22566 22571 22570 22870 22871 22876 22875
8 22566 22567 22572 22571 22871 22872 22877 22876
8 22567 22568 22573 22572 22872 22873 22878 22877
8 22568 10009 10008 22573 22873 9948 9947 22878
8 4036 22569 22574 4037 3975 22874 22879 3976
8 22569 22570 22575 22574 22874 22875 22880 22879
8 22570 22571 22576 22575 22875 22876 22881 22880
8 22571 22572 22577 22576 22876 22877 22882 22881
8 22572 22573 22578 22577 22877 22878 22883 22882
8 22573 10008 10007 22578 22878 9947 9946 22883
8 4037 22574 22579 4038 3976 22879 22884 3977
8 22574 22575 22580 22579 22879 22880 22885 22884
8 22575 22576 22581 22580 22880 22881 22886 22885
8 22576 22577 22582 22581 22881 22882 22887 22886
8 22577 22578 22583 22582 22882 22883 22888 22887
8 22578 10007 10006 22583 22883 9946 9945 22888
8 4038 22579 22584 4039 3977 22884 22889 3978
8 22579 22580 22585 22584 22884 22885 22890 22889
8 22580 22581 22586 22585 22885 22886 22891 22890
8 22581 22582 22587 22586 22886 22887 22892 22891
8 22582 22583 22588 22587 22887 22888 22893 22892
8 22583 10006 10005 22588 22888 9945 9944 22893
8 4039 22584 22589 4040 3978 22889 22894 3979
8 22584 22585 22590 22589 22889 22890 22895 22894
8 22585 22586 22591 22590 22890 22891 22896 22895
8 22586 22587 22592 22591 22891 22892 22897 22896
8 22587 22588 22593 22592 22892 22893 22898 22897
8 22588 10005 10004 22593 22893 9944 9943 22898
8 4040 22589 22594 4041 3979 22894 22899 3980
8 22589 22590 22595 22594 22894 22895 22900 22899
8 22590 22591 22596 22595 22895 22896 22901 22900
8 22591 22592 22597 22596 22896 22897 22902 22901
8 22592 22593 22598 22597 22897 22898 22903 22902
8 22593 10004 10003 22598 22898 9943 9942 22903
8 4041 22594 22599 4042 3980 22899 22904 3981
8 22594 22595 22600 22599 22899 22900 22905 22904
8 22595 22596 22601 22600 22900 22901 22906 22905
8 22596 22597 22602 22601 22901 22902 22907 22906
8 22597 22598 22603 22602 22902 22903 22908 22907
8 22598 10003 10002 22603 22903 9942 9941 22908
8 4042 22599 22604 4043 3981 22904 22909 3982
8 22599 22600 22605 22604 22904 22905 22910 22909
8 22600 22601 22606 22605 22905 22906 22911 22910
8 22601 22602 22607 22606 22906 22907 22912 22911
8 22602 22603 22608 22607 22907 22908 22913 22912
8 22603 10002 10001 22608 22908 9941 9940 22913
8 4043 22604 22609 4044 3982 22909 22914 3983
8 22604 22605 22610 22609 22909 22910 22915 22914
8 22605 22606 22611 22610 22910 22911 22916 22915
8 22606 22607 22612 22611 22911 22912 22917 22916
8 22607 22608 22613 22612 22912 22913 22918 22917
8 22608 10001 10000 22613 22913 9940 9939 22918
8 4044 22609 22614 4045 3983 22914 22919 3984
8 22609 22610 22615 22614 22914 22915 22920 22919
8 22610 22611 22616 22615 22915 22916 22921 22920
8 22611 22612 22617 22616 22916 22917 22922 22921
8 22612 22613 22618 22617 22917 22918 22923 22922
8 22613 10000 9999 22618 22918 9939 9938 22923
8 4045 22614 22619 4046 3984 22919 22924 3985
8 22614 22615 22620 22619 22919 22920 22925 22924
8 22615 22616 22621 22620 22920 22921 22926 22925
8 22616 22617 22622 22621 22921 22922 22927 22926
8 22617 22618 22623 22622 22922 22923 22928 22927
8 22618 9999 9998 22623 22923 9938 9937 22928
8 4046 22619 22624 4047 3985 22924 22929 3986
8 22619 22620 22625 22624 22924 22925 22930 22929
8 22620 22621 22626 22625 22925 22926 22931 22930
8 22621 22622 22627 22626 22926 22927 22932 22931
8 22622 22623 22628 22627 22927 22928 22933 22932
8 22623 9998 9997 22628 22928 9937 9936 22933
8 4047 22624 22629 4048 3986 22929 22934 3987
8 22624 22625 22630 22629 22929 22930 22935 22934
8 22625 22626 22631 22630 22930 22931 22936 22935
8 22626 22627 22632 22631 22931 22932 22937 22936
8 22627 22628 22633 22632 22932 22933 22938 22937
8 22628 9997 9996 22633 22933 9936 9935 22938
8 4048 22629 22634 4049 3987 22934 22939 3988
8 22629 22630 22635 22634 22934 22935 22940 22939
8 22630 22631 22636 22635 22935 22936 22941 22940
8 22631 22632 22637 22636 22936 22937 22942 22941
8 22632 22633 22638 22637 22937 22938 22943 22942
8 22633 9996 9995 22638 22938 9935 9934 22943
8 4049 22634 22639 4050 3988 22939 22944 3989
8 22634 22635 22640 22639 22939 22940 22945 22944
8 22635 22636 22641 22640 22940 22941 22946 22945
8 22636 22637 22642 22641 22941 22942 22947 22946
8 22637 22638 22643 22642 22942 22943 22948 22947
8 22638 9995 9994 22643 22943 9934 9933 22948
8 4050 22639 22644 4051 3989 22944 22949 3990
8 22639 22640 22645 22644 22944 22945 22950 22949
8 22640 22641 22646 22645 22945 22946 22951 22950
8 22641 22642 22647 22646 22946 22947 22952 22951
8 22642 22643 22648 22647 22947 22948 22953 22952
8 22643 9994 9993 22648 22948 9933 9932 22953
8 22644 22645 22650 22649 22949 22950 22955 22954
8 22645 22646 22651 22650 22950 22951 22956 22955
8 22646 22647 22652 22651 22951 22952 22957 22956
8 22647 22648 22653 22652 22952 22953 22958 22957
8 22648 9993 9992 22653 22953 9932 9931 22958
8 22649 22650 22655 22654 22954 22955 22960 22959
8 22650 22651 22656 22655 22955 22956 22961 22960
8 22651 22652 22657 22656 22956 22957 22962 22961
8 22652 22653 22658 22657 22957 22958 22963 22962
8 22653 9992 9991 22658 22958 9931 9930 22963
8 22654 22655 22660 22659 22959 22960 22965 22964
8 22655 22656 22661 22660 22960 22961 22966 22965
8 22656 22657 22662 22661 22961 22962 22967 22966
8 22657 22658 22663 22662 22962 22963 22968 22967
8 22658 9991 9990 22663 22963 9930 9929 22968
8 22659 22660 22665 22664 22964 22965 22970 22969
8 22660 22661 22666 22665 22965 22966 22971 22970
8 22661 22662 22667 22666 22966 22967 22972 22971
8 22662 22663 22668 22667 22967 22968 22973 22972
8 22663 9990 9989 22668 22968 9929 9928 22973
8 22664 22665 22670 22669 22969 22970 22975 22974
8 22665 22666 22671 22670 22970 22971 22976 22975
8 22666 22667 22672 22671 22971 22972 22977 22976
8 22667 22668 22673 22672 22972 22973 22978 22977
8 22668 9989 9988 22673 22973 9928 9927 22978
8 22669 22670 22675 22674 22974 22975 22980 22979
8 22670 22671 22676 22675 22975 22976 22981 22980
8 22671 22672 22677 22676 22976 22977 22982 22981
8 22672 22673 22678 22677 22977 22978 22983 22982
8 22673 9988 9987 22678 22978 9927 9926 22983
8 22674 22675 22680 22679 22979 22980 22985 22984
8 22675 22676 22681 22680 22980 22981 22986 22985
8 22676 22677 22682 22681 22981 22982 22987 22986
8 22677 22678 22683 22682 22982 22983 22988 22987
8 22678 9987 9986 22683 22983 9926 9925 22988
8 22679 22680 22685 22684 22984 22985 22990 22989
8 22680 22681 22686 22685 22985 22986 22991 22990
8 22681 22682 22687 22686 22986 22987 22992 22991
8 22682 22683 22688 22687 22987 22988 22993 22992
8 22683 9986 9985 22688 22988 9925 9924 22993
8 22684 22685 22690 22689 22989 22990 22995 22994
8 22685 22686 22691 22690 22990 22991 22996 22995
8 22686 22687 22692 22691 22991 22992 22997 22996
8 22687 22688 22693 22692 22992 22993 22998 22997
8 22688 9985 9984 22693 22993 9924 9923 22998
8 22689 22690 22695 22694 22994 22995 23000 22999
8 22690 22691 22696 22695 22995 22996 23001 23000
8 22691 22692 22697 22696 22996 22997 23002 23001
8 22692 22693 22698 22697 22997 22998 23003 23002
8 22693 9984 9983 22698 22998 9923 9922 23003
8 22694 22695 22700 22699 22999 23000 23005 23004
8 22695 22696 22701 22700 23000 23001 23006 23005
8 22696 22697 22702 22701 23001 23002 23007 23006
8 22697 22698 22703 22702 23002 23003 23008 23007
8 22698 9983 9982 22703 23003 9922 9921 23008
8 22699 22700 22705 22704 23004 23005 23010 23009
8 22700 22701 22706 22705 23005 23006 23011 23010
8 22701 22702 22707 22706 23006 23007 23012 23011
8 22702 22703 22708 22707 23007 23008 23013 23012
8 22703 9982 9981 22708 23008 9921 9920 23013
8 22704 22705 22710 22709 23009 23010 23015 23014
8 22705 22706 22711 22710 23010 23011 23016 23015
8 22706 22707 22712 22711 23011 23012 23017 23016
8 22707 22708 22713 22712 23012 23013 23018 23017
8 22708 9981 9980 22713 23013 9920 9919 23018
8 22709 22710 22715 22714 23014 23015 23020 23019
8 22710 22711 22716 22715 23015 23016 23021 23020
8 22711 22712 22717 22716 23016 23017 23022 23021
8 22712 22713 22718 22717 23017 23018 23023 23022
8 22713 9980 9979 22718 23018 9919 9918 23023
8 22714 22715 22720 22719 23019 23020 23025 23024
8 22715 22716 22721 22720 23020 23021 23026 23025
8 22716 22717 22722 22721 23021 23022 23027 23026
8 22717 22718 22723 22722 23022 23023 23028 23027
8 22718 9979 9978 22723 23023 9918 9917 23028
8 22719 22720 22725 22724 23024 23025 23030 23029
8 22720 22721 22726 22725 23025 23026 23031 23030
8 22721 22722 22727 22726 23026 23027 23032 23031
8 22722 22723 22728 22727 23027 23028 23033 23032
8 22723 9978 9977 22728 23028 9917 9916 23033
8 22724 22725 22730 22729 23029 23030 23035 23034
8 22725 22726 22731 22730 23030 23031 23036 23035
8 22726 22727 22732 22731 23031 23032 23037 23036
8 22727 22728 22733 22732 23032 23033 23038 23037
8 22728 9977 9976 22733 23033 9916 9915 23038
8 22729 22730 22735 22734 23034 23035 23040 23039
8 22730 22731 22736 22735 23035 23036 23041 23040
8 22731 22732 22737 22736 23036 23037 23042 23041
8 22732 22733 22738 22737 23037 23038 23043 23042
8 22733 9976 9975 22738 23038 9915 9914 23043
8 22734 22735 22740 22739 23039 23040 23045 23044
8 22735 22736 22741 22740 23040 23041 23046 23045
8 22736 22737 22742 22741 23041 23042 23047 23046
8 22737 22738 22743 22742 23042 23043 23048 23047
8 22738 9975 9974 22743 23043 9914 9913 23048
8 22739 22740 22745 22744 23044 23045 23050 23049
8 22740 22741 22746 22745 23045 23046 23051 23050
8 22741 22742 22747 22746 23046 23047 23052 23051
8 22742 22743 22748 22747 23047 23048 23053 23052
8 22743 9974 9973 22748 23048 9913 9912 23053
8 22744 22745 22750 22749 23049 23050 23055 23054
8 22745 22746 22751 22750 23050 23051 23056 23055
8 22746 22747 22752 22751 23051 23052 23057 23056
8 22747 22748 22753 22752 23052 23053 23058 23057
8 22748 9973 9972 22753 23053 9912 9911 23058
8 22749 22750 22755 22754 23054 23055 23060 23059
8 22750 22751 22756 22755 23055 23056 23061 23060
8 22751 22752 22757 22756 23056 23057 23062 23061
8 22752 22753 22758 22757 23057 23058 23063 23062
8 22753 9972 9971 22758 23058 9911 9910 23063
8 22754 22755 22760 22759 23059 23060 23065 23064
8 22755 22756 22761 22760 23060 23061 23066 23065
8 22756 22757 22762 22761 23061 23062 23067 23066
8 22757 22758 22763 22762 23062 23063 23068 23067
8 22758 9971 9970 22763 23063 9910 9909 23068
8 22759 22760 22765 22764 23064 23065 23070 23069
8 22760 22761 22766 22765 23065 23066 23071 23070
8 22761 22762 22767 22766 23066 23067 23072 23071
8 22762 22763 22768 22767 23067 23068 23073 23072
8 22763 9970 9969 22768 23068 9909 9908 23073
8 22764 22765 22770 22769 23069 23070 23075 23074
8 22765 22766 22771 22770 23070 23071 23076 23075
8 22766 22767 22772 22771 23071 23072 23077 23076
8 22767 22768 22773 22772 23072 23073 23078 23077
8 22768 9969 9968 22773 23073 9908 9907 23078
8 22769 22770 22775 22774 23074 23075 23080 23079
8 22770 22771 22776 22775 23075 23076 23081 23080
8 22771 22772 22777 22776 23076 23077 23082 23081
8 22772 22773 22778 22777 23077 23078 23083 23082
8 22773 9968 9967 22778 23078 9907 9906 23083
8 22774 22775 22780 22779 23079 23080 23085 23084
8 22775 22776 22781 22780 23080 23081 23086 23085
8 22776 22777 22782 22781 23081 23082 23087 23086
8 22777 22778 22783 22782 23082 23083 23088 23087
8 22778 9967 9966 22783 23083 9906 9905 23088
8 22779 22780 22785 22784 23084 23085 23090 23089
8 22780 22781 22786 22785 23085 23086 23091 23090
8 22781 22782 22787 22786 23086 23087 23092 23091
8 22782 22783 22788 22787 23087 23088 23093 23092
8 22783 9966 9965 22788 23088 9905 9904 23093
8 22784 22785 22790 22789 23089 23090 23095 23094
8 22785 22786 22791 22790 23090 23091 23096 23095
8 22786 22787 22792 22791 23091 23092 23097 23096
8 22787 22788 22793 22792 23092 23093 23098 23097
8 22788 9965 9964 22793 23093 9904 9903 23098
8 22789 22790 22795 22794 23094 23095 23100 23099
8 22790 22791 22796 22795 23095 23096 23101 23100
8 22791 22792 22797 22796 23096 23097 23102 23101
8 22792 22793 22798 22797 23097 23098 23103 23102
8 22793 9964 9963 22798 23098 9903 9902 23103
8 22794 22795 22800 22799 23099 23100 23105 23104
8 22795 22796 22801 22800 23100 23101 23106 23105
8 22796 22797 22802 22801 23101 23102 23107 23106
8 22797 22798 22803 22802 23102 23103 23108 23107
8 22798 9963 9962 22803 23103 9902 9901 23108
8 4082 22799 22804 4083 4021 23104 23109 4022
8 22799 22800 22805 22804 23104 23105 23110 23109
8 22800 22801 22806 22805 23105 23106 23111 23110
8 22801 22802 22807 22806 23106 23107 23112 23111
8 22802 22803 22808 22807 23107 23108 23113 23112
8 22803 9962 9961 22808 23108 9901 9900 23113
8 4083 22804 22809 4084 4022 23109 23114 4023
8 22804 22805 22810 22809 23109 23110 23115 23114
8 22805 22806 22811 22810 23110 23111 23116 23115
8 22806 22807 22812 22811 23111 23112 23117 23116
8 22807 22808 22813 22812 23112 23113 23118 23117
8 22808 9961 9960 22813 23113 9900 9899 23118
8 4084 22809 22814 4085 4023 23114 23119 4024
8 22809 22810 22815 22814 23114 23115 23120 23119
8 22810 22811 22816 22815 23115 23116 23121 23120
8 22811 22812 22817 22816 23116 23117 23122 23121
8 22812 22813 22818 22817 23117 23118 23123 23122
8 22813 9960 9959 22818 23118 9899 9898 23123
8 4085 22814 22819 4086 4024 23119 23124 4025
8 22814 22815 22820 22819 23119 23120 23125 23124
8 22815 22816 22821 22820 23120 23121 23126 23125
8 22816 22817 22822 22821 23121 23122 23127 23126
8 22817 22818 22823 22822 23122 23123 23128 23127
8 22818 9959 9958 22823 23123 9898 9897 23128
8 4086 22819 22824 4087 4025 23124 23129 4026
8 22819 22820 22825 22824 23124 23125 23130 23129
8 22820 22821 22826 22825 23125 23126 23131 23130
8 22821 22822 22827 22826 23126 23127 23132 23131
8 22822 22823 22828 22827 23127 23128 23133 23132
8 22823 9958 9957 22828 23128 9897 9896 23133
8 4087 22824 22829 4088 4026 23129 23134 4027
8 22824 22825 22830 22829 23129 23130 23135 23134
8 22825 22826 22831 22830 23130 23131 23136 23135
8 22826 22827 22832 22831 23131 23132 23137 23136
8 22827 22828 22833 22832 23132 23133 23138 23137
8 22828 9957 9956 22833 23133 9896 9895 23138
8 4088 22829 22834 4089 4027 23134 23139 4028
8 22829 22830 22835 22834 23134 23135 23140 23139
8 22830 22831 22836 22835 23135 23136 23141 23140
8 22831 22832 22837 22836 23136 23137 23142 23141
8 22832 22833 22838 22837 23137 23138 23143 23142
8 22833 9956 9955 22838 23138 9895 9894 23143
8 4089 22834 22839 4090 4028 23139 23144 4029
8 22834 22835 22840 22839 23139 23140 23145 23144
8 22835 22836 22841 22840 23140 23141 23146 23145
8 22836 22837 22842 22841 23141 23142 23147 23146
8 22837 22838 22843 22842 23142 23143 23148 23147
8 22838 9955 9954 22843 23143 9894 9893 23148
8 4090 22839 22844 4091 4029 23144 23149 4030
8 22839 22840 22845 22844 23144 23145 23150 23149
8 22840 22841 22846 22845 23145 23146 23151 23150
8 22841 22842 22847 22846 23146 23147 23152 23151
8 22842 22843 22848 22847 23147 23148 23153 23152
8 22843 9954 9953 22848 23148 9893 9892 23153
8 4091 22844 12934 125 4030 23149 12929 124
8 22844 22845 12935 12934 23149 23150 12930 12929
8 22845 22846 12936 12935 23150 23151 12931 12930
8 22846 22847 12937 12936 23151 23152 12932 12931
8 22847 22848 12938 12937 23152 23153 12933 12932
8 22848 9953 6170 12938 23153 9892 6171 12933
8 249 12009 22849 3970 250 12014 23154 3909
8 12009 12010 22850 22849 12014 12015 23155 23154
8 12010 12011 22851 22850 12015 12016 23156 23155
8 12011 12012 22852 22851 12016 12017 23157 23156
8 12012 12013 22853 22852 12017 12018 23158 23157
8 12013 6046 9952 22853 12018 6045 9891 23158
8 3970 22849 22854 3971 3909 23154 23159 3910
8 22849 22850 22855 22854 23154 23155 23160 23159
8 22850 22851 22856 22855 23155 23156 23161 23160
8 22851 22852 22857 22856 23156 23157 23162 23161
8 22852 22853 22858 22857 23157 23158 23163 23162
8 22853 9952 9951 22858 23158 9891 9890 23163
8 3971 22854 22859 3972 3910 23159 23164 3911
8 22854 22855 22860 22859 23159 23160 23165 23164
8 22855 22856 22861 22860 23160 23161 23166 23165
8 22856 22857 22862 22861 23161 23162 23167 23166
8 22857 22858 22863 22862 23162 23163 23168 23167
8 22858 9951 9950 22863 23163 9890 9889 23168
8 3972 22859 22864 3973 3911 23164 23169 3912
8 22859 22860 22865 22864 23164 23165 23170 23169
8 22860 22861 22866 22865 23165 23166 23171 23170
8 22861 22862 22867 22866 23166 23167 23172 23171
8 22862 22863 22868 22867 23167 23168 23173 23172
8 22863 9950 9949 22868 23168 9889 9888 23173
8 3973 22864 22869 3974 3912 23169 23174 3913
8 22864 22865 22870 22869 23169 23170 23175 23174
8 22865 22866 22871 22870 23170 23171 23176 23175
8 22866 22867 22872 22871 23171 23172 23177 23176
8 22867 22868 22873 22872 23172 23173 23178 23177
8 22868 9949 9948 22873 23173 9888 9887 23178
8 3974 22869 22874 3975 3913 23174 23179 3914
8 22869 22870 22875 22874 23174 23175 23180 23179
8 22870 22871 22876 22875 23175 23176 23181 23180
8 22871 22872 22877 22876 23176 23177 23182 23181
8 22872 22873 22878 22877 23177 23178 23183 23182
8 22873 9948 9947 22878 23178 9887 9886 23183
8 3975 22874 22879 3976 3914 23179 23184 3915
8 22874 22875 22880 22879 23179 23180 23185 23184
8 22875 22876 22881 22880 23180 23181 23186 23185
8 22876 22877 22882 22881 23181 23182 23187 23186
8 22877 22878 22883 22882 23182 23183 23188 23187
8 22878 9947 9946 22883 23183 9886 9885 23188
8 3976 22879 22884 3977 3915 23184 23189 3916
8 22879 22880 22885 22884 23184 23185 23190 23189
8 22880 22881 22886 22885 23185 23186 23191 23190
8 22881 22882 22887 22886 23186 23187 23192 23191
8 22882 22883 22888 22887 23187 23188 23193 23192
8 22883 9946 9945 22888 23188 9885 9884 23193
8 3977 22884 22889 3978 3916 23189 23194 3917
8 22884 22885 22890 22889 23189 23190 23195 23194
8 22885 22886 22891 22890 23190 23191 23196 23195
8 22886 22887 22892 22891 23191 23192 23197 23196
8 22887 22888 22893 22892 23192 23193 23198 23197
8 22888 9945 9944 22893 23193 9884 9883 23198
8 3978 22889 22894 3979 3917 23194 23199 3918
8 22889 22890 22895 22894 23194 23195 23200 23199
8 22890 22891 22896 22895 23195 23196 23201 23200
8 22891 22892 22897 22896 23196 23197 23202 23201
8 22892 22893 22898 22897 23197 23198 23203 23202
8 22893 9944 9943 22898 23198 9883 9882 23203
8 3979 22894 22899 3980 3918 23199 23204 3919
8 22894 22895 22900 22899 23199 23200 23205 23204
8 22895 22896 22901 22900 23200 23201 23206 23205
8 22896 22897 22902 22901 23201 23202 23207 23206
8 22897 22898 22903 22902 23202 23203 23208 23207
8 22898 9943 9942 22903 23203 9882 9881 23208
8 3980 22899 22904 3981 3919 23204 23209 3920
8 22899 22900 22905 22904 23204 23205 23210 23209
8 22900 22901 22906 22905 23205 23206 23211 23210
8 22901 22902 22907 22906 23206 23207 23212 23211
8 22902 22903 22908 22907 23207 23208 23213 23212
8 22903 9942 9941 22908 23208 9881 9880 23213
8 3981 22904 22909 3982 3920 23209 23214 3921
8 22904 22905 22910 22909 23209 23210 23215 23214
8 22905 22906 22911 22910 23210 23211 23216 23215
8 22906 22907 22912 22911 23211 23212 23217 23216
8 22907 22908 22913 22912 23212 23213 23218 23217
8 22908 9941 9940 22913 23213 9880 9879 23218
8 3982 22909 22914 3983 3921 23214 23219 3922
8 22909 22910 22915 22914 23214 23215 23220 23219
8 22910 22911 22916 22915 23215 23216 23221 23220
8 22911 22912 22917 22916 23216 23217 23222 23221
8 22912 22913 22918 22917 23217 23218 23223 23222
8 22913 9940 9939 22918 23218 9879 9878 23223
8 3983 22914 22919 3984 3922 23219 23224 3923
8 22914 22915 22920 22919 23219 23220 23225 23224
8 22915 22916 22921 22920 23220 23221 23226 23225
8 22916 22917 22922 22921 23221 23222 23227 23226
8 22917 22918 22923 22922 23222 23223 23228 23227
8 22918 9939 9938 22923 23223 9878 9877 23228
8 3984 22919 22924 3985 3923 23224 23229 3924
8 22919 22920 22925 22924 23224 23225 23230 23229
8 22920 22921 22926 22925 23225 23226 23231 23230
8 22921 22922 22927 22926 23226 23227 23232 23231
8 22922 22923 22928 22927 23227 23228 23233 23232
8 22923 9938 9937 22928 23228 9877 9876 23233
8 3985 22924 22929 3986 3924 23229 23234 3925
8 22924 22925 22930 22929 23229 23230 23235 23234
8 22925 22926 22931 22930 23230 23231 23236 23235
8 22926 22927 22932 22931 23231 23232 23237 23236
8 22927 22928 22933 22932 23232 23233 23238 23237
8 22928 9937 9936 22933 23233 9876 9875 23238
8 3986 22929 22934 3987 3925 23234 23239 3926
8 22929 22930 22935 22934 23234 23235 23240 23239
8 22930 22931 22936 22935 23235 23236 23241 23240
8 22931 22932 22937 22936 23236 23237 23242 23241
8 22932 22933 22938 22937 23237 23238 23243 23242
8 22933 9936 9935 22938 23238 9875 9874 23243
8 3987 22934 22939 3988 3926 23239 23244 3927
8 22934 22935 22940 22939 23239 23240 23245 23244
8 22935 22936 22941 22940 23240 23241 23246 23245
8 22936 22937 22942 22941 23241 23242 23247 23246
8 22937 22938 22943 22942 23242 23243 23248 23247
8 22938 9935 9934 22943 23243 9874 9873 23248
8 3988 22939 22944 3989 3927 23244 23249 3928
8 22939 22940 22945 22944 23244 23245 23250 23249
8 22940 22941 22946 22945 23245 23246 23251 23250
8 22941 22942 22947 22946 23246 23247 23252 23251
8 22942 22943 22948 22947 23247 23248 23253 23252
8 22943 9934 9933 22948 23248 9873 9872 23253
8 3989 22944 22949 3990 3928 23249 23254 3929
8 22944 22945 22950 22949 23249 23250 23255 23254
8 22945 22946 22951 22950 23250 23251 23256 23255
8 22946 22947 22952 22951 23251 23252 23257 23256
8 22947 22948 22953 22952 23252 23253 23258 23257
8 22948 9933 9932 22953 23253 9872 9871 23258
8 22949 22950 22955 22954 23254 23255 23260 23259
8 22950 22951 22956 22955 23255 23256 23261 23260
8 22951 22952 22957 22956 23256 23257 23262 23261
8 22952 22953 22958 22957 23257 23258 23263 23262
8 22953 9932 9931 22958 23258 9871 9870 23263
8 22954 22955 22960 22959 23259 23260 23265 23264
8 22955 22956 22961 22960 23260 23261 23266 23265
8 22956 22957 22962 22961 23261 23262 23267 23266
8 22957 22958 22963 22962 23262 23263 23268 23267
8 22958 9931 9930 22963 23263 9870 9869 23268
8 22959 22960 22965 22964 23264 23265 23270 23269
8 22960 22961 22966 22965 23265 23266 23271 23270
8 22961 22962 22967 22966 23266 23267 23272 23271
8 22962 22963 22968 22967 23267 23268 23273 23272
8 22963 9930 9929 22968 23268 9869 9868 23273
8 22964 22965 22970 22969 23269 23270 23275 23274
8 22965 22966 22971 22970 23270 23271 23276 23275
8 22966 22967 22972 22971 23271 23272 23277 23276
8 22967 22968 22973 22972 23272 23273 23278 23277
8 22968 9929 9928 22973 23273 9868 9867 23278
8 22969 22970 22975 22974 23274 23275 23280 23279
8 22970 22971 22976 22975 23275 23276 23281 23280
8 22971 22972 22977 22976 23276 23277 23282 23281
8 22972 22973 22978 22977 23277 23278 23283 23282
8 22973 9928 9927 22978 23278 9867 9866 23283
8 22974 22975 22980 22979 23279 23280 23285 23284
8 22975 22976 22981 22980 23280 23281 23286 23285
8 22976 22977 22982 22981 23281 23282 23287 23286
8 22977 22978 22983 22982 23282 23283 23288 23287
8 22978 9927 9926 22983 23283 9866 9865 23288
8 22979 22980 22985 22984 23284 23285 23290 23289
8 22980 22981 22986 22985 23285 23286 23291 23290
8 22981 22982 22987 22986 23286 23287 23292 23291
8 22982 22983 22988 22987 23287 23288 23293 23292
8 22983 9926 9925 22988 23288 9865 9864 23293
8 22984 22985 22990 22989 23289 23290 23295 23294
8 22985 22986 22991 22990 23290 23291 23296 23295
8 22986 22987 22992 22991 23291 23292 23297 23296
8 22987 22988 22993 22992 23292 23293 23298 23297
8 22988 9925 9924 22993 23293 9864 9863 23298
8 22989 22990 22995 22994 23294 23295 23300 23299
8 22990 22991 22996 22995 23295 23296 23301 23300
8 22991 22992 22997 22996 23296 23297 23302 23301
8 22992 22993 22998 22997 23297 23298 23303 23302
8 22993 9924 9923 22998 23298 9863 9862 23303
8 22994 22995 23000 22999 23299 23300 23305 23304
8 22995 22996 23001 23000 23300 23301 23306 23305
8 22996 22997 23002 23001 23301 23302 23307 23306
8 22997 22998 23003 23002 23302 23303 23308 23307
8 22998 9923 9922 23003 23303 9862 9861 23308
8 22999 23000 23005 23004 23304 23305 23310 23309
8 23000 23001 23006 23005 23305 23306 23311 23310
8 23001 23002 23007 23006 23306 23307 23312 23311
8 23002 23003 23008 23007 23307 23308 23313 23312
8 23003 9922 9921 23008 23308 9861 9860 23313
8 23004 23005 23010 23009 23309 23310 23315 23314
8 23005 23006 23011 23010 23310 23311 23316 23315
8 23006 23007 23012 23011 23311 23312 23317 23316
8 23007 23008 23013 23012 23312 23313 23318 23317
8 23008 9921 9920 23013 23313 9860 9859 23318
8 23009 23010 23015 23014 23314 23315 23320 23319
8 23010 23011 23016 23015 23315 23316 23321 23320
8 23011 23012 23017 23016 23316 23317 23322 23321
8 23012 23013 23018 23017 23317 23318 23323 23322
8 23013 9920 9919 23018 23318 9859 9858 23323
8 23014 23015 23020 23019 23319 23320 23325 23324
8 23015 23016 23021 23020 23320 23321 23326 23325
8 23016 23017 23022 23021 23321 23322 23327 23326
8 23017 23018 23023 23022 23322 23323 23328 23327
8 23018 9919 9918 23023 23323 9858 9857 23328
8 23019 23020 23025 23024 23324 23325 23330 23329
8 23020 23021 23026 23025 23325 23326 23331 23330
8 23021 23022 23027 23026 23326 23327 23332 23331
8 23022 23023 23028 23027 23327 23328 23333 23332
8 23023 9918 9917 23028 23328 9857 9856 23333
8 23024 23025 23030 23029 23329 23330 23335 23334
8 23025 23026 23031 23030 23330 23331 23336 23335
8 23026 23027 23032 23031 23331 23332 23337 23336
8 23027 23028 23033 23032 23332 23333 23338 23337
8 23028 9917 9916 23033 23333 9856 9855 23338
8 23029 23030 23035 23034 23334 23335 23340 23339
8 23030 23031 23036 23035 23335 23336 23341 23340
8 23031 23032 23037 23036 23336 23337 23342 23341
8 23032 23033 23038 23037 23337 23338 23343 23342
8 23033 9916 9915 23038 23338 9855 9854 23343
8 23034 23035 23040 23039 23339 23340 23345 23344
8 23035 23036 23041 23040 23340 23341 23346 23345
8 23036 23037 23042 23041 23341 23342 23347 23346
8 23037 23038 23043 23042 23342 23343 23348 23347
8 23038 9915 9914 23043 23343 9854 9853 23348
8 23039 23040 23045 23044 23344 23345 23350 23349
8 23040 23041 23046 23045 23345 23346 23351 23350
8 23041 23042 23047 23046 23346 23347 23352 23351
8 23042 23043 23048 23047 23347 23348 23353 23352
8 23043 9914 9913 23048 23348 9853 9852 23353
8 23044 23045 23050 23049 23349 23350 23355 23354
8 23045 23046 23051 23050 23350 23351 23356 23355
8 23046 23047 23052 23051 23351 23352 23357 23356
8 23047 23048 23053 23052 23352 23353 23358 23357
8 23048 9913 9912 23053 23353 9852 9851 23358
8 23049 23050 23055 23054 23354 23355 23360 23359
8 23050 23051 23056 23055 23355 23356 23361 23360
8 23051 23052 23057 23056 23356 23357 23362 23361
8 23052 23053 23058 23057 23357 23358 23363 23362
8 23053 9912 9911 23058 23358 9851 9850 23363
8 23054 23055 23060 23059 23359 23360 23365 23364
8 23055 23056 23061 23060 23360 23361 23366 23365
8 23056 23057 23062 23061 23361 23362 23367 23366
8 23057 23058 23063 23062 23362 23363 23368 23367
8 23058 9911 9910 23063 23363 9850 9849 23368
8 23059 23060 23065 23064 23364 23365 23370 23369
8 23060 23061 23066 23065 23365 23366 23371 23370
8 23061 23062 23067 23066 23366 23367 23372 23371
8 23062 23063 23068 23067 23367 23368 23373 23372
8 23063 9910 9909 23068 23368 9849 9848 23373
8 23064 23065 23070 23069 23369 23370 23375 23374
8 23065 23066 23071 23070 23370 23371 23376 23375
8 23066 23067 23072 23071 23371 23372 23377 23376
8 23067 23068 23073 23072 23372 23373 23378 23377
8 23068 9909 9908 23073 23373 9848 9847 23378
8 23069 23070 23075 23074 23374 23375 23380 23379
8 23070 23071 23076 23075 23375 23376 23381 23380
8 23071 23072 23077 23076 23376 23377 23382 23381
8 23072 23073 23078 23077 23377 23378 23383 23382
8 23073 9908 9907 23078 23378 9847 9846 23383
8 23074 23075 23080 23079 23379 23380 23385 23384
8 23075 23076 23081 23080 23380 23381 23386 23385
8 23076 23077 23082 23081 23381 23382 23387 23386
8 23077 23078 23083 23082 23382 23383 23388 23387
8 23078 9907 9906 23083 23383 9846 9845 23388
8 23079 23080 23085 23084 23384 23385 23390 23389
8 23080 23081 23086 23085 23385 23386 23391 23390
8 23081 23082 23087 23086 23386 23387 23392 23391
8 23082 23083 23088 23087 23387 23388 23393 23392
8 23083 9906 9905 23088 23388 9845 9844 23393
8 23084 23085 23090 23089 23389 23390 23395 23394
8 23085 23086 23091 23090 23390 23391 23396 23395
8 23086 23087 23092 23091 23391 23392 23397 23396
8 23087 23088 23093 23092 23392 23393 23398 23397
8 23088 9905 9904 23093 23393 9844 9843 23398
8 23089 23090 23095 23094 23394 23395 23400 23399
8 23090 23091 23096 23095 23395 23396 23401 23400
8 23091 23092 23097 23096 23396 23397 23402 23401
8 23092 23093 23098 23097 23397 23398 23403 23402
8 23093 9904 9903 23098 23398 9843 9842 23403
8 23094 23095 23100 23099 23399 23400 23405 23404
8 23095 23096 23101 23100 23400 23401 23406 23405
8 23096 23097 23102 23101 23401 23402 23407 23406
8 23097 23098 23103 23102 23402 23403 23408 23407
8 23098 9903 9902 23103 23403 9842 9841 23408
8 23099 23100 23105 23104 23404 23405 23410 23409
8 23100 23101 23106 23105 23405 23406 23411 23410
8 23101 23102 23107 23106 23406 23407 23412 23411
8 23102 23103 23108 23107 23407 23408 23413 23412
8 23103 9902 9901 23108 23408 9841 9840 23413
8 4021 23104 23109 4022 3960 23409 23414 3961
8 23104 23105 23110 23109 23409 23410 23415 23414
8 23105 23106 23111 23110 23410 23411 23416 23415
8 23106 23107 23112 23111 23411 23412 23417 23416
8 23107 23108 23113 23112 23412 23413 23418 23417
8 23108 9901 9900 23113 23413 9840 9839 23418
8 4022 23109 23114 4023 3961 23414 23419 3962
8 23109 23110 23115 23114 23414 23415 23420 23419
8 23110 23111 23116 23115 23415 23416 23421 23420
8 23111 23112 23117 23116 23416 23417 23422 23421
8 23112 23113 23118 23117 23417 23418 23423 23422
8 23113 9900 9899 23118 23418 9839 9838 23423
8 4023 23114 23119 4024 3962 23419 23424 3963
8 23114 23115 23120 23119 23419 23420 23425 23424
8 23115 23116 23121 23120 23420 23421 23426 23425
8 23116 23117 23122 23121 23421 23422 23427 23426
8 23117 23118 23123 23122 23422 23423 23428 23427
8 23118 9899 9898 23123 23423 9838 9837 23428
8 4024 23119 23124 4025 3963 23424 23429 3964
8 23119 23120 23125 23124 23424 23425 23430 23429
8 23120 23121 23126 23125 23425 23426 23431 23430
8 23121 23122 23127 23126 23426 23427 23432 23431
8 23122 23123 23128 23127 23427 23428 23433 23432
8 23123 9898 9897 23128 23428 9837 9836 23433
8 4025 23124 23129 4026 3964 23429 23434 3965
8 23124 23125 23130 23129 23429 23430 23435 23434
8 23125 23126 23131 23130 23430 23431 23436 23435
8 23126 23127 23132 23131 23431 23432 23437 23436
8 23127 23128 23133 23132 23432 23433 23438 23437
8 23128 9897 9896 23133 23433 9836 9835 23438
8 4026 23129 23134 4027 3965 23434 23439 3966
8 23129 23130 23135 23134 23434 23435 23440 23439
8 23130 23131 23136 23135 23435 23436 23441 23440
8 23131 23132 23137 23136 23436 23437 23442 23441
8 23132 23133 23138 23137 23437 23438 23443 23442
8 23133 9896 9895 23138 23438 9835 9834 23443
8 4027 23134 23139 4028 3966 23439 23444 3967
8 23134 23135 23140 23139 23439 23440 23445 23444
8 23135 23136 23141 23140 23440 23441 23446 23445
8 23136 23137 23142 23141 23441 23442 23447 23446
8 23137 23138 23143 23142 23442 23443 23448 23447
8 23138 9895 9894 23143 23443 9834 9833 23448
8 4028 23139 23144 4029 3967 23444 23449 3968
8 23139 23140 23145 23144 23444 23445 23450 23449
8 23140 23141 23146 23145 23445 23446 23451 23450
8 23141 23142 23147 23146 23446 23447 23452 23451
8 23142 23143 23148 23147 23447 23448 23453 23452
8 23143 9894 9893 23148 23448 9833 9832 23453
8 4029 23144 23149 4030 3968 23449 23454 3969
8 23144 23145 23150 23149 23449 23450 23455 23454
8 23145 23146 23151 23150 23450 23451 23456 23455
8 23146 23147 23152 23151 23451 23452 23457 23456
8 23147 23148 23153 23152 23452 23453 23458 23457
8 23148 9893 9892 23153 23453 9832 9831 23458
8 4030 23149 12929 124 3969 23454 12924 123
8 23149 23150 12930 12929 23454 23455 12925 12924
8 23150 23151 12931 12930 23455 23456 12926 12925
8 23151 23152 12932 12931 23456 23457 12927 12926
8 23152 23153 12933 12932 23457 23458 12928 12927
8 23153 9892 6171 12933 23458 9831 6172 12928
8 250 12014 23154 3909 251 12019 23459 3848
8 12014 12015 23155 23154 12019 12020 23460 23459
8 12015 12016 23156 23155 12020 12021 23461 23460
8 12016 12017 23157 23156 12021 12022 23462 23461
8 12017 12018 23158 23157 12022 12023 23463 23462
8 12018 6045 9891 23158 12023 6044 9830 23463
8 3909 23154 23159 3910 3848 23459 23464 3849
8 23154 23155 23160 23159 23459 23460 23465 23464
8 23155 23156 23161 23160 23460 23461 23466 23465
8 23156 23157 23162 23161 23461 23462 23467 23466
8 23157 23158 23163 23162 23462 23463 23468 23467
8 23158 9891 9890 23163 23463 9830 9829 23468
8 3910 23159 23164 3911 3849 23464 23469 3850
8 23159 23160 23165 23164 23464 23465 23470 23469
8 23160 23161 23166 23165 23465 23466 23471 23470
8 23161 23162 23167 23166 23466 23467 23472 23471
8 23162 23163 23168 23167 23467 23468 23473 23472
8 23163 9890 9889 23168 23468 9829 9828 23473
8 3911 23164 23169 3912 3850 23469 23474 3851
8 23164 23165 23170 23169 23469 23470 23475 23474
8 23165 23166 23171 23170 23470 23471 23476 23475
8 23166 23167 23172 23171 23471 23472 23477 23476
8 23167 23168 23173 23172 23472 23473 23478 23477
8 23168 9889 9888 23173 23473 9828 9827 23478
8 3912 23169 23174 3913 3851 23474 23479 3852
8 23169 23170 23175 23174 23474 23475 23480 23479
8 23170 23171 23176 23175 23475 23476 23481 23480
8 23171 23172 23177 23176 23476 23477 23482 23481
8 23172 23173 23178 23177 23477 23478 23483 23482
8 23173 9888 9887 23178 23478 9827 9826 23483
8 3913 23174 23179 3914 3852 23479 23484 3853
8 23174 23175 23180 23179 23479 23480 23485 23484
8 23175 23176 23181 23180 23480 23481 23486 23485
8 23176 23177 23182 23181 23481 23482 23487 23486
8 23177 23178 23183 23182 23482 23483 23488 23487
8 23178 9887 9886 23183 23483 9826 9825 23488
8 3914 23179 23184 3915 3853 23484 23489 3854
8 23179 23180 23185 23184 23484 23485 23490 23489
8 23180 23181 23186 23185 23485 23486 23491 23490
8 23181 23182 23187 23186 23486 23487 23492 23491
8 23182 23183 23188 23187 23487 23488 23493 23492
8 23183 9886 9885 23188 23488 9825 9824 23493
8 3915 23184 23189 3916 3854 23489 23494 3855
8 23184 23185 23190 23189 23489 23490 23495 23494
8 23185 23186 23191 23190 23490 23491 23496 23495
8 23186 23187 23192 23191 23491 23492 23497 23496
8 23187 23188 23193 23192 23492 23493 23498 23497
8 23188 9885 9884 23193 23493 9824 9823 23498
8 3916 23189 23194 3917 3855 23494 23499 3856
8 23189 23190 23195 23194 23494 23495 23500 23499
8 23190 23191 23196 23195 23495 23496 23501 23500
8 23191 23192 23197 23196 23496 23497 23502 23501
8 23192 23193 23198 23197 23497 23498 23503 23502
8 23193 9884 9883 23198 23498 9823 9822 23503
8 3917 23194 23199 3918 3856 23499 23504 3857
8 23194 23195 23200 23199 23499 23500 23505 23504
8 23195 23196 23201 23200 23500 23501 23506 23505
8 23196 23197 23202 23201 23501 23502 23507 23506
8 23197 23198 23203 23202 23502 23503 23508 23507
8 23198 9883 9882 23203 23503 9822 9821 23508
8 3918 23199 23204 3919 3857 23504 23509 3858
8 23199 23200 23205 23204 23504 23505 23510 23509
8 23200 23201 23206 23205 23505 23506 23511 23510
8 23201 23202 23207 23206 23506 23507 23512 23511
8 23202 23203 23208 23207 23507 23508 23513 23512
8 23203 9882 9881 23208 23508 9821 9820 23513
8 3919 23204 23209 3920 3858 23509 23514 3859
8 23204 23205 23210 23209 23509 23510 23515 23514
8 23205 23206 23211 23210 23510 23511 23516 23515
8 23206 23207 23212 23211 23511 23512 23517 23516
8 23207 23208 23213 23212 23512 23513 23518 23517
8 23208 9881 9880 23213 23513 9820 9819 23518
8 3920 23209 23214 3921 3859 23514 23519 3860
8 23209 23210 23215 23214 23514 23515 23520 23519
8 23210 23211 23216 23215 23515 23516 23521 23520
8 23211 23212 23217 23216 23516 23517 23522 23521
8 23212 23213 23218 23217 23517 23518 23523 23522
8 23213 9880 9879 23218 23518 9819 9818 23523
8 3921 23214 23219 3922 3860 23519 23524 3861
8 23214 23215 23220 23219 23519 23520 23525 23524
8 23215 23216 23221 23220 23520 23521 23526 23525
8 23216 23217 23222 23221 23521 23522 23527 23526
8 23217 23218 23223 23222 23522 23523 23528 23527
8 23218 9879 9878 23223 23523 9818 9817 23528
8 3922 23219 23224 3923 3861 23524 23529 3862
8 23219 23220 23225 23224 23524 23525 23530 23529
8 23220 23221 23226 23225 23525 23526 23531 23530
8 23221 23222 23227 23226 23526 23527 23532 23531
8 23222 23223 23228 23227 23527 23528 23533 23532
8 23223 9878 9877 23228 23528 9817 9816 23533
8 3923 23224 23229 3924 3862 23529 23534 3863
8 23224 23225 23230 23229 23529 23530 23535 23534
8 23225 23226 23231 23230 23530 23531 23536 23535
8 23226 23227 23232 23231 23531 23532 23537 23536
8 23227 23228 23233 23232 23532 23533 23538 23537
8 23228 9877 9876 23233 23533 9816 9815 23538
8 3924 23229 23234 3925 3863 23534 23539 3864
8 23229 23230 23235 23234 23534 23535 23540 23539
8 23230 23231 23236 23235 23535 23536 23541 23540
8 23231 23232 23237 23236 23536 23537 23542 23541
8 23232 23233 23238 23237 23537 23538 23543 23542
8 23233 9876 9875 23238 23538 9815 9814 23543
8 3925 23234 23239 3926 3864 23539 23544 3865
8 23234 23235 23240 23239 23539 23540 23545 23544
8 23235 23236 23241 23240 23540 23541 23546 23545
8 23236 23237 23242 23241 23541 23542 23547 23546
8 23237 23238 23243 23242 23542 23543 23548 23547
8 23238 9875 9874 23243 23543 9814 9813 23548
8 3926 23239 23244 3927 3865 23544 23549 3866
8 23239 23240 23245 23244 23544 23545 23550 23549
8 23240 23241 23246 23245 23545 23546 23551 23550
8 23241 23242 23247 23246 23546 23547 23552 23551
8 23242 23243 23248 23247 23547 23548 23553 23552
8 23243 9874 9873 23248 23548 9813 9812 23553
8 3927 23244 23249 3928 3866 23549 23554 3867
8 23244 23245 23250 23249 23549 23550 23555 23554
8 23245 23246 23251 23250 23550 23551 23556 23555
8 23246 23247 23252 23251 23551 23552 23557 23556
8 23247 23248 23253 23252 23552 23553 23558 23557
8 23248 9873 9872 23253 23553 9812 9811 23558
8 3928 23249 23254 3929 3867 23554 23559 3868
8 23249 23250 23255 23254 23554 23555 23560 23559
8 23250 23251 23256 23255 23555 23556 23561 23560
8 23251 23252 23257 23256 23556 23557 23562 23561
8 23252 23253 23258 23257 23557 23558 23563 23562
8 23253 9872 9871 23258 23558 9811 9810 23563
8 23254 23255 23260 23259 23559 23560 23565 23564
8 23255 23256 23261 23260 23560 23561 23566 23565
8 23256 23257 23262 23261 23561 23562 23567 23566
8 23257 23258 23263 23262 23562 23563 23568 23567
8 23258 9871 9870 23263 23563 9810 9809 23568
8 23259 23260 23265 23264 23564 23565 23570 23569
8 23260 23261 23266 23265 23565 23566 23571 23570
8 23261 23262 23267 23266 23566 23567 23572 23571
8 23262 23263 23268 23267 23567 23568 23573 23572
8 23263 9870 9869 23268 23568 9809 9808 23573
8 23264 23265 23270 23269 23569 23570 23575 23574
8 23265 23266 23271 23270 23570 23571 23576 23575
8 23266 23267 23272 23271 23571 23572 23577 23576
8 23267 23268 23273 23272 23572 23573 23578 23577
8 23268 9869 9868 23273 23573 9808 9807 23578
8 23269 23270 23275 23274 23574 23575 23580 23579
8 23270 23271 23276 23275 23575 23576 23581 23580
8 23271 23272 23277 23276 23576 23577 23582 23581
8 23272 23273 23278 23277 23577 23578 23583 23582
8 23273 9868 9867 23278 23578 9807 9806 23583
8 23274 23275 23280 23279 23579 23580 23585 23584
8 23275 23276 23281 23280 23580 23581 23586 23585
8 23276 23277 23282 23281 23581 23582 23587 23586
8 23277 23278 23283 23282 23582 23583 23588 23587
8 23278 9867 9866 23283 23583 9806 9805 23588
8 23279 23280 23285 23284 23584 23585 23590 23589
8 23280 23281 23286 23285 23585 23586 23591 23590
8 23281 23282 23287 23286 23586 23587 23592 23591
8 23282 23283 23288 23287 23587 23588 23593 23592
8 23283 9866 9865 23288 23588 9805 9804 23593
8 23284 23285 23290 23289 23589 23590 23595 23594
8 23285 23286 23291 23290 23590 23591 23596 23595
8 23286 23287 23292 23291 23591 23592 23597 23596
8 23287 23288 23293 23292 23592 23593 23598 23597
8 23288 9865 9864 23293 23593 9804 9803 23598
8 23289 23290 23295 23294 23594 23595 23600 23599
8 23290 23291 23296 23295 23595 23596 23601 23600
8 23291 23292 23297 23296 23596 23597 23602 23601
8 23292 23293 23298 23297 23597 23598 23603 23602
8 23293 9864 9863 23298 23598 9803 9802 23603
8 23294 23295 23300 23299 23599 23600 23605 23604
8 23295 23296 23301 23300 23600 23601 23606 23605
8 23296 23297 23302 23301 23601 23602 23607 23606
8 23297 23298 23303 23302 23602 23603 23608 23607
8 23298 9863 9862 23303 23603 9802 9801 23608
8 23299 23300 23305 23304 23604 23605 23610 23609
8 23300 23301 23306 23305 23605 23606 23611 23610
8 23301 23302 23307 23306 23606 23607 23612 23611
8 23302 23303 23308 23307 23607 23608 23613 23612
8 23303 9862 9861 23308 23608 9801 9800 23613
8 23304 23305 23310 23309 23609 23610 23615 23614
8 23305 23306 23311 23310 23610 23611 23616 23615
8 23306 23307 23312 23311 23611 23612 23617 23616
8 23307 23308 23313 23312 23612 23613 23618 23617
8 23308 9861 9860 23313 23613 9800 9799 23618
8 23309 23310 23315 23314 23614 23615 23620 23619
8 23310 23311 23316 23315 23615 23616 23621 23620
8 23311 23312 23317 23316 23616 23617 23622 23621
8 23312 23313 23318 23317 23617 23618 23623 23622
8 23313 9860 9859 23318 23618 9799 9798 23623
8 23314 23315 23320 23319 23619 23620 23625 23624
8 23315 23316 23321 23320 23620 23621 23626 23625
8 23316 23317 23322 23321 23621 23622 23627 23626
8 23317 23318 23323 23322 23622 23623 23628 23627
8 23318 9859 9858 23323 23623 9798 9797 23628
8 23319 23320 23325 23324 23624 23625 23630 23629
8 23320 23321 23326 23325 23625 23626 23631 23630
8 23321 23322 23327 23326 23626 23627 23632 23631
8 23322 23323 23328 23327 23627 23628 23633 23632
8 23323 9858 9857 23328 23628 9797 9796 23633
8 23324 23325 23330 23329 23629 23630 23635 23634
8 23325 23326 23331 23330 23630 23631 23636 23635
8 23326 23327 23332 23331 23631 23632 23637 23636
8 23327 23328 23333 23332 23632 23633 23638 23637
8 23328 9857 9856 23333 23633 9796 9795 23638
8 23329 23330 23335 23334 23634 23635 23640 23639
8 23330 23331 23336 23335 23635 23636 23641 23640
8 23331 23332 23337 23336 23636 23637 23642 23641
8 23332 23333 23338 23337 23637 23638 23643 23642
8 23333 9856 9855 23338 23638 9795 9794 23643
8 23334 23335 23340 23339 23639 23640 23645 23644
8 23335 23336 23341 23340 23640 23641 23646 23645
8 23336 23337 23342 23341 23641 23642 23647 23646
8 23337 23338 23343 23342 23642 23643 23648 23647
8 23338 9855 9854 23343 23643 9794 9793 23648
8 23339 23340 23345 23344 23644 23645 23650 23649
8 23340 23341 23346 23345 23645 23646 23651 23650
8 23341 23342 23347 23346 23646 23647 23652 23651
8 23342 23343 23348 23347 23647 23648 23653 23652
8 23343 9854 9853 23348 23648 9793 9792 23653
8 23344 23345 23350 23349 23649 23650 23655 23654
8 23345 23346 23351 23350 23650 23651 23656 23655
8 23346 23347 23352 23351 23651 23652 23657 23656
8 23347 23348 23353 23352 23652 23653 23658 23657
8 23348 9853 9852 23353 23653 9792 9791 23658
8 23349 23350 23355 23354 23654 23655 23660 23659
8 23350 23351 23356 23355 23655 23656 23661 23660
8 23351 23352 23357 23356 23656 23657 23662 23661
8 23352 23353 23358 23357 23657 23658 23663 23662
8 23353 9852 9851 23358 23658 9791 9790 23663
8 23354 23355 23360 23359 23659 23660 23665 23664
8 23355 23356 23361 23360 23660 23661 23666 23665
8 23356 23357 23362 23361 23661 23662 23667 23666
8 23357 23358 23363 23362 23662 23663 23668 23667
8 23358 9851 9850 23363 23663 9790 9789 23668
8 23359 23360 23365 23364 23664 23665 23670 23669
8 23360 23361 23366 23365 23665 23666 23671 23670
8 23361 23362 23367 23366 23666 23667 23672 23671
8 23362 23363 23368 23367 23667 23668 23673 23672
8 23363 9850 9849 23368 23668 9789 9788 23673
8 23364 23365 23370 23369 23669 23670 23675 23674
8 23365 23366 23371 23370 23670 23671 23676 23675
8 23366 23367 23372 23371 23671 23672 23677 23676
8 23367 23368 23373 23372 23672 23673 23678 23677
8 23368 9849 9848 23373 23673 9788 9787 23678
8 23369 23370 23375 23374 23674 23675 23680 23679
8 23370 23371 23376 23375 23675 23676 23681 23680
8 23371 23372 23377 23376 23676 23677 23682 23681
8 23372 23373 23378 23377 23677 23678 23683 23682
8 23373 9848 9847 23378 23678 9787 9786 23683
8 23374 23375 23380 23379 23679 23680 23685 23684
8 23375 23376 23381 23380 23680 23681 23686 23685
8 23376 23377 23382 23381 23681 23682 23687 23686
8 23377 23378 23383 23382 23682 23683 23688 23687
8 23378 9847 9846 23383 23683 9786 9785 23688
8 23379 23380 23385 23384 23684 23685 23690 23689
8 23380 23381 23386 23385 23685 23686 23691 23690
8 23381 23382 23387 23386 23686 23687 23692 23691
8 23382 23383 23388 23387 23687 23688 23693 23692
8 23383 9846 9845 23388 23688 9785 9784 23693
8 23384 23385 23390 23389 23689 23690 23695 23694
8 23385 23386 23391 23390 23690 23691 23696 23695
8 23386 23387 23392 23391 23691 23692 23697 23696
8 23387 23388 23393 23392 23692 23693 23698 23697
8 23388 9845 9844 23393 23693 9784 9783 23698
8 23389 23390 23395 23394 23694 23695 23700 23699
8 23390 23391 23396 23395 23695 23696 23701 23700
8 23391 23392 23397 23396 23696 23697 23702 23701
8 23392 23393 23398 23397 23697 23698 23703 23702
8 23393 9844 9843 23398 23698 9783 9782 23703
8 23394 23395 23400 23399 23699 23700 23705 23704
8 23395 23396 23401 23400 23700 23701 23706 23705
8 23396 23397 23402 23401 23701 23702 23707 23706
8 23397 23398 23403 23402 23702 23703 23708 23707
8 23398 9843 9842 23403 23703 9782 9781 23708
8 23399 23400 23405 23404 23704 23705 23710 23709
8 23400 23401 23406 23405 23705 23706 23711 23710
8 23401 23402 23407 23406 23706 23707 23712 23711
8 23402 23403 23408 23407 23707 23708 23713 23712
8 23403 9842 9841 23408 23708 9781 9780 23713
8 23404 23405 23410 23409 23709 23710 23715 23714
8 23405 23406 23411 23410 23710 23711 23716 23715
8 23406 23407 23412 23411 23711 23712 23717 23716
8 23407 23408 23413 23412 23712 23713 23718 23717
8 23408 9841 9840 23413 23713 9780 9779 23718
8 3960 23409 23414 3961 3899 23714 23719 3900
8 23409 23410 23415 23414 23714 23715 23720 23719
8 23410 23411 23416 23415 23715 23716 23721 23720
8 23411 23412 23417 23416 23716 23717 23722 23721
8 23412 23413 23418 23417 23717 23718 23723 23722
8 23413 9840 9839 23418 23718 9779 9778 23723
8 3961 23414 23419 3962 3900 23719 23724 3901
8 23414 23415 23420 23419 23719 23720 23725 23724
8 23415 23416 23421 23420 23720 23721 23726 23725
8 23416 23417 23422 23421 23721 23722 23727 23726
8 23417 23418 23423 23422 23722 23723 23728 23727
8 23418 9839 9838 23423 23723 9778 9777 23728
8 3962 23419 23424 3963 3901 23724 23729 3902
8 23419 23420 23425 23424 23724 23725 23730 23729
8 23420 23421 23426 23425 23725 23726 23731 23730
8 23421 23422 23427 23426 23726 23727 23732 23731
8 23422 23423 23428 23427 23727 23728 23733 23732
8 23423 9838 9837 23428 23728 9777 9776 23733
8 3963 23424 23429 3964 3902 23729 23734 3903
8 23424 23425 23430 23429 23729 23730 23735 23734
8 23425 23426 23431 23430 23730 23731 23736 23735
8 23426 23427 23432 23431 23731 23732 23737 23736
8 23427 23428 23433 23432 23732 23733 23738 23737
8 23428 9837 9836 23433 23733 9776 9775 23738
8 3964 23429 23434 3965 3903 23734 23739 3904
8 23429 23430 23435 23434 23734 23735 23740 23739
8 23430 23431 23436 23435 23735 23736 23741 23740
8 23431 23432 23437 23436 23736 23737 23742 23741
8 23432 23433 23438 23437 23737 23738 23743 23742
8 23433 9836 9835 23438 23738 9775 9774 23743
8 3965 23434 23439 3966 3904 23739 23744 3905
8 23434 23435 23440 23439 23739 23740 23745 23744
8 23435 23436 23441 23440 23740 23741 23746 23745
8 23436 23437 23442 23441 23741 23742 23747 23746
8 23437 23438 23443 23442 23742 23743 23748 23747
8 23438 9835 9834 23443 23743 9774 9773 23748
8 3966 23439 23444 3967 3905 23744 23749 3906
8 23439 23440 23445 23444 23744 23745 23750 23749
8 23440 23441 23446 23445 23745 23746 23751 23750
8 23441 23442 23447 23446 23746 23747 23752 23751
8 23442 23443 23448 23447 23747 23748 23753 23752
8 23443 9834 9833 23448 23748 9773 9772 23753
8 3967 23444 23449 3968 3906 23749 23754 3907
8 23444 23445 23450 23449 23749 23750 23755 23754
8 23445 23446 23451 23450 23750 23751 23756 23755
8 23446 23447 23452 23451 23751 23752 23757 23756
8 23447 23448 23453 23452 23752 23753 23758 23757
8 23448 9833 9832 23453 23753 9772 9771 23758
8 3968 23449 23454 3969 3907 23754 23759 3908
8 23449 23450 23455 23454 23754 23755 23760 23759
8 23450 23451 23456 23455 23755 23756 23761 23760
8 23451 23452 23457 23456 23756 23757 23762 23761
8 23452 23453 23458 23457 23757 23758 23763 23762
8 23453 9832 9831 23458 23758 9771 9770 23763
8 3969 23454 12924 123 3908 23759 12919 122
8 23454 23455 12925 12924 23759 23760 12920 12919
8 23455 23456 12926 12925 23760 23761 12921 12920
8 23456 23457 12927 12926 23761 23762 12922 12921
8 23457 23458 12928 12927 23762 23763 12923 12922
8 23458 9831 6172 12928 23763 9770 6173 12923
8 251 12019 23459 3848 252 12024 23764 3787
8 12019 12020 23460 23459 12024 12025 23765 23764
8 12020 12021 23461 23460 12025 12026 23766 23765
8 12021 12022 23462 23461 12026 12027 23767 23766
8 12022 12023 23463 23462 12027 12028 23768 23767
8 12023 6044 9830 23463 12028 6043 9769 23768
8 3848 23459 23464 3849 3787 23764 23769 3788
8 23459 23460 23465 23464 23764 23765 23770 23769
8 23460 23461 23466 23465 23765 23766 23771 23770
8 23461 23462 23467 23466 23766 23767 23772 23771
8 23462 23463 23468 23467 23767 23768 23773 23772
8 23463 9830 9829 23468 23768 9769 9768 23773
8 3849 23464 23469 3850 3788 23769 23774 3789
8 23464 23465 23470 23469 23769 23770 23775 23774
8 23465 23466 23471 23470 23770 23771 23776 23775
8 23466 23467 23472 23471 23771 23772 23777 23776
8 23467 23468 23473 23472 23772 23773 23778 23777
8 23468 9829 9828 23473 23773 9768 9767 23778
8 3850 23469 23474 3851 3789 23774 23779 3790
8 23469 23470 23475 23474 23774 23775 23780 23779
8 23470 23471 23476 23475 23775 23776 23781 23780
8 23471 23472 23477 23476 23776 23777 23782 23781
8 23472 23473 23478 23477 23777 23778 23783 23782
8 23473 9828 9827 23478 23778 9767 9766 23783
8 3851 23474 23479 3852 3790 23779 23784 3791
8 23474 23475 23480 23479 23779 23780 23785 23784
8 23475 23476 23481 23480 23780 23781 23786 23785
8 23476 23477 23482 23481 23781 23782 23787 23786
8 23477 23478 23483 23482 23782 23783 23788 23787
8 23478 9827 9826 23483 23783 9766 9765 23788
8 3852 23479 23484 3853 3791 23784 23789 3792
8 23479 23480 23485 23484 23784 23785 23790 23789
8 23480 23481 23486 23485 23785 23786 23791 23790
8 23481 23482 23487 23486 23786 23787 23792 23791
8 23482 23483 23488 23487 23787 23788 23793 23792
8 23483 9826 9825 23488 23788 9765 9764 23793
8 3853 23484 23489 3854 3792 23789 23794 3793
8 23484 23485 23490 23489 23789 23790 23795 23794
8 23485 23486 23491 23490 23790 23791 23796 23795
8 23486 23487 23492 23491 23791 23792 23797 23796
8 23487 23488 23493 23492 23792 23793 23798 23797
8 23488 9825 9824 23493 23793 9764 9763 23798
8 3854 23489 23494 3855 3793 23794 23799 3794
8 23489 23490 23495 23494 23794 23795 23800 23799
8 23490 23491 23496 23495 23795 23796 23801 23800
8 23491 23492 23497 23496 23796 23797 23802 23801
8 23492 23493 23498 23497 23797 23798 23803 23802
8 23493 9824 9823 23498 23798 9763 9762 23803
8 3855 23494 23499 3856 3794 23799 23804 3795
8 23494 23495 23500 23499 23799 23800 23805 23804
8 23495 23496 23501 23500 23800 23801 23806 23805
8 23496 23497 23502 23501 23801 23802 23807 23806
8 23497 23498 23503 23502 23802 23803 23808 23807
8 23498 9823 9822 23503 23803 9762 9761 23808
8 3856 23499 23504 3857 3795 23804 23809 3796
8 23499 23500 23505 23504 23804 23805 23810 23809
8 23500 23501 23506 23505 23805 23806 23811 23810
8 23501 23502 23507 23506 23806 23807 23812 23811
8 23502 23503 23508 23507 23807 23808 23813 23812
8 23503 9822 9821 23508 23808 9761 9760 23813
8 3857 23504 23509 3858 3796 23809 23814 3797
8 23504 23505 23510 23509 23809 23810 23815 23814
8 23505 23506 23511 23510 23810 23811 23816 23815
8 23506 23507 23512 23511 23811 23812 23817 23816
8 23507 23508 23513 23512 23812 23813 23818 23817
8 23508 9821 9820 23513 23813 9760 9759 23818
8 3858 23509 23514 3859 3797 23814 23819 3798
8 23509 23510 23515 23514 23814 23815 23820 23819
8 23510 23511 23516 23515 23815 23816 23821 23820
8 23511 23512 23517 23516 23816 23817 23822 23821
8 23512 23513 23518 23517 23817 23818 23823 23822
8 23513 9820 9819 23518 23818 9759 9758 23823
8 3859 23514 23519 3860 3798 23819 23824 3799
8 23514 23515 23520 23519 23819 23820 23825 23824
8 23515 23516 23521 23520 23820 23821 23826 23825
8 23516 23517 23522 23521 23821 23822 23827 23826
8 23517 23518 23523 23522 23822 23823 23828 23827
8 23518 9819 9818 23523 23823 9758 9757 23828
8 3860 23519 23524 3861 3799 23824 23829 3800
8 23519 23520 23525 23524 23824 23825 23830 23829
8 23520 23521 23526 23525 23825 23826 23831 23830
8 23521 23522 23527 23526 23826 23827 23832 23831
8 23522 23523 23528 23527 23827 23828 23833 23832
8 23523 9818 9817 23528 23828 9757 9756 23833
8 3861 23524 23529 3862 3800 23829 23834 3801
8 23524 23525 23530 23529 23829 23830 23835 23834
8 23525 23526 23531 23530 23830 23831 23836 23835
8 23526 23527 23532 23531 23831 23832 23837 23836
8 23527 23528 23533 23532 23832 23833 23838 23837
8 23528 9817 9816 23533 23833 9756 9755 23838
8 3862 23529 23534 3863 3801 23834 23839 3802
8 23529 23530 23535 23534 23834 23835 23840 23839
8 23530 23531 23536 23535 23835 23836 23841 23840
8 23531 23532 23537 23536 23836 23837 23842 23841
8 23532 23533 23538 23537 23837 23838 23843 23842
8 23533 9816 9815 23538 23838 9755 9754 23843
8 3863 23534 23539 3864 3802 23839 23844 3803
8 23534 23535 23540 23539 23839 23840 23845 23844
8 23535 23536 23541 23540 23840 23841 23846 23845
8 23536 23537 23542 23541 23841 23842 23847 23846
8 23537 23538 23543 23542 23842 23843 23848 23847
8 23538 9815 9814 23543 23843 9754 9753 23848
8 3864 23539 23544 3865 3803 23844 23849 3804
8 23539 23540 23545 23544 23844 23845 23850 23849
8 23540 23541 23546 23545 23845 23846 23851 23850
8 23541 23542 23547 23546 23846 23847 23852 23851
8 23542 23543 23548 23547 23847 23848 23853 23852
8 23543 9814 9813 23548 23848 9753 9752 23853
8 3865 23544 23549 3866 3804 23849 23854 3805
8 23544 23545 23550 23549 23849 23850 23855 23854
8 23545 23546 23551 23550 23850 23851 23856 23855
8 23546 23547 23552 23551 23851 23852 23857 23856
8 23547 23548 23553 23552 23852 23853 23858 23857
8 23548 9813 9812 23553 23853 9752 9751 23858
8 3866 23549 23554 3867 3805 23854 23859 3806
8 23549 23550 23555 23554 23854 23855 23860 23859
8 23550 23551 23556 23555 23855 23856 23861 23860
8 23551 23552 23557 23556 23856 23857 23862 23861
8 23552 23553 23558 23557 23857 23858 23863 23862
8 23553 9812 9811 23558 23858 9751 9750 23863
8 3867 23554 23559 3868 3806 23859 23864 3807
8 23554 23555 23560 23559 23859 23860 23865 23864
8 23555 23556 23561 23560 23860 23861 23866 23865
8 23556 23557 23562 23561 23861 23862 23867 23866
8 23557 23558 23563 23562 23862 23863 23868 23867
8 23558 9811 9810 23563 23863 9750 9749 23868
8 23559 23560 23565 23564 23864 23865 23870 23869
8 23560 23561 23566 23565 23865 23866 23871 23870
8 23561 23562 23567 23566 23866 23867 23872 23871
8 23562 23563 23568 23567 23867 23868 23873 23872
8 23563 9810 9809 23568 23868 9749 9748 23873
8 23564 23565 23570 23569 23869 23870 23875 23874
8 23565 23566 23571 23570 23870 23871 23876 23875
8 23566 23567 23572 23571 23871 23872 23877 23876
8 23567 23568 23573 23572 23872 23873 23878 23877
8 23568 9809 9808 23573 23873 9748 9747 23878
8 3870 23569 23574 3871 3809 23874 23879 3810
8 23569 23570 23575 23574 23874 23875 23880 23879
8 23570 23571 23576 23575 23875 23876 23881 23880
8 23571 23572 23577 23576 23876 23877 23882 23881
8 23572 23573 23578 23577 23877 23878 23883 23882
8 23573 9808 9807 23578 23878 9747 9746 23883
8 3871 23574 23579 3872 3810 23879 23884 3811
8 23574 23575 23580 23579 23879 23880 23885 23884
8 23575 23576 23581 23580 23880 23881 23886 23885
8 23576 23577 23582 23581 23881 23882 23887 23886
8 23577 23578 23583 23582 23882 23883 23888 23887
8 23578 9807 9806 23583 23883 9746 9745 23888
8 3872 23579 23584 3873 3811 23884 23889 3812
8 23579 23580 23585 23584 23884 23885 23890 23889
8 23580 23581 23586 23585 23885 23886 23891 23890
8 23581 23582 23587 23586 23886 23887 23892 23891
8 23582 23583 23588 23587 23887 23888 23893 23892
8 23583 9806 9805 23588 23888 9745 9744 23893
8 3873 23584 23589 3874 3812 23889 23894 3813
8 23584 23585 23590 23589 23889 23890 23895 23894
8 23585 23586 23591 23590 23890 23891 23896 23895
8 23586 23587 23592 23591 23891 23892 23897 23896
8 23587 23588 23593 23592 23892 23893 23898 23897
8 23588 9805 9804 23593 23893 9744 9743 23898
8 3874 23589 23594 3875 3813 23894 23899 3814
8 23589 23590 23595 23594 23894 23895 23900 23899
8 23590 23591 23596 23595 23895 23896 23901 23900
8 23591 23592 23597 23596 23896 23897 23902 23901
8 23592 23593 23598 23597 23897 23898 23903 23902
8 23593 9804 9803 23598 23898 9743 9742 23903
8 3875 23594 23599 3876 3814 23899 23904 3815
8 23594 23595 23600 23599 23899 23900 23905 23904
8 23595 23596 23601 23600 23900 23901 23906 23905
8 23596 23597 23602 23601 23901 23902 23907 23906
8 23597 23598 23603 23602 23902 23903 23908 23907
8 23598 9803 9802 23603 23903 9742 9741 23908
8 3876 23599 23604 3877 3815 23904 23909 3816
8 23599 23600 23605 23604 23904 23905 23910 23909
8 23600 23601 23606 23605 23905 23906 23911 23910
8 23601 23602 23607 23606 23906 23907 23912 23911
8 23602 23603 23608 23607 23907 23908 23913 23912
8 23603 9802 9801 23608 23908 9741 9740 23913
8 23604 23605 23610 23609 23909 23910 23915 23914
8 23605 23606 23611 23610 23910 23911 23916 23915
8 23606 23607 23612 23611 23911 23912 23917 23916
8 23607 23608 23613 23612 23912 23913 23918 23917
8 23608 9801 9800 23613 23913 9740 9739 23918
8 23609 23610 23615 23614 23914 23915 23920 23919
8 23610 23611 23616 23615 23915 23916 23921 23920
8 23611 23612 23617 23616 23916 23917 23922 23921
8 23612 23613 23618 23617 23917 23918 23923 23922
8 23613 9800 9799 23618 23918 9739 9738 23923
8 23614 23615 23620 23619 23919 23920 23925 23924
8 23615 23616 23621 23620 23920 23921 23926 23925
8 23616 23617 23622 23621 23921 23922 23927 23926
8 23617 23618 23623 23622 23922 23923 23928 23927
8 23618 9799 9798 23623 23923 9738 9737 23928
8 23619 23620 23625 23624 23924 23925 23930 23929
8 23620 23621 23626 23625 23925 23926 23931 23930
8 23621 23622 23627 23626 23926 23927 23932 23931
8 23622 23623 23628 23627 23927 23928 23933 23932
8 23623 9798 9797 23628 23928 9737 9736 23933
8 23624 23625 23630 23629 23929 23930 23935 23934
8 23625 23626 23631 23630 23930 23931 23936 23935
8 23626 23627 23632 23631 23931 23932 23937 23936
8 23627 23628 23633 23632 23932 23933 23938 23937
8 23628 9797 9796 23633 23933 9736 9735 23938
8 23629 23630 23635 23634 23934 23935 23940 23939
8 23630 23631 23636 23635 23935 23936 23941 23940
8 23631 23632 23637 23636 23936 23937 23942 23941
8 23632 23633 23638 23637 23937 23938 23943 23942
8 23633 9796 9795 23638 23938 9735 9734 23943
8 23634 23635 23640 23639 23939 23940 23945 23944
8 23635 23636 23641 23640 23940 23941 23946 23945
8 23636 23637 23642 23641 23941 23942 23947 23946
8 23637 23638 23643 23642 23942 23943 23948 23947
8 23638 9795 9794 23643 23943 9734 9733 23948
8 3884 23639 23644 3885 3823 23944 23949 3824
8 23639 23640 23645 23644 23944 23945 23950 23949
8 23640 23641 23646 23645 23945 23946 23951 23950
8 23641 23642 23647 23646 23946 23947 23952 23951
8 23642 23643 23648 23647 23947 23948 23953 23952
8 23643 9794 9793 23648 23948 9733 9732 23953
8 3885 23644 23649 3886 3824 23949 23954 3825
8 23644 23645 23650 23649 23949 23950 23955 23954
8 23645 23646 23651 23650 23950 23951 23956 23955
8 23646 23647 23652 23651 23951 23952 23957 23956
8 23647 23648 23653 23652 23952 23953 23958 23957
8 23648 9793 9792 23653 23953 9732 9731 23958
8 3886 23649 23654 3887 3825 23954 23959 3826
8 23649 23650 23655 23654 23954 23955 23960 23959
8 23650 23651 23656 23655 23955 23956 23961 23960
8 23651 23652 23657 23656 23956 23957 23962 23961
8 23652 23653 23658 23657 23957 23958 23963 23962
8 23653 9792 9791 23658 23958 9731 9730 23963
8 3887 23654 23659 3888 3826 23959 23964 3827
8 23654 23655 23660 23659 23959 23960 23965 23964
8 23655 23656 23661 23660 23960 23961 23966 23965
8 23656 23657 23662 23661 23961 23962 23967 23966
8 23657 23658 23663 23662 23962 23963 23968 23967
8 23658 9791 9790 23663 23963 9730 9729 23968
8 3888 23659 23664 3889 3827 23964 23969 3828
8 23659 23660 23665 23664 23964 23965 23970 23969
8 23660 23661 23666 23665 23965 23966 23971 23970
8 23661 23662 23667 23666 23966 23967 23972 23971
8 23662 23663 23668 23667 23967 23968 23973 23972
8 23663 9790 9789 23668 23968 9729 9728 23973
8 3889 23664 23669 3890 3828 23969 23974 3829
8 23664 23665 23670 23669 23969 23970 23975 23974
8 23665 23666 23671 23670 23970 23971 23976 23975
8 23666 23667 23672 23671 23971 23972 23977 23976
8 23667 23668 23673 23672 23972 23973 23978 23977
8 23668 9789 9788 23673 23973 9728 9727 23978
8 3890 23669 23674 3891 3829 23974 23979 3830
8 23669 23670 23675 23674 23974 23975 23980 23979
8 23670 23671 23676 23675 23975 23976 23981 23980
8 23671 23672 23677 23676 23976 23977 23982 23981
8 23672 23673 23678 23677 23977 23978 23983 23982
8 23673 9788 9787 23678 23978 9727 9726 23983
8 3891 23674 23679 3892 3830 23979 23984 3831
8 23674 23675 23680 23679 23979 23980 23985 23984
8 23675 23676 23681 23680 23980 23981 23986 23985
8 23676 23677 23682 23681 23981 23982 23987 23986
8 23677 23678 23683 23682 23982 23983 23988 23987
8 23678 9787 9786 23683 23983 9726 9725 23988
8 3892 23679 23684 3893 3831 23984 23989 3832
8 23679 23680 23685 23684 23984 23985 23990 23989
8 23680 23681 23686 23685 23985 23986 23991 23990
8 23681 23682 23687 23686 23986 23987 23992 23991
8 23682 23683 23688 23687 23987 23988 23993 23992
8 23683 9786 9785 23688 23988 9725 9724 23993
8 23684 23685 23690 23689 23989 23990 23995 23994
8 23685 23686 23691 23690 23990 23991 23996 23995
8 23686 23687 23692 23691 23991 23992 23997 23996
8 23687 23688 23693 23692 23992 23993 23998 23997
8 23688 9785 9784 23693 23993 9724 9723 23998
8 23689 23690 23695 23694 23994 23995 24000 23999
8 23690 23691 23696 23695 23995 23996 24001 24000
8 23691 23692 23697 23696 23996 23997 24002 24001
8 23692 23693 23698 23697 23997 23998 24003 24002
8 23693 9784 9783 23698 23998 9723 9722 24003
8 23694 23695 23700 23699 23999 24000 24005 24004
8 23695 23696 23701 23700 24000 24001 24006 24005
8 23696 23697 23702 23701 24001 24002 24007 24006
8 23697 23698 23703 23702 24002 24003 24008 24007
8 23698 9783 9782 23703 24003 9722 9721 24008
8 23699 23700 23705 23704 24004 24005 24010 24009
8 23700 23701 23706 23705 24005 24006 24011 24010
8 23701 23702 23707 23706 24006 24007 24012 24011
8 23702 23703 23708 23707 24007 24008 24013 24012
8 23703 9782 9781 23708 24008 9721 9720 24013
8 23704 23705 23710 23709 24009 24010 24015 24014
8 23705 23706 23711 23710 24010 24011 24016 24015
8 23706 23707 23712 23711 24011 24012 24017 24016
8 23707 23708 23713 23712 24012 24013 24018 24017
8 23708 9781 9780 23713 24013 9720 9719 24018
8 23709 23710 23715 23714 24014 24015 24020 24019
8 23710 23711 23716 23715 24015 24016 24021 24020
8 23711 23712 23717 23716 24016 24017 24022 24021
8 23712 23713 23718 23717 24017 24018 24023 24022
8 23713 9780 9779 23718 24018 9719 9718 24023
8 3899 23714 23719 3900 3838 24019 24024 3839
8 23714 23715 23720 23719 24019 24020 24025 24024
8 23715 23716 23721 23720 24020 24021 24026 24025
8 23716 23717 23722 23721 24021 24022 24027 24026
8 23717 23718 23723 23722 24022 24023 24028 24027
8 23718 9779 9778 23723 24023 9718 9717 24028
8 3900 23719 23724 3901 3839 24024 24029 3840
8 23719 23720 23725 23724 24024 24025 24030 24029
8 23720 23721 23726 23725 24025 24026 24031 24030
8 23721 23722 23727 23726 24026 24027 24032 24031
8 23722 23723 23728 23727 24027 24028 24033 24032
8 23723 9778 9777 23728 24028 9717 9716 24033
8 3901 23724 23729 3902 3840 24029 24034 3841
8 23724 23725 23730 23729 24029 24030 24035 24034
8 23725 23726 23731 23730 24030 24031 24036 24035
8 23726 23727 23732 23731 24031 24032 24037 24036
8 23727 23728 23733 23732 24032 24033 24038 24037
8 23728 9777 9776 23733 24033 9716 9715 24038
8 3902 23729 23734 3903 3841 24034 24039 3842
8 23729 23730 23735 23734 24034 24035 24040 24039
8 23730 23731 23736 23735 24035 24036 24041 24040
8 23731 23732 23737 23736 24036 24037 24042 24041
8 23732 23733 23738 23737 24037 24038 24043 24042
8 23733 9776 9775 23738 24038 9715 9714 24043
8 3903 23734 23739 3904 3842 24039 24044 3843
8 23734 23735 23740 23739 24039 24040 24045 24044
8 23735 23736 23741 23740 24040 24041 24046 24045
8 23736 23737 23742 23741 24041 24042 24047 24046
8 23737 23738 23743 23742 24042 24043 24048 24047
8 23738 9775 9774 23743 24043 9714 9713 24048
8 3904 23739 23744 3905 3843 24044 24049 3844
8 23739 23740 23745 23744 24044 24045 24050 24049
8 23740 23741 23746 23745 24045 24046 24051 24050
8 23741 23742 23747 23746 24046 24047 24052 24051
8 23742 23743 23748 23747 24047 24048 24053 24052
8 23743 9774 9773 23748 24048 9713 9712 24053
8 3905 23744 23749 3906 3844 24049 24054 3845
8 23744 23745 23750 23749 24049 24050 24055 24054
8 23745 23746 23751 23750 24050 24051 24056 24055
8 23746 23747 23752 23751 24051 24052 24057 24056
8 23747 23748 23753 23752 24052 24053 24058 24057
8 23748 9773 9772 23753 24053 9712 9711 24058
8 3906 23749 23754 3907 3845 24054 24059 3846
8 23749 23750 23755 23754 24054 24055 24060 24059
8 23750 23751 23756 23755 24055 24056 24061 24060
8 23751 23752 23757 23756 24056 24057 24062 24061
8 23752 23753 23758 23757 24057 24058 24063 24062
8 23753 9772 9771 23758 24058 9711 9710 24063
8 3907 23754 23759 3908 3846 24059 24064 3847
8 23754 23755 23760 23759 24059 24060 24065 24064
8 23755 23756 23761 23760 24060 24061 24066 24065
8 23756 23757 23762 23761 24061 24062 24067 24066
8 23757 23758 23763 23762 24062 24063 24068 24067
8 23758 9771 9770 23763 24063 9710 9709 24068
8 3908 23759 12919 122 3847 24064 12914 121
8 23759 23760 12920 12919 24064 24065 12915 12914
8 23760 23761 12921 12920 24065 24066 12916 12915
8 23761 23762 12922 12921 24066 24067 12917 12916
8 23762 23763 12923 12922 24067 24068 12918 12917
8 23763 9770 6173 12923 24068 9709 6174 12918
8 252 12024 23764 3787 253 12029 24069 3726
8 12024 12025 23765 23764 12029 12030 24070 24069
8 12025 12026 23766 23765 12030 12031 24071 24070
8 12026 12027 23767 23766 12031 12032 24072 24071
8 12027 12028 23768 23767 12032 12033 24073 24072
8 12028 6043 9769 23768 12033 6042 9708 24073
8 3787 23764 23769 3788 3726 24069 24074 3727
8 23764 23765 23770 23769 24069 24070 24075 24074
8 23765 23766 23771 23770 24070 24071 24076 24075
8 23766 23767 23772 23771 24071 24072 24077 24076
8 23767 23768 23773 23772 24072 24073 24078 24077
8 23768 9769 9768 23773 24073 9708 9707 24078
8 3788 23769 23774 3789 3727 24074 24079 3728
8 23769 23770 23775 23774 24074 24075 24080 24079
8 23770 23771 23776 23775 24075 24076 24081 24080
8 23771 23772 23777 23776 24076 24077 24082 24081
8 23772 23773 23778 23777 24077 24078 24083 24082
8 23773 9768 9767 23778 24078 9707 9706 24083
8 3789 23774 23779 3790 3728 24079 24084 3729
8 23774 23775 23780 23779 24079 24080 24085 24084
8 23775 23776 23781 23780 24080 24081 24086 24085
8 23776 23777 23782 23781 24081 24082 24087 24086
8 23777 23778 23783 23782 24082 24083 24088 24087
8 23778 9767 9766 23783 24083 9706 9705 24088
8 3790 23779 23784 3791 3729 24084 24089 3730
8 23779 23780 23785 23784 24084 24085 24090 24089
8 23780 23781 23786 23785 24085 24086 24091 24090
8 23781 23782 23787 23786 24086 24087 24092 24091
8 23782 23783 23788 23787 24087 24088 24093 24092
8 23783 9766 9765 23788 24088 9705 9704 24093
8 3791 23784 23789 3792 3730 24089 24094 3731
8 23784 23785 23790 23789 24089 24090 24095 24094
8 23785 23786 23791 23790 24090 24091 24096 24095
8 23786 23787 23792 23791 24091 24092 24097 24096
8 23787 23788 23793 23792 24092 24093 24098 24097
8 23788 9765 9764 23793 24093 9704 9703 24098
8 3792 23789 23794 3793 3731 24094 24099 3732
8 23789 23790 23795 23794 24094 24095 24100 24099
8 23790 23791 23796 23795 24095 24096 24101 24100
8 23791 23792 23797 23796 24096 24097 24102 24101
8 23792 23793 23798 23797 24097 24098 24103 24102
8 23793 9764 9763 23798 24098 9703 9702 24103
8 3793 23794 23799 3794 3732 24099 24104 3733
8 23794 23795 23800 23799 24099 24100 24105 24104
8 23795 23796 23801 23800 24100 24101 24106 24105
8 23796 23797 23802 23801 24101 24102 24107 24106
8 23797 23798 23803 23802 24102 24103 24108 24107
8 23798 9763 9762 23803 24103 9702 9701 24108
8 3794 23799 23804 3795 3733 24104 24109 3734
8 23799 23800 23805 23804 24104 24105 24110 24109
8 23800 23801 23806 23805 24105 24106 24111 24110
8 23801 23802 23807 23806 24106 24107 24112 24111
8 23802 23803 23808 23807 24107 24108 24113 24112
8 23803 9762 9761 23808 24108 9701 9700 24113
8 3795 23804 23809 3796 3734 24109 24114 3735
8 23804 23805 23810 23809 24109 24110 24115 24114
8 23805 23806 23811 23810 24110 24111 24116 24115
8 23806 23807 23812 23811 24111 24112 24117 24116
8 23807 23808 23813 23812 24112 24113 24118 24117
8 23808 9761 9760 23813 24113 9700 9699 24118
8 3796 23809 23814 3797 3735 24114 24119 3736
8 23809 23810 23815 23814 24114 24115 24120 24119
8 23810 23811 23816 23815 24115 24116 24121 24120
8 23811 23812 23817 23816 24116 24117 24122 24121
8 23812 23813 23818 23817 24117 24118 24123 24122
8 23813 9760 9759 23818 24118 9699 9698 24123
8 3797 23814 23819 3798 3736 24119 24124 3737
8 23814 23815 23820 23819 24119 24120 24125 24124
8 23815 23816 23821 23820 24120 24121 24126 24125
8 23816 23817 23822 23821 24121 24122 24127 24126
8 23817 23818 23823 23822 24122 24123 24128 24127
8 23818 9759 9758 23823 24123 9698 9697 24128
8 3798 23819 23824 3799 3737 24124 24129 3738
8 23819 23820 23825 23824 24124 24125 24130 24129
8 23820 23821 23826 23825 24125 24126 24131 24130
8 23821 23822 23827 23826 24126 24127 24132 24131
8 23822 23823 23828 23827 24127 24128 24133 24132
8 23823 9758 9757 23828 24128 9697 9696 24133
8 3799 23824 23829 3800 3738 24129 24134 3739
8 23824 23825 23830 23829 24129 24130 24135 24134
8 23825 23826 23831 23830 24130 24131 24136 24135
8 23826 23827 23832 23831 24131 24132 24137 24136
8 23827 23828 23833 23832 24132 24133 24138 24137
8 23828 9757 9756 23833 24133 9696 9695 24138
8 3800 23829 23834 3801 3739 24134 24139 3740
8 23829 23830 23835 23834 24134 24135 24140 24139
8 23830 23831 23836 23835 24135 24136 24141 24140
8 23831 23832 23837 23836 24136 24137 24142 24141
8 23832 23833 23838 23837 24137 24138 24143 24142
8 23833 9756 9755 23838 24138 9695 9694 24143
8 3801 23834 23839 3802 3740 24139 24144 3741
8 23834 23835 23840 23839 24139 24140 24145 24144
8 23835 23836 23841 23840 24140 24141 24146 24145
8 23836 23837 23842 23841 24141 24142 24147 24146
8 23837 23838 23843 23842 24142 24143 24148 24147
8 23838 9755 9754 23843 24143 9694 9693 24148
8 3802 23839 23844 3803 3741 24144 24149 3742
8 23839 23840 23845 23844 24144 24145 24150 24149
8 23840 23841 23846 23845 24145 24146 24151 24150
8 23841 23842 23847 23846 24146 24147 24152 24151
8 23842 23843 23848 23847 24147 24148 24153 24152
8 23843 9754 9753 23848 24148 9693 9692 24153
8 3803 23844 23849 3804 3742 24149 24154 3743
8 23844 23845 23850 23849 24149 24150 24155 24154
8 23845 23846 23851 23850 24150 24151 24156 24155
8 23846 23847 23852 23851 24151 24152 24157 24156
8 23847 23848 23853 23852 24152 24153 24158 24157
8 23848 9753 9752 23853 24153 9692 9691 24158
8 3804 23849 23854 3805 3743 24154 24159 3744
8 23849 23850 23855 23854 24154 24155 24160 24159
8 23850 23851 23856 23855 24155 24156 24161 24160
8 23851 23852 23857 23856 24156 24157 24162 24161
8 23852 23853 23858 23857 24157 24158 24163 24162
8 23853 9752 9751 23858 24158 9691 9690 24163
8 3805 23854 23859 3806 3744 24159 24164 3745
8 23854 23855 23860 23859 24159 24160 24165 24164
8 23855 23856 23861 23860 24160 24161 24166 24165
8 23856 23857 23862 23861 24161 24162 24167 24166
8 23857 23858 23863 23862 24162 24163 24168 24167
8 23858 9751 9750 23863 24163 9690 9689 24168
8 3806 23859 23864 3807 3745 24164 24169 3746
8 23859 23860 23865 23864 24164 24165 24170 24169
8 23860 23861 23866 23865 24165 24166 24171 24170
8 23861 23862 23867 23866 24166 24167 24172 24171
8 23862 23863 23868 23867 24167 24168 24173 24172
8 23863 9750 9749 23868 24168 9689 9688 24173
8 23864 23865 23870 23869 24169 24170 24175 24174
8 23865 23866 23871 23870 24170 24171 24176 24175
8 23866 23867 23872 23871 24171 24172 24177 24176
8 23867 23868 23873 23872 24172 24173 24178 24177
8 23868 9749 9748 23873 24173 9688 9687 24178
8 23869 23870 23875 23874 24174 24175 24180 24179
8 23870 23871 23876 23875 24175 24176 24181 24180
8 23871 23872 23877 23876 24176 24177 24182 24181
8 23872 23873 23878 23877 24177 24178 24183 24182
8 23873 9748 9747 23878 24178 9687 9686 24183
8 3809 23874 23879 3810 3748 24179 24184 3749
8 23874 23875 23880 23879 24179 24180 24185 24184
8 23875 23876 23881 23880 24180 24181 24186 24185
8 23876 23877 23882 23881 24181 24182 24187 24186
8 23877 23878 23883 23882 24182 24183 24188 24187
8 23878 9747 9746 23883 24183 9686 9685 24188
8 3810 23879 23884 3811 3749 24184 24189 3750
8 23879 23880 23885 23884 24184 24185 24190 24189
8 23880 23881 23886 23885 24185 24186 24191 24190
8 23881 23882 23887 23886 24186 24187 24192 24191
8 23882 23883 23888 23887 24187 24188 24193 24192
8 23883 9746 9745 23888 24188 9685 9684 24193
8 3811 23884 23889 3812 3750 24189 24194 3751
8 23884 23885 23890 23889 24189 24190 24195 24194
8 23885 23886 23891 23890 24190 24191 24196 24195
8 23886 23887 23892 23891 24191 24192 24197 24196
8 23887 23888 23893 23892 24192 24193 24198 24197
8 23888 9745 9744 23893 24193 9684 9683 24198
8 3812 23889 23894 3813 3751 24194 24199 3752
8 23889 23890 23895 23894 24194 24195 24200 24199
8 23890 23891 23896 23895 24195 24196 24201 24200
8 23891 23892 23897 23896 24196 24197 24202 24201
8 23892 23893 23898 23897 24197 24198 24203 24202
8 23893 9744 9743 23898 24198 9683 9682 24203
8 3813 23894 23899 3814 3752 24199 24204 3753
8 23894 23895 23900 23899 24199 24200 24205 24204
8 23895 23896 23901 23900 24200 24201 24206 24205
8 23896 23897 23902 23901 24201 24202 24207 24206
8 23897 23898 23903 23902 24202 24203 24208 24207
8 23898 9743 9742 23903 24203 9682 9681 24208
8 3814 23899 23904 3815 3753 24204 24209 3754
8 23899 23900 23905 23904 24204 24205 24210 24209
8 23900 23901 23906 23905 24205 24206 24211 24210
8 23901 23902 23907 23906 24206 24207 24212 24211
8 23902 23903 23908 23907 24207 24208 24213 24212
8 23903 9742 9741 23908 24208 9681 9680 24213
8 3815 23904 23909 3816 3754 24209 24214 3755
8 23904 23905 23910 23909 24209 24210 24215 24214
8 23905 23906 23911 23910 24210 24211 24216 24215
8 23906 23907 23912 23911 24211 24212 24217 24216
8 23907 23908 23913 23912 24212 24213 24218 24217
8 23908 9741 9740 23913 24213 9680 9679 24218
8 23909 23910 23915 23914 24214 24215 24220 24219
8 23910 23911 23916 23915 24215 24216 24221 24220
8 23911 23912 23917 23916 24216 24217 24222 24221
8 23912 23913 23918 23917 24217 24218 24223 24222
8 23913 9740 9739 23918 24218 9679 9678 24223
8 23914 23915 23920 23919 24219 24220 24225 24224
8 23915 23916 23921 23920 24220 24221 24226 24225
8 23916 23917 23922 23921 24221 24222 24227 24226
8 23917 23918 23923 23922 24222 24223 24228 24227
8 23918 9739 9738 23923 24223 9678 9677 24228
8 23919 23920 23925 23924 24224 24225 24230 24229
8 23920 23921 23926 23925 24225 24226 24231 24230
8 23921 23922 23927 23926 24226 24227 24232 24231
8 23922 23923 23928 23927 24227 24228 24233 24232
8 23923 9738 9737 23928 24228 9677 9676 24233
8 23924 23925 23930 23929 24229 24230 24235 24234
8 23925 23926 23931 23930 24230 24231 24236 24235
8 23926 23927 23932 23931 24231 24232 24237 24236
8 23927 23928 23933 23932 24232 24233 24238 24237
8 23928 9737 9736 23933 24233 9676 9675 24238
8 23929 23930 23935 23934 24234 24235 24240 24239
8 23930 23931 23936 23935 24235 24236 24241 24240
8 23931 23932 23937 23936 24236 24237 24242 24241
8 23932 23933 23938 23937 24237 24238 24243 24242
8 23933 9736 9735 23938 24238 9675 9674 24243
8 23934 23935 23940 23939 24239 24240 24245 24244
8 23935 23936 23941 23940 24240 24241 24246 24245
8 23936 23937 23942 23941 24241 24242 24247 24246
8 23937 23938 23943 23942 24242 24243 24248 24247
8 23938 9735 9734 23943 24243 9674 9673 24248
8 23939 23940 23945 23944 24244 24245 24250 24249
8 23940 23941 23946 23945 24245 24246 24251 24250
8 23941 23942 23947 23946 24246 24247 24252 24251
8 23942 23943 23948 23947 24247 24248 24253 24252
8 23943 9734 9733 23948 24248 9673 9672 24253
8 3823 23944 23949 3824 3762 24249 24254 3763
8 23944 23945 23950 23949 24249 24250 24255 24254
8 23945 23946 23951 23950 24250 24251 24256 24255
8 23946 23947 23952 23951 24251 24252 24257 24256
8 23947 23948 23953 23952 24252 24253 24258 24257
8 23948 9733 9732 23953 24253 9672 9671 24258
8 3824 23949 23954 3825 3763 24254 24259 3764
8 23949 23950 23955 23954 24254 24255 24260 24259
8 23950 23951 23956 23955 24255 24256 24261 24260
8 23951 23952 23957 23956 24256 24257 24262 24261
8 23952 23953 23958 23957 24257 24258 24263 24262
8 23953 9732 9731 23958 24258 9671 9670 24263
8 3825 23954 23959 3826 3764 24259 24264 3765
8 23954 23955 23960 23959 24259 24260 24265 24264
8 23955 23956 23961 23960 24260 24261 24266 24265
8 23956 23957 23962 23961 24261 24262 24267 24266
8 23957 23958 23963 23962 24262 24263 24268 24267
8 23958 9731 9730 23963 24263 9670 9669 24268
8 3826 23959 23964 3827 3765 24264 24269 3766
8 23959 23960 23965 23964 24264 24265 24270 24269
8 23960 23961 23966 23965 24265 24266 24271 24270
8 23961 23962 23967 23966 24266 24267 24272 24271
8 23962 23963 23968 23967 24267 24268 24273 24272
8 23963 9730 9729 23968 24268 9669 9668 24273
8 3827 23964 23969 3828 3766 24269 24274 3767
8 23964 23965 23970 23969 24269 24270 24275 24274
8 23965 23966 23971 23970 24270 24271 24276 24275
8 23966 23967 23972 23971 24271 24272 24277 24276
8 23967 23968 23973 23972 24272 24273 24278 24277
8 23968 9729 9728 23973 24273 9668 9667 24278
8 3828 23969 23974 3829 3767 24274 24279 3768
8 23969 23970 23975 23974 24274 24275 24280 24279
8 23970 23971 23976 23975 24275 24276 24281 24280
8 23971 23972 23977 23976 24276 24277 24282 24281
8 23972 23973 23978 23977 24277 24278 24283 24282
8 23973 9728 9727 23978 24278 9667 9666 24283
8 3829 23974 23979 3830 3768 24279 24284 3769
8 23974 23975 23980 23979 24279 24280 24285 24284
8 23975 23976 23981 23980 24280 24281 24286 24285
8 23976 23977 23982 23981 24281 24282 24287 24286
8 23977 23978 23983 23982 24282 24283 24288 24287
8 23978 9727 9726 23983 24283 9666 9665 24288
8 3830 23979 23984 3831 3769 24284 24289 3770
8 23979 23980 23985 23984 24284 24285 24290 24289
8 23980 23981 23986 23985 24285 24286 24291 24290
8 23981 23982 23987 23986 24286 24287 24292 24291
8 23982 23983 23988 23987 24287 24288 24293 24292
8 23983 9726 9725 23988 24288 9665 9664 24293
8 3831 23984 23989 3832 3770 24289 24294 3771
8 23984 23985 23990 23989 24289 24290 24295 24294
8 23985 23986 23991 23990 24290 24291 24296 24295
8 23986 23987 23992 23991 24291 24292 24297 24296
8 23987 23988 23993 23992 24292 24293 24298 24297
8 23988 9725 9724 23993 24293 9664 9663 24298
8 23989 23990 23995 23994 24294 24295 24300 24299
8 23990 23991 23996 23995 24295 24296 24301 24300
8 23991 23992 23997 23996 24296 24297 24302 24301
8 23992 23993 23998 23997 24297 24298 24303 24302
8 23993 9724 9723 23998 24298 9663 9662 24303
8 23994 23995 24000 23999 24299 24300 24305 24304
8 23995 23996 24001 24000 24300 24301 24306 24305
8 23996 23997 24002 24001 24301 24302 24307 24306
8 23997 23998 24003 24002 24302 24303 24308 24307
8 23998 9723 9722 24003 24303 9662 9661 24308
8 23999 24000 24005 24004 24304 24305 24310 24309
8 24000 24001 24006 24005 24305 24306 24311 24310
8 24001 24002 24007 24006 24306 24307 24312 24311
8 24002 24003 24008 24007 24307 24308 24313 24312
8 24003 9722 9721 24008 24308 9661 9660 24313
8 24004 24005 24010 24009 24309 24310 24315 24314
8 24005 24006 24011 24010 24310 24311 24316 24315
8 24006 24007 24012 24011 24311 24312 24317 24316
8 24007 24008 24013 24012 24312 24313 24318 24317
8 24008 9721 9720 24013 24313 9660 9659 24318
8 24009 24010 24015 24014 24314 24315 24320 24319
8 24010 24011 24016 24015 24315 24316 24321 24320
8 24011 24012 24017 24016 24316 24317 24322 24321
8 24012 24013 24018 24017 24317 24318 24323 24322
8 24013 9720 9719 24018 24318 9659 9658 24323
8 24014 24015 24020 24019 24319 24320 24325 24324
8 24015 24016 24021 24020 24320 24321 24326 24325
8 24016 24017 24022 24021 24321 24322 24327 24326
8 24017 24018 24023 24022 24322 24323 24328 24327
8 24018 9719 9718 24023 24323 9658 9657 24328
8 3838 24019 24024 3839 3777 24324 24329 3778
8 24019 24020 24025 24024 24324 24325 24330 24329
8 24020 24021 24026 24025 24325 24326 24331 24330
8 24021 24022 24027 24026 24326 24327 24332 24331
8 24022 24023 24028 24027 24327 24328 24333 24332
8 24023 9718 9717 24028 24328 9657 9656 24333
8 3839 24024 24029 3840 3778 24329 24334 3779
8 24024 24025 24030 24029 24329 24330 24335 24334
8 24025 24026 24031 24030 24330 24331 24336 24335
8 24026 24027 24032 24031 24331 24332 24337 24336
8 24027 24028 24033 24032 24332 24333 24338 24337
8 24028 9717 9716 24033 24333 9656 9655 24338
8 3840 24029 24034 3841 3779 24334 24339 3780
8 24029 24030 24035 24034 24334 24335 24340 24339
8 24030 24031 24036 24035 24335 24336 24341 24340
8 24031 24032 24037 24036 24336 24337 24342 24341
8 24032 24033 24038 24037 24337 24338 24343 24342
8 24033 9716 9715 24038 24338 9655 9654 24343
8 3841 24034 24039 3842 3780 24339 24344 3781
8 24034 24035 24040 24039 24339 24340 24345 24344
8 24035 24036 24041 24040 24340 24341 24346 24345
8 24036 24037 24042 24041 24341 24342 24347 24346
8 24037 24038 24043 24042 24342 24343 24348 24347
8 24038 9715 9714 24043 24343 9654 9653 24348
8 3842 24039 24044 3843 3781 24344 24349 3782
8 24039 24040 24045 24044 24344 24345 24350 24349
8 24040 24041 24046 24045 24345 24346 24351 24350
8 24041 24042 24047 24046 24346 24347 24352 24351
8 24042 24043 24048 24047 24347 24348 24353 24352
8 24043 9714 9713 24048 24348 9653 9652 24353
8 3843 24044 24049 3844 3782 24349 24354 3783
8 24044 24045 24050 24049 24349 24350 24355 24354
8 24045 24046 24051 24050 24350 24351 24356 24355
8 24046 24047 24052 24051 24351 24352 24357 24356
8 24047 24048 24053 24052 24352 24353 24358 24357
8 24048 9713 9712 24053 24353 9652 9651 24358
8 3844 24049 24054 3845 3783 24354 24359 3784
8 24049 24050 24055 24054 24354 24355 24360 24359
8 24050 24051 24056 24055 24355 24356 24361 24360
8 24051 24052 24057 24056 24356 24357 24362 24361
8 24052 24053 24058 24057 24357 24358 24363 24362
8 24053 9712 9711 24058 24358 9651 9650 24363
8 3845 24054 24059 3846 3784 24359 24364 3785
8 24054 24055 24060 24059 24359 24360 24365 24364
8 24055 24056 24061 24060 24360 24361 24366 24365
8 24056 24057 24062 24061 24361 24362 24367 24366
8 24057 24058 24063 24062 24362 24363 24368 24367
8 24058 9711 9710 24063 24363 9650 9649 24368
8 3846 24059 24064 3847 3785 24364 24369 3786
8 24059 24060 24065 24064 24364 24365 24370 24369
8 24060 24061 24066 24065 24365 24366 24371 24370
8 24061 24062 24067 24066 24366 24367 24372 24371
8 24062 24063 24068 24067 24367 24368 24373 24372
8 24063 9710 9709 24068 24368 9649 9648 24373
8 3847 24064 12914 121 3786 24369 12909 120
8 24064 24065 12915 12914 24369 24370 12910 12909
8 24065 24066 12916 12915 24370 24371 12911 12910
8 24066 24067 12917 12916 24371 24372 12912 12911
8 24067 24068 12918 12917 24372 24373 12913 12912
8 24068 9709 6174 12918 24373 9648 6175 12913
8 253 12029 24069 3726 254 12034 24374 3665
8 12029 12030 24070 24069 12034 12035 24375 24374
8 12030 12031 24071 24070 12035 12036 24376 24375
8 12031 12032 24072 24071 12036 12037 24377 24376
8 12032 12033 24073 24072 12037 12038 24378 24377
8 12033 6042 9708 24073 12038 6041 9647 24378
8 3726 24069 24074 3727 3665 24374 24379 3666
8 24069 24070 24075 24074 24374 24375 24380 24379
8 24070 24071 24076 24075 24375 24376 24381 24380
8 24071 24072 24077 24076 24376 24377 24382 24381
8 24072 24073 24078 24077 24377 24378 24383 24382
8 24073 9708 9707 24078 24378 9647 9646 24383
8 3727 24074 24079 3728 3666 24379 24384 3667
8 24074 24075 24080 24079 24379 24380 24385 24384
8 24075 24076 24081 24080 24380 24381 24386 24385
8 24076 24077 24082 24081 24381 24382 24387 24386
8 24077 24078 24083 24082 24382 24383 24388 24387
8 24078 9707 9706 24083 24383 9646 9645 24388
8 3728 24079 24084 3729 3667 24384 24389 3668
8 24079 24080 24085 24084 24384 24385 24390 24389
8 24080 24081 24086 24085 24385 24386 24391 24390
8 24081 24082 24087 24086 24386 24387 24392 24391
8 24082 24083 24088 24087 24387 24388 24393 24392
8 24083 9706 9705 24088 24388 9645 9644 24393
8 3729 24084 24089 3730 3668 24389 24394 3669
8 24084 24085 24090 24089 24389 24390 24395 24394
8 24085 24086 24091 24090 24390 24391 24396 24395
8 24086 24087 24092 24091 24391 24392 24397 24396
8 24087 24088 24093 24092 24392 24393 24398 24397
8 24088 9705 9704 24093 24393 9644 9643 24398
8 3730 24089 24094 3731 3669 24394 24399 3670
8 24089 24090 24095 24094 24394 24395 24400 24399
8 24090 24091 24096 24095 24395 24396 24401 24400
8 24091 24092 24097 24096 24396 24397 24402 24401
8 24092 24093 24098 24097 24397 24398 24403 24402
8 24093 9704 9703 24098 24398 9643 9642 24403
8 3731 24094 24099 3732 3670 24399 24404 3671
8 24094 24095 24100 24099 24399 24400 24405 24404
8 24095 24096 24101 24100 24400 24401 24406 24405
8 24096 24097 24102 24101 24401 24402 24407 24406
8 24097 24098 24103 24102 24402 24403 24408 24407
8 24098 9703 9702 24103 24403 9642 9641 24408
8 3732 24099 24104 3733 3671 24404 24409 3672
8 24099 24100 24105 24104 24404 24405 24410 24409
8 24100 24101 24106 24105 24405 24406 24411 24410
8 24101 24102 24107 24106 24406 24407 24412 24411
8 24102 24103 24108 24107 24407 24408 24413 24412
8 24103 9702 9701 24108 24408 9641 9640 24413
8 3733 24104 24109 3734 3672 24409 24414 3673
8 24104 24105 24110 24109 24409 24410 24415 24414
8 24105 24106 24111 24110 24410 24411 24416 24415
8 24106 24107 24112 24111 24411 24412 24417 24416
8 24107 24108 24113 24112 24412 24413 24418 24417
8 24108 9701 9700 24113 24413 9640 9639 24418
8 3734 24109 24114 3735 3673 24414 24419 3674
8 24109 24110 24115 24114 24414 24415 24420 24419
8 24110 24111 24116 24115 24415 24416 24421 24420
8 24111 24112 24117 24116 24416 24417 24422 24421
8 24112 24113 24118 24117 24417 24418 24423 24422
8 24113 9700 9699 24118 24418 9639 9638 24423
8 3735 24114 24119 3736 3674 24419 24424 3675
8 24114 24115 24120 24119 24419 24420 24425 24424
8 24115 24116 24121 24120 24420 24421 24426 24425
8 24116 24117 24122 24121 24421 24422 24427 24426
8 24117 24118 24123 24122 24422 24423 24428 24427
8 24118 9699 9698 24123 24423 9638 9637 24428
8 3736 24119 24124 3737 3675 24424 24429 3676
8 24119 24120 24125 24124 24424 24425 24430 24429
8 24120 24121 24126 24125 24425 24426 24431 24430
8 24121 24122 24127 24126 24426 24427 24432 24431
8 24122 24123 24128 24127 24427 24428 24433 24432
8 24123 9698 9697 24128 24428 9637 9636 24433
8 3737 24124 24129 3738 3676 24429 24434 3677
8 24124 24125 24130 24129 24429 24430 24435 24434
8 24125 24126 24131 24130 24430 24431 24436 24435
8 24126 24127 24132 24131 24431 24432 24437 24436
8 24127 24128 24133 24132 24432 24433 24438 24437
8 24128 9697 9696 24133 24433 9636 9635 24438
8 3738 24129 24134 3739 3677 24434 24439 3678
8 24129 24130 24135 24134 24434 24435 24440 24439
8 24130 24131 24136 24135 24435 24436 24441 24440
8 24131 24132 24137 24136 24436 24437 24442 24441
8 24132 24133 24138 24137 24437 24438 24443 24442
8 24133 9696 9695 24138 24438 9635 9634 24443
8 3739 24134 24139 3740 3678 24439 24444 3679
8 24134 24135 24140 24139 24439 24440 24445 24444
8 24135 24136 24141 24140 24440 24441 24446 24445
8 24136 24137 24142 24141 24441 24442 24447 24446
8 24137 24138 24143 24142 24442 24443 24448 24447
8 24138 9695 9694 24143 24443 9634 9633 24448
8 3740 24139 24144 3741 3679 24444 24449 3680
8 24139 24140 24145 24144 24444 24445 24450 24449
8 24140 24141 24146 24145 24445 24446 24451 24450
8 24141 24142 24147 24146 24446 24447 24452 24451
8 24142 24143 24148 24147 24447 24448 24453 24452
8 24143 9694 9693 24148 24448 9633 9632 24453
8 3741 24144 24149 3742 3680 24449 24454 3681
8 24144 24145 24150 24149 24449 24450 24455 24454
8 24145 24146 24151 24150 24450 24451 24456 24455
8 24146 24147 24152 24151 24451 24452 24457 24456
8 24147 24148 24153 24152 24452 24453 24458 24457
8 24148 9693 9692 24153 24453 9632 9631 24458
8 3742 24149 24154 3743 3681 24454 24459 3682
8 24149 24150 24155 24154 24454 24455 24460 24459
8 24150 24151 24156 24155 24455 24456 24461 24460
8 24151 24152 24157 24156 24456 24457 24462 24461
8 24152 24153 24158 24157 24457 24458 24463 24462
8 24153 9692 9691 24158 24458 9631 9630 24463
8 3743 24154 24159 3744 3682 24459 24464 3683
8 24154 24155 24160 24159 24459 24460 24465 24464
8 24155 24156 24161 24160 24460 24461 24466 24465
8 24156 24157 24162 24161 24461 24462 24467 24466
8 24157 24158 24163 24162 24462 24463 24468 24467
8 24158 9691 9690 24163 24463 9630 9629 24468
8 3744 24159 24164 3745 3683 24464 24469 3684
8 24159 24160 24165 24164 24464 24465 24470 24469
8 24160 24161 24166 24165 24465 24466 24471 24470
8 24161 24162 24167 24166 24466 24467 24472 24471
8 24162 24163 24168 24167 24467 24468 24473 24472
8 24163 9690 9689 24168 24468 9629 9628 24473
8 3745 24164 24169 3746 3684 24469 24474 3685
8 24164 24165 24170 24169 24469 24470 24475 24474
8 24165 24166 24171 24170 24470 24471 24476 24475
8 24166 24167 24172 24171 24471 24472 24477 24476
8 24167 24168 24173 24172 24472 24473 24478 24477
8 24168 9689 9688 24173 24473 9628 9627 24478
8 24169 24170 24175 24174 24474 24475 24480 24479
8 24170 24171 24176 24175 24475 24476 24481 24480
8 24171 24172 24177 24176 24476 24477 24482 24481
8 24172 24173 24178 24177 24477 24478 24483 24482
8 24173 9688 9687 24178 24478 9627 9626 24483
8 24174 24175 24180 24179 24479 24480 24485 24484
8 24175 24176 24181 24180 24480 24481 24486 24485
8 24176 24177 24182 24181 24481 24482 24487 24486
8 24177 24178 24183 24182 24482 24483 24488 24487
8 24178 9687 9686 24183 24483 9626 9625 24488
8 3748 24179 24184 3749 3687 24484 24489 3688
8 24179 24180 24185 24184 24484 24485 24490 24489
8 24180 24181 24186 24185 24485 24486 24491 24490
8 24181 24182 24187 24186 24486 24487 24492 24491
8 24182 24183 24188 24187 24487 24488 24493 24492
8 24183 9686 9685 24188 24488 9625 9624 24493
8 3749 24184 24189 3750 3688 24489 24494 3689
8 24184 24185 24190 24189 24489 24490 24495 24494
8 24185 24186 24191 24190 24490 24491 24496 24495
8 24186 24187 24192 24191 24491 24492 24497 24496
8 24187 24188 24193 24192 24492 24493 24498 24497
8 24188 9685 9684 24193 24493 9624 9623 24498
8 3750 24189 24194 3751 3689 24494 24499 3690
8 24189 24190 24195 24194 24494 24495 24500 24499
8 24190 24191 24196 24195 24495 24496 24501 24500
8 24191 24192 24197 24196 24496 24497 24502 24501
8 24192 24193 24198 24197 24497 24498 24503 24502
8 24193 9684 9683 24198 24498 9623 9622 24503
8 3751 24194 24199 3752 3690 24499 24504 3691
8 24194 24195 24200 24199 24499 24500 24505 24504
8 24195 24196 24201 24200 24500 24501 24506 24505
8 24196 24197 24202 24201 24501 24502 24507 24506
8 24197 24198 24203 24202 24502 24503 24508 24507
8 24198 9683 9682 24203 24503 9622 9621 24508
8 3752 24199 24204 3753 3691 24504 24509 3692
8 24199 24200 24205 24204 24504 24505 24510 24509
8 24200 24201 24206 24205 24505 24506 24511 24510
8 24201 24202 24207 24206 24506 24507 24512 24511
8 24202 24203 24208 24207 24507 24508 24513 24512
8 24203 9682 9681 24208 24508 9621 9620 24513
8 3753 24204 24209 3754 3692 24509 24514 3693
8 24204 24205 24210 24209 24509 24510 24515 24514
8 24205 24206 24211 24210 24510 24511 24516 24515
8 24206 24207 24212 24211 24511 24512 24517 24516
8 24207 24208 24213 24212 24512 24513 24518 24517
8 24208 9681 9680 24213 24513 9620 9619 24518
8 3754 24209 24214 3755 3693 24514 24519 3694
8 24209 24210 24215 24214 24514 24515 24520 24519
8 24210 24211 24216 24215 24515 24516 24521 24520
8 24211 24212 24217 24216 24516 24517 24522 24521
8 24212 24213 24218 24217 24517 24518 24523 24522
8 24213 9680 9679 24218 24518 9619 9618 24523
8 24214 24215 24220 24219 24519 24520 24525 24524
8 24215 24216 24221 24220 24520 24521 24526 24525
8 24216 24217 24222 24221 24521 24522 24527 24526
8 24217 24218 24223 24222 24522 24523 24528 24527
8 24218 9679 9678 24223 24523 9618 9617 24528
8 24219 24220 24225 24224 24524 24525 24530 24529
8 24220 24221 24226 24225 24525 24526 24531 24530
8 24221 24222 24227 24226 24526 24527 24532 24531
8 24222 24223 24228 24227 24527 24528 24533 24532
8 24223 9678 9677 24228 24528 9617 9616 24533
8 24224 24225 24230 24229 24529 24530 24535 24534
8 24225 24226 24231 24230 24530 24531 24536 24535
8 24226 24227 24232 24231 24531 24532 24537 24536
8 24227 24228 24233 24232 24532 24533 24538 24537
8 24228 9677 9676 24233 24533 9616 9615 24538
8 24229 24230 24235 24234 24534 24535 24540 24539
8 24230 24231 24236 24235 24535 24536 24541 24540
8 24231 24232 24237 24236 24536 24537 24542 24541
8 24232 24233 24238 24237 24537 24538 24543 24542
8 24233 9676 9675 24238 24538 9615 9614 24543
8 24234 24235 24240 24239 24539 24540 24545 24544
8 24235 24236 24241 24240 24540 24541 24546 24545
8 24236 24237 24242 24241 24541 24542 24547 24546
8 24237 24238 24243 24242 24542 24543 24548 24547
8 24238 9675 9674 24243 24543 9614 9613 24548
8 24239 24240 24245 24244 24544 24545 24550 24549
8 24240 24241 24246 24245 24545 24546 24551 24550
8 24241 24242 24247 24246 24546 24547 24552 24551
8 24242 24243 24248 24247 24547 24548 24553 24552
8 24243 9674 9673 24248 24548 9613 9612 24553
8 24244 24245 24250 24249 24549 24550 24555 24554
8 24245 24246 24251 24250 24550 24551 24556 24555
8 24246 24247 24252 24251 24551 24552 24557 24556
8 24247 24248 24253 24252 24552 24553 24558 24557
8 24248 9673 9672 24253 24553 9612 9611 24558
8 3762 24249 24254 3763 3701 24554 24559 3702
8 24249 24250 24255 24254 24554 24555 24560 24559
8 24250 24251 24256 24255 24555 24556 24561 24560
8 24251 24252 24257 24256 24556 24557 24562 24561
8 24252 24253 24258 24257 24557 24558 24563 24562
8 24253 9672 9671 24258 24558 9611 9610 24563
8 3763 24254 24259 3764 3702 24559 24564 3703
8 24254 24255 24260 24259 24559 24560 24565 24564
8 24255 24256 24261 24260 24560 24561 24566 24565
8 24256 24257 24262 24261 24561 24562 24567 24566
8 24257 24258 24263 24262 24562 24563 24568 24567
8 24258 9671 9670 24263 24563 9610 9609 24568
8 3764 24259 24264 3765 3703 24564 24569 3704
8 24259 24260 24265 24264 24564 24565 24570 24569
8 24260 24261 24266 24265 24565 24566 24571 24570
8 24261 24262 24267 24266 24566 24567 24572 24571
8 24262 24263 24268 24267 24567 24568 24573 24572
8 24263 9670 9669 24268 24568 9609 9608 24573
8 3765 24264 24269 3766 3704 24569 24574 3705
8 24264 24265 24270 24269 24569 24570 24575 24574
8 24265 24266 24271 24270 24570 24571 24576 24575
8 24266 24267 24272 24271 24571 24572 24577 24576
8 24267 24268 24273 24272 24572 24573 24578 24577
8 24268 9669 9668 24273 24573 9608 9607 24578
8 3766 24269 24274 3767 3705 24574 24579 3706
8 24269 24270 24275 24274 24574 24575 24580 24579
8 24270 24271 24276 24275 24575 24576 24581 24580
8 24271 24272 24277 24276 24576 24577 24582 24581
8 24272 24273 24278 24277 24577 24578 24583 24582
8 24273 9668 9667 24278 24578 9607 9606 24583
8 3767 24274 24279 3768 3706 24579 24584 3707
8 24274 24275 24280 24279 24579 24580 24585 24584
8 24275 24276 24281 24280 24580 24581 24586 24585
8 24276 24277 24282 24281 24581 24582 24587 24586
8 24277 24278 24283 24282 24582 24583 24588 24587
8 24278 9667 9666 24283 24583 9606 9605 24588
8 3768 24279 24284 3769 3707 24584 24589 3708
8 24279 24280 24285 24284 24584 24585 24590 24589
8 24280 24281 24286 24285 24585 24586 24591 24590
8 24281 24282 24287 24286 24586 24587 24592 24591
8 24282 24283 24288 24287 24587 24588 24593 24592
8 24283 9666 9665 24288 24588 9605 9604 24593
8 3769 24284 24289 3770 3708 24589 24594 3709
8 24284 24285 24290 24289 24589 24590 24595 24594
8 24285 24286 24291 24290 24590 24591 24596 24595
8 24286 24287 24292 24291 24591 24592 24597 24596
8 24287 24288 24293 24292 24592 24593 24598 24597
8 24288 9665 9664 24293 24593 9604 9603 24598
8 3770 24289 24294 3771 3709 24594 24599 3710
8 24289 24290 24295 24294 24594 24595 24600 24599
8 24290 24291 24296 24295 24595 24596 24601 24600
8 24291 24292 24297 24296 24596 24597 24602 24601
8 24292 24293 24298 24297 24597 24598 24603 24602
8 24293 9664 9663 24298 24598 9603 9602 24603
8 24294 24295 24300 24299 24599 24600 24605 24604
8 24295 24296 24301 24300 24600 24601 24606 24605
8 24296 24297 24302 24301 24601 24602 24607 24606
8 24297 24298 24303 24302 24602 24603 24608 24607
8 24298 9663 9662 24303 24603 9602 9601 24608
8 24299 24300 24305 24304 24604 24605 24610 24609
8 24300 24301 24306 24305 24605 24606 24611 24610
8 24301 24302 24307 24306 24606 24607 24612 24611
8 24302 24303 24308 24307 24607 24608 24613 24612
8 24303 9662 9661 24308 24608 9601 9600 24613
8 24304 24305 24310 24309 24609 24610 24615 24614
8 24305 24306 24311 24310 24610 24611 24616 24615
8 24306 24307 24312 24311 24611 24612 24617 24616
8 24307 24308 24313 24312 24612 24613 24618 24617
8 24308 9661 9660 24313 24613 9600 9599 24618
8 24309 24310 24315 24314 24614 24615 24620 24619
8 24310 24311 24316 24315 24615 24616 24621 24620
8 24311 24312 24317 24316 24616 24617 24622 24621
8 24312 24313 24318 24317 24617 24618 24623 24622
8 24313 9660 9659 24318 24618 9599 9598 24623
8 24314 24315 24320 24319 24619 24620 24625 24624
8 24315 24316 24321 24320 24620 24621 24626 24625
8 24316 24317 24322 24321 24621 24622 24627 24626
8 24317 24318 24323 24322 24622 24623 24628 24627
8 24318 9659 9658 24323 24623 9598 9597 24628
8 24319 24320 24325 24324 24624 24625 24630 24629
8 24320 24321 24326 24325 24625 24626 24631 24630
8 24321 24322 24327 24326 24626 24627 24632 24631
8 24322 24323 24328 24327 24627 24628 24633 24632
8 24323 9658 9657 24328 24628 9597 9596 24633
8 3777 24324 24329 3778 3716 24629 24634 3717
8 24324 24325 24330 24329 24629 24630 24635 24634
8 24325 24326 24331 24330 24630 24631 24636 24635
8 24326 24327 24332 24331 24631 24632 24637 24636
8 24327 24328 24333 24332 24632 24633 24638 24637
8 24328 9657 9656 24333 24633 9596 9595 24638
8 3778 24329 24334 3779 3717 24634 24639 3718
8 24329 24330 24335 24334 24634 24635 24640 24639
8 24330 24331 24336 24335 24635 24636 24641 24640
8 24331 24332 24337 24336 24636 24637 24642 24641
8 24332 24333 24338 24337 24637 24638 24643 24642
8 24333 9656 9655 24338 24638 9595 9594 24643
8 3779 24334 24339 3780 3718 24639 24644 3719
8 24334 24335 24340 24339 24639 24640 24645 24644
8 24335 24336 24341 24340 24640 24641 24646 24645
8 24336 24337 24342 24341 24641 24642 24647 24646
8 24337 24338 24343 24342 24642 24643 24648 24647
8 24338 9655 9654 24343 24643 9594 9593 24648
8 3780 24339 24344 3781 3719 24644 24649 3720
8 24339 24340 24345 24344 24644 24645 24650 24649
8 24340 24341 24346 24345 24645 24646 24651 24650
8 24341 24342 24347 24346 24646 24647 24652 24651
8 24342 24343 24348 24347 24647 24648 24653 24652
8 24343 9654 9653 24348 24648 9593 9592 24653
8 3781 24344 24349 3782 3720 24649 24654 3721
8 24344 24345 24350 24349 24649 24650 24655 24654
8 24345 24346 24351 24350 24650 24651 24656 24655
8 24346 24347 24352 24351 24651 24652 24657 24656
8 24347 24348 24353 24352 24652 24653 24658 24657
8 24348 9653 9652 24353 24653 9592 9591 24658
8 3782 24349 24354 3783 3721 24654 24659 3722
8 24349 24350 24355 24354 24654 24655 24660 24659
8 24350 24351 24356 24355 24655 24656 24661 24660
8 24351 24352 24357 24356 24656 24657 24662 24661
8 24352 24353 24358 24357 24657 24658 24663 24662
8 24353 9652 9651 24358 24658 9591 9590 24663
8 3783 24354 24359 3784 3722 24659 24664 3723
8 24354 24355 24360 24359 24659 24660 24665 24664
8 24355 24356 24361 24360 24660 24661 24666 24665
8 24356 24357 24362 24361 24661 24662 24667 24666
8 24357 24358 24363 24362 24662 24663 24668 24667
8 24358 9651 9650 24363 24663 9590 9589 24668
8 3784 24359 24364 3785 3723 24664 24669 3724
8 24359 24360 24365 24364 24664 24665 24670 24669
8 24360 24361 24366 24365 24665 24666 24671 24670
8 24361 24362 24367 24366 24666 24667 24672 24671
8 24362 24363 24368 24367 24667 24668 24673 24672
8 24363 9650 9649 24368 24668 9589 9588 24673
8 3785 24364 24369 3786 3724 24669 24674 3725
8 24364 24365 24370 24369 24669 24670 24675 24674
8 24365 24366 24371 24370 24670 24671 24676 24675
8 24366 24367 24372 24371 24671 24672 24677 24676
8 24367 24368 24373 24372 24672 24673 24678 24677
8 24368 9649 9648 24373 24673 9588 9587 24678
8 3786 24369 12909 120 3725 24674 12904 119
8 24369 24370 12910 12909 24674 24675 12905 12904
8 24370 24371 12911 12910 24675 24676 12906 12905
8 24371 24372 12912 12911 24676 24677 12907 12906
8 24372 24373 12913 12912 24677 24678 12908 12907
8 24373 9648 6175 12913 24678 9587 6176 12908
8 254 12034 24374 3665 255 12039 24679 3604
8 12034 12035 24375 24374 12039 12040 24680 24679
8 12035 12036 24376 24375 12040 12041 24681 24680
8 12036 12037 24377 24376 12041 12042 24682 24681
8 12037 12038 24378 24377 12042 12043 24683 24682
8 12038 6041 9647 24378 12043 6040 9586 24683
8 3665 24374 24379 3666 3604 24679 24684 3605
8 24374 24375 24380 24379 24679 24680 24685 24684
8 24375 24376 24381 24380 24680 24681 24686 24685
8 24376 24377 24382 24381 24681 24682 24687 24686
8 24377 24378 24383 24382 24682 24683 24688 24687
8 24378 9647 9646 24383 24683 9586 9585 24688
8 3666 24379 24384 3667 3605 24684 24689 3606
8 24379 24380 24385 24384 24684 24685 24690 24689
8 24380 24381 24386 24385 24685 24686 24691 24690
8 24381 24382 24387 24386 24686 24687 24692 24691
8 24382 24383 24388 24387 24687 24688 24693 24692
8 24383 9646 9645 24388 24688 9585 9584 24693
8 3667 24384 24389 3668 3606 24689 24694 3607
8 24384 24385 24390 24389 24689 24690 24695 24694
8 24385 24386 24391 24390 24690 24691 24696 24695
8 24386 24387 24392 24391 24691 24692 24697 24696
8 24387 24388 24393 24392 24692 24693 24698 24697
8 24388 9645 9644 24393 24693 9584 9583 24698
8 3668 24389 24394 3669 3607 24694 24699 3608
8 24389 24390 24395 24394 24694 24695 24700 24699
8 24390 24391 24396 24395 24695 24696 24701 24700
8 24391 24392 24397 24396 24696 24697 24702 24701
8 24392 24393 24398 24397 24697 24698 24703 24702
8 24393 9644 9643 24398 24698 9583 9582 24703
8 3669 24394 24399 3670 3608 24699 24704 3609
8 24394 24395 24400 24399 24699 24700 24705 24704
8 24395 24396 24401 24400 24700 24701 24706 24705
8 24396 24397 24402 24401 24701 24702 24707 24706
8 24397 24398 24403 24402 24702 24703 24708 24707
8 24398 9643 9642 24403 24703 9582 9581 24708
8 3670 24399 24404 3671 3609 24704 24709 3610
8 24399 24400 24405 24404 24704 24705 24710 24709
8 24400 24401 24406 24405 24705 24706 24711 24710
8 24401 24402 24407 24406 24706 24707 24712 24711
8 24402 24403 24408 24407 24707 24708 24713 24712
8 24403 9642 9641 24408 24708 9581 9580 24713
8 3671 24404 24409 3672 3610 24709 24714 3611
8 24404 24405 24410 24409 24709 24710 24715 24714
8 24405 24406 24411 24410 24710 24711 24716 24715
8 24406 24407 24412 24411 24711 24712 24717 24716
8 24407 24408 24413 24412 24712 24713 24718 24717
8 24408 9641 9640 24413 24713 9580 9579 24718
8 3672 24409 24414 3673 3611 24714 24719 3612
8 24409 24410 24415 24414 24714 24715 24720 24719
8 24410 24411 24416 24415 24715 24716 24721 24720
8 24411 24412 24417 24416 24716 24717 24722 24721
8 24412 24413 24418 24417 24717 24718 24723 24722
8 24413 9640 9639 24418 24718 9579 9578 24723
8 3673 24414 24419 3674 3612 24719 24724 3613
8 24414 24415 24420 24419 24719 24720 24725 24724
8 24415 24416 24421 24420 24720 24721 24726 24725
8 24416 24417 24422 24421 24721 24722 24727 24726
8 24417 24418 24423 24422 24722 24723 24728 24727
8 24418 9639 9638 24423 24723 9578 9577 24728
8 3674 24419 24424 3675 3613 24724 24729 3614
8 24419 24420 24425 24424 24724 24725 24730 24729
8 24420 24421 24426 24425 24725 24726 24731 24730
8 24421 24422 24427 24426 24726 24727 24732 24731
8 24422 24423 24428 24427 24727 24728 24733 24732
8 24423 9638 9637 24428 24728 9577 9576 24733
8 3675 24424 24429 3676 3614 24729 24734 3615
8 24424 24425 24430 24429 24729 24730 24735 24734
8 24425 24426 24431 24430 24730 24731 24736 24735
8 24426 24427 24432 24431 24731 24732 24737 24736
8 24427 24428 24433 24432 24732 24733 24738 24737
8 24428 9637 9636 24433 24733 9576 9575 24738
8 3676 24429 24434 3677 3615 24734 24739 3616
8 24429 24430 24435 24434 24734 24735 24740 24739
8 24430 24431 24436 24435 24735 24736 24741 24740
8 24431 24432 24437 24436 24736 24737 24742 24741
8 24432 24433 24438 24437 24737 24738 24743 24742
8 24433 9636 9635 24438 24738 9575 9574 24743
8 3677 24434 24439 3678 3616 24739 24744 3617
8 24434 24435 24440 24439 24739 24740 24745 24744
8 24435 24436 24441 24440 24740 24741 24746 24745
8 24436 24437 24442 24441 24741 24742 24747 24746
8 24437 24438 24443 24442 24742 24743 24748 24747
8 24438 9635 9634 24443 24743 9574 9573 24748
8 3678 24439 24444 3679 3617 24744 24749 3618
8 24439 24440 24445 24444 24744 24745 24750 24749
8 24440 24441 24446 24445 24745 24746 24751 24750
8 24441 24442 24447 24446 24746 24747 24752 24751
8 24442 24443 24448 24447 24747 24748 24753 24752
8 24443 9634 9633 24448 24748 9573 9572 24753
8 3679 24444 24449 3680 3618 24749 24754 3619
8 24444 24445 24450 24449 24749 24750 24755 24754
8 24445 24446 24451 24450 24750 24751 24756 24755
8 24446 24447 24452 24451 24751 24752 24757 24756
8 24447 24448 24453 24452 24752 24753 24758 24757
8 24448 9633 9632 24453 24753 9572 9571 24758
8 3680 24449 24454 3681 3619 24754 24759 3620
8 24449 24450 24455 24454 24754 24755 24760 24759
8 24450 24451 24456 24455 24755 24756 24761 24760
8 24451 24452 24457 24456 24756 24757 24762 24761
8 24452 24453 24458 24457 24757 24758 24763 24762
8 24453 9632 9631 24458 24758 9571 9570 24763
8 3681 24454 24459 3682 3620 24759 24764 3621
8 24454 24455 24460 24459 24759 24760 24765 24764
8 24455 24456 24461 24460 24760 24761 24766 24765
8 24456 24457 24462 24461 24761 24762 24767 24766
8 24457 24458 24463 24462 24762 24763 24768 24767
8 24458 9631 9630 24463 24763 9570 9569 24768
8 3682 24459 24464 3683 3621 24764 24769 3622
8 24459 24460 24465 24464 24764 24765 24770 24769
8 24460 24461 24466 24465 24765 24766 24771 24770
8 24461 24462 24467 24466 24766 24767 24772 24771
8 24462 24463 24468 24467 24767 24768 24773 24772
8 24463 9630 9629 24468 24768 9569 9568 24773
8 3683 24464 24469 3684 3622 24769 24774 3623
8 24464 24465 24470 24469 24769 24770 24775 24774
8 24465 24466 24471 24470 24770 24771 24776 24775
8 24466 24467 24472 24471 24771 24772 24777 24776
8 24467 24468 24473 24472 24772 24773 24778 24777
8 24468 9629 9628 24473 24773 9568 9567 24778
8 3684 24469 24474 3685 3623 24774 24779 3624
8 24469 24470 24475 24474 24774 24775 24780 24779
8 24470 24471 24476 24475 24775 24776 24781 24780
8 24471 24472 24477 24476 24776 24777 24782 24781
8 24472 24473 24478 24477 24777 24778 24783 24782
8 24473 9628 9627 24478 24778 9567 9566 24783
8 24474 24475 24480 24479 24779 24780 24785 24784
8 24475 24476 24481 24480 24780 24781 24786 24785
8 24476 24477 24482 24481 24781 24782 24787 24786
8 24477 24478 24483 24482 24782 24783 24788 24787
8 24478 9627 9626 24483 24783 9566 9565 24788
8 24479 24480 24485 24484 24784 24785 24790 24789
8 24480 24481 24486 24485 24785 24786 24791 24790
8 24481 24482 24487 24486 24786 24787 24792 24791
8 24482 24483 24488 24487 24787 24788 24793 24792
8 24483 9626 9625 24488 24788 9565 9564 24793
8 3687 24484 24489 3688 3626 24789 24794 3627
8 24484 24485 24490 24489 24789 24790 24795 24794
8 24485 24486 24491 24490 24790 24791 24796 24795
8 24486 24487 24492 24491 24791 24792 24797 24796
8 24487 24488 24493 24492 24792 24793 24798 24797
8 24488 9625 9624 24493 24793 9564 9563 24798
8 3688 24489 24494 3689 3627 24794 24799 3628
8 24489 24490 24495 24494 24794 24795 24800 24799
8 24490 24491 24496 24495 24795 24796 24801 24800
8 24491 24492 24497 24496 24796 24797 24802 24801
8 24492 24493 24498 24497 24797 24798 24803 24802
8 24493 9624 9623 24498 24798 9563 9562 24803
8 3689 24494 24499 3690 3628 24799 24804 3629
8 24494 24495 24500 24499 24799 24800 24805 24804
8 24495 24496 24501 24500 24800 24801 24806 24805
8 24496 24497 24502 24501 24801 24802 24807 24806
8 24497 24498 24503 24502 24802 24803 24808 24807
8 24498 9623 9622 24503 24803 9562 9561 24808
8 3690 24499 24504 3691 3629 24804 24809 3630
8 24499 24500 24505 24504 24804 24805 24810 24809
8 24500 24501 24506 24505 24805 24806 24811 24810
8 24501 24502 24507 24506 24806 24807 24812 24811
8 24502 24503 24508 24507 24807 24808 24813 24812
8 24503 9622 9621 24508 24808 9561 9560 24813
8 3691 24504 24509 3692 3630 24809 24814 3631
8 24504 24505 24510 24509 24809 24810 24815 24814
8 24505 24506 24511 24510 24810 24811 24816 24815
8 24506 24507 24512 24511 24811 24812 24817 24816
8 24507 24508 24513 24512 24812 24813 24818 24817
8 24508 9621 9620 24513 24813 9560 9559 24818
8 3692 24509 24514 3693 3631 24814 24819 3632
8 24509 24510 24515 24514 24814 24815 24820 24819
8 24510 24511 24516 24515 24815 24816 24821 24820
8 24511 24512 24517 24516 24816 24817 24822 24821
8 24512 24513 24518 24517 24817 24818 24823 24822
8 24513 9620 9619 24518 24818 9559 9558 24823
8 3693 24514 24519 3694 3632 24819 24824 3633
8 24514 24515 24520 24519 24819 24820 24825 24824
8 24515 24516 24521 24520 24820 24821 24826 24825
8 24516 24517 24522 24521 24821 24822 24827 24826
8 24517 24518 24523 24522 24822 24823 24828 24827
8 24518 9619 9618 24523 24823 9558 9557 24828
8 24519 24520 24525 24524 24824 24825 24830 24829
8 24520 24521 24526 24525 24825 24826 24831 24830
8 24521 24522 24527 24526 24826 24827 24832 24831
8 24522 24523 24528 24527 24827 24828 24833 24832
8 24523 9618 9617 24528 24828 9557 9556 24833
8 24524 24525 24530 24529 24829 24830 24835 24834
8 24525 24526 24531 24530 24830 24831 24836 24835
8 24526 24527 24532 24531 24831 24832 24837 24836
8 24527 24528 24533 24532 24832 24833 24838 24837
8 24528 9617 9616 24533 24833 9556 9555 24838
8 24529 24530 24535 24534 24834 24835 24840 24839
8 24530 24531 24536 24535 24835 24836 24841 24840
8 24531 24532 24537 24536 24836 24837 24842 24841
8 24532 24533 24538 24537 24837 24838 24843 24842
8 24533 9616 9615 24538 24838 9555 9554 24843
8 24534 24535 24540 24539 24839 24840 24845 24844
8 24535 24536 24541 24540 24840 24841 24846 24845
8 24536 24537 24542 24541 24841 24842 24847 24846
8 24537 24538 24543 24542 24842 24843 24848 24847
8 24538 9615 9614 24543 24843 9554 9553 24848
8 24539 24540 24545 24544 24844 24845 24850 24849
8 24540 24541 24546 24545 24845 24846 24851 24850
8 24541 24542 24547 24546 24846 24847 24852 24851
8 24542 24543 24548 24547 24847 24848 24853 24852
8 24543 9614 9613 24548 24848 9553 9552 24853
8 24544 24545 24550 24549 24849 24850 24855 24854
8 24545 24546 24551 24550 24850 24851 24856 24855
8 24546 24547 24552 24551 24851 24852 24857 24856
8 24547 24548 24553 24552 24852 24853 24858 24857
8 24548 9613 9612 24553 24853 9552 9551 24858
8 24549 24550 24555 24554 24854 24855 24860 24859
8 24550 24551 24556 24555 24855 24856 24861 24860
8 24551 24552 24557 24556 24856 24857 24862 24861
8 24552 24553 24558 24557 24857 24858 24863 24862
8 24553 9612 9611 24558 24858 9551 9550 24863
8 3701 24554 24559 3702 3640 24859 24864 3641
8 24554 24555 24560 24559 24859 24860 24865 24864
8 24555 24556 24561 24560 24860 24861 24866 24865
8 24556 24557 24562 24561 24861 24862 24867 24866
8 24557 24558 24563 24562 24862 24863 24868 24867
8 24558 9611 9610 24563 24863 9550 9549 24868
8 3702 24559 24564 3703 3641 24864 24869 3642
8 24559 24560 24565 24564 24864 24865 24870 24869
8 24560 24561 24566 24565 24865 24866 24871 24870
8 24561 24562 24567 24566 24866 24867 24872 24871
8 24562 24563 24568 24567 24867 24868 24873 24872
8 24563 9610 9609 24568 24868 9549 9548 24873
8 3703 24564 24569 3704 3642 24869 24874 3643
8 24564 24565 24570 24569 24869 24870 24875 24874
8 24565 24566 24571 24570 24870 24871 24876 24875
8 24566 24567 24572 24571 24871 24872 24877 24876
8 24567 24568 24573 24572 24872 24873 24878 24877
8 24568 9609 9608 24573 24873 9548 9547 24878
8 3704 24569 24574 3705 3643 24874 24879 3644
8 24569 24570 24575 24574 24874 24875 24880 24879
8 24570 24571 24576 24575 24875 24876 24881 24880
8 24571 24572 24577 24576 24876 24877 24882 24881
8 24572 24573 24578 24577 24877 24878 24883 24882
8 24573 9608 9607 24578 24878 9547 9546 24883
8 3705 24574 24579 3706 3644 24879 24884 3645
8 24574 24575 24580 24579 24879 24880 24885 24884
8 24575 24576 24581 24580 24880 24881 24886 24885
8 24576 24577 24582 24581 24881 24882 24887 24886
8 24577 24578 24583 24582 24882 24883 24888 24887
8 24578 9607 9606 24583 24883 9546 9545 24888
8 3706 24579 24584 3707 3645 24884 24889 3646
8 24579 24580 24585 24584 24884 24885 24890 24889
8 24580 24581 24586 24585 24885 24886 24891 24890
8 24581 24582 24587 24586 24886 24887 24892 24891
8 24582 24583 24588 24587 24887 24888 24893 24892
8 24583 9606 9605 24588 24888 9545 9544 24893
8 3707 24584 24589 3708 3646 24889 24894 3647
8 24584 24585 24590 24589 24889 24890 24895 24894
8 24585 24586 24591 24590 24890 24891 24896 24895
8 24586 24587 24592 24591 24891 24892 24897 24896
8 24587 24588 24593 24592 24892 24893 24898 24897
8 24588 9605 9604 24593 24893 9544 9543 24898
8 3708 24589 24594 3709 3647 24894 24899 3648
8 24589 24590 24595 24594 24894 24895 24900 24899
8 24590 24591 24596 24595 24895 24896 24901 24900
8 24591 24592 24597 24596 24896 24897 24902 24901
8 24592 24593 24598 24597 24897 24898 24903 24902
8 24593 9604 9603 24598 24898 9543 9542 24903
8 3709 24594 24599 3710 3648 24899 24904 3649
8 24594 24595 24600 24599 24899 24900 24905 24904
8 24595 24596 24601 24600 24900 24901 24906 24905
8 24596 24597 24602 24601 24901 24902 24907 24906
8 24597 24598 24603 24602 24902 24903 24908 24907
8 24598 9603 9602 24603 24903 9542 9541 24908
8 24599 24600 24605 24604 24904 24905 24910 24909
8 24600 24601 24606 24605 24905 24906 24911 24910
8 24601 24602 24607 24606 24906 24907 24912 24911
8 24602 24603 24608 24607 24907 24908 24913 24912
8 24603 9602 9601 24608 24908 9541 9540 24913
8 24604 24605 24610 24609 24909 24910 24915 24914
8 24605 24606 24611 24610 24910 24911 24916 24915
8 24606 24607 24612 24611 24911 24912 24917 24916
8 24607 24608 24613 24612 24912 24913 24918 24917
8 24608 9601 9600 24613 24913 9540 9539 24918
8 24609 24610 24615 24614 24914 24915 24920 24919
8 24610 24611 24616 24615 24915 24916 24921 24920
8 24611 24612 24617 24616 24916 24917 24922 24921
8 24612 24613 24618 24617 24917 24918 24923 24922
8 24613 9600 9599 24618 24918 9539 9538 24923
8 24614 24615 24620 24619 24919 24920 24925 24924
8 24615 24616 24621 24620 24920 24921 24926 24925
8 24616 24617 24622 24621 24921 24922 24927 24926
8 24617 24618 24623 24622 24922 24923 24928 24927
8 24618 9599 9598 24623 24923 9538 9537 24928
8 24619 24620 24625 24624 24924 24925 24930 24929
8 24620 24621 24626 24625 24925 24926 24931 24930
8 24621 24622 24627 24626 24926 24927 24932 24931
8 24622 24623 24628 24627 24927 24928 24933 24932
8 24623 9598 9597 24628 24928 9537 9536 24933
8 24624 24625 24630 24629 24929 24930 24935 24934
8 24625 24626 24631 24630 24930 24931 24936 24935
8 24626 24627 24632 24631 24931 24932 24937 24936
8 24627 24628 24633 24632 24932 24933 24938 24937
8 24628 9597 9596 24633 24933 9536 9535 24938
8 3716 24629 24634 3717 3655 24934 24939 3656
8 24629 24630 24635 24634 24934 24935 24940 24939
8 24630 24631 24636 24635 24935 24936 24941 24940
8 24631 24632 24637 24636 24936 24937 24942 24941
8 24632 24633 24638 24637 24937 24938 24943 24942
8 24633 9596 9595 24638 24938 9535 9534 24943
8 3717 24634 24639 3718 3656 24939 24944 3657
8 24634 24635 24640 24639 24939 24940 24945 24944
8 24635 24636 24641 24640 24940 24941 24946 24945
8 24636 24637 24642 24641 24941 24942 24947 24946
8 24637 24638 24643 24642 24942 24943 24948 24947
8 24638 9595 9594 24643 24943 9534 9533 24948
8 3718 24639 24644 3719 3657 24944 24949 3658
8 24639 24640 24645 24644 24944 24945 24950 24949
8 24640 24641 24646 24645 24945 24946 24951 24950
8 24641 24642 24647 24646 24946 24947 24952 24951
8 24642 24643 24648 24647 24947 24948 24953 24952
8 24643 9594 9593 24648 24948 9533 9532 24953
8 3719 24644 24649 3720 3658 24949 24954 3659
8 24644 24645 24650 24649 24949 24950 24955 24954
8 24645 24646 24651 24650 24950 24951 24956 24955
8 24646 24647 24652 24651 24951 24952 24957 24956
8 24647 24648 24653 24652 24952 24953 24958 24957
8 24648 9593 9592 24653 24953 9532 9531 24958
8 3720 24649 24654 3721 3659 24954 24959 3660
8 24649 24650 24655 24654 24954 24955 24960 24959
8 24650 24651 24656 24655 24955 24956 24961 24960
8 24651 24652 24657 24656 24956 24957 24962 24961
8 24652 24653 24658 24657 24957 24958 24963 24962
8 24653 9592 9591 24658 24958 9531 9530 24963
8 3721 24654 24659 3722 3660 24959 24964 3661
8 24654 24655 24660 24659 24959 24960 24965 24964
8 24655 24656 24661 24660 24960 24961 24966 24965
8 24656 24657 24662 24661 24961 24962 24967 24966
8 24657 24658 24663 24662 24962 24963 24968 24967
8 24658 9591 9590 24663 24963 9530 9529 24968
8 3722 24659 24664 3723 3661 24964 24969 3662
8 24659 24660 24665 24664 24964 24965 24970 24969
8 24660 24661 24666 24665 24965 24966 24971 24970
8 24661 24662 24667 24666 24966 24967 24972 24971
8 24662 24663 24668 24667 24967 24968 24973 24972
8 24663 9590 9589 24668 24968 9529 9528 24973
8 3723 24664 24669 3724 3662 24969 24974 3663
8 24664 24665 24670 24669 24969 24970 24975 24974
8 24665 24666 24671 24670 24970 24971 24976 24975
8 24666 24667 24672 24671 24971 24972 24977 24976
8 24667 24668 24673 24672 24972 24973 24978 24977
8 24668 9589 9588 24673 24973 9528 9527 24978
8 3724 24669 24674 3725 3663 24974 24979 3664
8 24669 24670 24675 24674 24974 24975 24980 24979
8 24670 24671 24676 24675 24975 24976 24981 24980
8 24671 24672 24677 24676 24976 24977 24982 24981
8 24672 24673 24678 24677 24977 24978 24983 24982
8 24673 9588 9587 24678 24978 9527 9526 24983
8 3725 24674 12904 119 3664 24979 12899 118
8 24674 24675 12905 12904 24979 24980 12900 12899
8 24675 24676 12906 12905 24980 24981 12901 12900
8 24676 24677 12907 12906 24981 24982 12902 12901
8 24677 24678 12908 12907 24982 24983 12903 12902
8 24678 9587 6176 12908 24983 9526 6177 12903
8 255 12039 24679 3604 256 12044 24984 3543
8 12039 12040 24680 24679 12044 12045 24985 24984
8 12040 12041 24681 24680 12045 12046 24986 24985
8 12041 12042 24682 24681 12046 12047 24987 24986
8 12042 12043 24683 24682 12047 12048 24988 24987
8 12043 6040 9586 24683 12048 6039 9525 24988
8 3604 24679 24684 3605 3543 24984 24989 3544
8 24679 24680 24685 24684 24984 24985 24990 24989
8 24680 24681 24686 24685 24985 24986 24991 24990
8 24681 24682 24687 24686 24986 24987 24992 24991
8 24682 24683 24688 24687 24987 24988 24993 24992
8 24683 9586 9585 24688 24988 9525 9524 24993
8 3605 24684 24689 3606 3544 24989 24994 3545
8 24684 24685 24690 24689 24989 24990 24995 24994
8 24685 24686 24691 24690 24990 24991 24996 24995
8 24686 24687 24692 24691 24991 24992 24997 24996
8 24687 24688 24693 24692 24992 24993 24998 24997
8 24688 9585 9584 24693 24993 9524 9523 24998
8 3606 24689 24694 3607 3545 24994 24999 3546
8 24689 24690 24695 24694 24994 24995 25000 24999
8 24690 24691 24696 24695 24995 24996 25001 25000
8 24691 24692 24697 24696 24996 24997 25002 25001
8 24692 24693 24698 24697 24997 24998 25003 25002
8 24693 9584 9583 24698 24998 9523 9522 25003
8 3607 24694 24699 3608 3546 24999 25004 3547
8 24694 24695 24700 24699 24999 25000 25005 25004
8 24695 24696 24701 24700 25000 25001 25006 25005
8 24696 24697 24702 24701 25001 25002 25007 25006
8 24697 24698 24703 24702 25002 25003 25008 25007
8 24698 9583 9582 24703 25003 9522 9521 25008
8 3608 24699 24704 3609 3547 25004 25009 3548
8 24699 24700 24705 24704 25004 25005 25010 25009
8 24700 24701 24706 24705 25005 25006 25011 25010
8 24701 24702 24707 24706 25006 25007 25012 25011
8 24702 24703 24708 24707 25007 25008 25013 25012
8 24703 9582 9581 24708 25008 9521 9520 25013
8 3609 24704 24709 3610 3548 25009 25014 3549
8 24704 24705 24710 24709 25009 25010 25015 25014
8 24705 24706 24711 24710 25010 25011 25016 25015
8 24706 24707 24712 24711 25011 25012 25017 25016
8 24707 24708 24713 24712 25012 25013 25018 25017
8 24708 9581 9580 24713 25013 9520 9519 25018
8 3610 24709 24714 3611 3549 25014 25019 3550
8 24709 24710 24715 24714 25014 25015 25020 25019
8 24710 24711 24716 24715 25015 25016 25021 25020
8 24711 24712 24717 24716 25016 25017 25022 25021
8 24712 24713 24718 24717 25017 25018 25023 25022
8 24713 9580 9579 24718 25018 9519 9518 25023
8 3611 24714 24719 3612 3550 25019 25024 3551
8 24714 24715 24720 24719 25019 25020 25025 25024
8 24715 24716 24721 24720 25020 25021 25026 25025
8 24716 24717 24722 24721 25021 25022 25027 25026
8 24717 24718 24723 24722 25022 25023 25028 25027
8 24718 9579 9578 24723 25023 9518 9517 25028
8 3612 24719 24724 3613 3551 25024 25029 3552
8 24719 24720 24725 24724 25024 25025 25030 25029
8 24720 24721 24726 24725 25025 25026 25031 25030
8 24721 24722 24727 24726 25026 25027 25032 25031
8 24722 24723 24728 24727 25027 25028 25033 25032
8 24723 9578 9577 24728 25028 9517 9516 25033
8 3613 24724 24729 3614 3552 25029 25034 3553
8 24724 24725 24730 24729 25029 25030 25035 25034
8 24725 24726 24731 24730 25030 25031 25036 25035
8 24726 24727 24732 24731 25031 25032 25037 25036
8 24727 24728 24733 24732 25032 25033 25038 25037
8 24728 9577 9576 24733 25033 9516 9515 25038
8 3614 24729 24734 3615 3553 25034 25039 3554
8 24729 24730 24735 24734 25034 25035 25040 25039
8 24730 24731 24736 24735 25035 25036 25041 25040
8 24731 24732 24737 24736 25036 25037 25042 25041
8 24732 24733 24738 24737 25037 25038 25043 25042
8 24733 9576 9575 24738 25038 9515 9514 25043
8 3615 24734 24739 3616 3554 25039 25044 3555
8 24734 24735 24740 24739 25039 25040 25045 25044
8 24735 24736 24741 24740 25040 25041 25046 25045
8 24736 24737 24742 24741 25041 25042 25047 25046
8 24737 24738 24743 24742 25042 25043 25048 25047
8 24738 9575 9574 24743 25043 9514 9513 25048
8 3616 24739 24744 3617 3555 25044 25049 3556
8 24739 24740 24745 24744 25044 25045 25050 25049
8 24740 24741 24746 24745 25045 25046 25051 25050
8 24741 24742 24747 24746 25046 25047 25052 25051
8 24742 24743 24748 24747 25047 25048 25053 25052
8 24743 9574 9573 24748 25048 9513 9512 25053
8 3617 24744 24749 3618 3556 25049 25054 3557
8 24744 24745 24750 24749 25049 25050 25055 25054
8 24745 24746 24751 24750 25050 25051 25056 25055
8 24746 24747 24752 24751 25051 25052 25057 25056
8 24747 24748 24753 24752 25052 25053 25058 25057
8 24748 9573 9572 24753 25053 9512 9511 25058
8 3618 24749 24754 3619 3557 25054 25059 3558
8 24749 24750 24755 24754 25054 25055 25060 25059
8 24750 24751 24756 24755 25055 25056 25061 25060
8 24751 24752 24757 24756 25056 25057 25062 25061
8 24752 24753 24758 24757 25057 25058 25063 25062
8 24753 9572 9571 24758 25058 9511 9510 25063
8 3619 24754 24759 3620 3558 25059 25064 3559
8 24754 24755 24760 24759 25059 25060 25065 25064
8 24755 24756 24761 24760 25060 25061 25066 25065
8 24756 24757 24762 24761 25061 25062 25067 25066
8 24757 24758 24763 24762 25062 25063 25068 25067
8 24758 9571 9570 24763 25063 9510 9509 25068
8 3620 24759 24764 3621 3559 25064 25069 3560
8 24759 24760 24765 24764 25064 25065 25070 25069
8 24760 24761 24766 24765 25065 25066 25071 25070
8 24761 24762 24767 24766 25066 25067 25072 25071
8 24762 24763 24768 24767 25067 25068 25073 25072
8 24763 9570 9569 24768 25068 9509 9508 25073
8 3621 24764 24769 3622 3560 25069 25074 3561
8 24764 24765 24770 24769 25069 25070 25075 25074
8 24765 24766 24771 24770 25070 25071 25076 25075
8 24766 24767 24772 24771 25071 25072 25077 25076
8 24767 24768 24773 24772 25072 25073 25078 25077
8 24768 9569 9568 24773 25073 9508 9507 25078
8 3622 24769 24774 3623 3561 25074 25079 3562
8 24769 24770 24775 24774 25074 25075 25080 25079
8 24770 24771 24776 24775 25075 25076 25081 25080
8 24771 24772 24777 24776 25076 25077 25082 25081
8 24772 24773 24778 24777 25077 25078 25083 25082
8 24773 9568 9567 24778 25078 9507 9506 25083
8 3623 24774 24779 3624 3562 25079 25084 3563
8 24774 24775 24780 24779 25079 25080 25085 25084
8 24775 24776 24781 24780 25080 25081 25086 25085
8 24776 24777 24782 24781 25081 25082 25087 25086
8 24777 24778 24783 24782 25082 25083 25088 25087
8 24778 9567 9566 24783 25083 9506 9505 25088
8 24779 24780 24785 24784 25084 25085 25090 25089
8 24780 24781 24786 24785 25085 25086 25091 25090
8 24781 24782 24787 24786 25086 25087 25092 25091
8 24782 24783 24788 24787 25087 25088 25093 25092
8 24783 9566 9565 24788 25088 9505 9504 25093
8 24784 24785 24790 24789 25089 25090 25095 25094
8 24785 24786 24791 24790 25090 25091 25096 25095
8 24786 24787 24792 24791 25091 25092 25097 25096
8 24787 24788 24793 24792 25092 25093 25098 25097
8 24788 9565 9564 24793 25093 9504 9503 25098
8 3626 24789 24794 3627 3565 25094 25099 3566
8 24789 24790 24795 24794 25094 25095 25100 25099
8 24790 24791 24796 24795 25095 25096 25101 25100
8 24791 24792 24797 24796 25096 25097 25102 25101
8 24792 24793 24798 24797 25097 25098 25103 25102
8 24793 9564 9563 24798 25098 9503 9502 25103
8 3627 24794 24799 3628 3566 25099 25104 3567
8 24794 24795 24800 24799 25099 25100 25105 25104
8 24795 24796 24801 24800 25100 25101 25106 25105
8 24796 24797 24802 24801 25101 25102 25107 25106
8 24797 24798 24803 24802 25102 25103 25108 25107
8 24798 9563 9562 24803 25103 9502 9501 25108
8 3628 24799 24804 3629 3567 25104 25109 3568
8 24799 24800 24805 24804 25104 25105 25110 25109
8 24800 24801 24806 24805 25105 25106 25111 25110
8 24801 24802 24807 24806 25106 25107 25112 25111
8 24802 24803 24808 24807 25107 25108 25113 25112
8 24803 9562 9561 24808 25108 9501 9500 25113
8 3629 24804 24809 3630 3568 25109 25114 3569
8 24804 24805 24810 24809 25109 25110 25115 25114
8 24805 24806 24811 24810 25110 25111 25116 25115
8 24806 24807 24812 24811 25111 25112 25117 25116
8 24807 24808 24813 24812 25112 25113 25118 25117
8 24808 9561 9560 24813 25113 9500 9499 25118
8 3630 24809 24814 3631 3569 25114 25119 3570
8 24809 24810 24815 24814 25114 25115 25120 25119
8 24810 24811 24816 24815 25115 25116 25121 25120
8 24811 24812 24817 24816 25116 25117 25122 25121
8 24812 24813 24818 24817 25117 25118 25123 25122
8 24813 9560 9559 24818 25118 9499 9498 25123
8 3631 24814 24819 3632 3570 25119 25124 3571
8 24814 24815 24820 24819 25119 25120 25125 25124
8 24815 24816 24821 24820 25120 25121 25126 25125
8 24816 24817 24822 24821 25121 25122 25127 25126
8 24817 24818 24823 24822 25122 25123 25128 25127
8 24818 9559 9558 24823 25123 9498 9497 25128
8 3632 24819 24824 3633 3571 25124 25129 3572
8 24819 24820 24825 24824 25124 25125 25130 25129
8 24820 24821 24826 24825 25125 25126 25131 25130
8 24821 24822 24827 24826 25126 25127 25132 25131
8 24822 24823 24828 24827 25127 25128 25133 25132
8 24823 9558 9557 24828 25128 9497 9496 25133
8 24824 24825 24830 24829 25129 25130 25135 25134
8 24825 24826 24831 24830 25130 25131 25136 25135
8 24826 24827 24832 24831 25131 25132 25137 25136
8 24827 24828 24833 24832 25132 25133 25138 25137
8 24828 9557 9556 24833 25133 9496 9495 25138
8 24829 24830 24835 24834 25134 25135 25140 25139
8 24830 24831 24836 24835 25135 25136 25141 25140
8 24831 24832 24837 24836 25136 25137 25142 25141
8 24832 24833 24838 24837 25137 25138 25143 25142
8 24833 9556 9555 24838 25138 9495 9494 25143
8 24834 24835 24840 24839 25139 25140 25145 25144
8 24835 24836 24841 24840 25140 25141 25146 25145
8 24836 24837 24842 24841 25141 25142 25147 25146
8 24837 24838 24843 24842 25142 25143 25148 25147
8 24838 9555 9554 24843 25143 9494 9493 25148
8 24839 24840 24845 24844 25144 25145 25150 25149
8 24840 24841 24846 24845 25145 25146 25151 25150
8 24841 24842 24847 24846 25146 25147 25152 25151
8 24842 24843 24848 24847 25147 25148 25153 25152
8 24843 9554 9553 24848 25148 9493 9492 25153
8 24844 24845 24850 24849 25149 25150 25155 25154
8 24845 24846 24851 24850 25150 25151 25156 25155
8 24846 24847 24852 24851 25151 25152 25157 25156
8 24847 24848 24853 24852 25152 25153 25158 25157
8 24848 9553 9552 24853 25153 9492 9491 25158
8 24849 24850 24855 24854 25154 25155 25160 25159
8 24850 24851 24856 24855 25155 25156 25161 25160
8 24851 24852 24857 24856 25156 25157 25162 25161
8 24852 24853 24858 24857 25157 25158 25163 25162
8 24853 9552 9551 24858 25158 9491 9490 25163
8 24854 24855 24860 24859 25159 25160 25165 25164
8 24855 24856 24861 24860 25160 25161 25166 25165
8 24856 24857 24862 24861 25161 25162 25167 25166
8 24857 24858 24863 24862 25162 25163 25168 25167
8 24858 9551 9550 24863 25163 9490 9489 25168
8 24859 24860 24865 24864 25164 25165 25170 25169
8 24860 24861 24866 24865 25165 25166 25171 25170
8 24861 24862 24867 24866 25166 25167 25172 25171
8 24862 24863 24868 24867 25167 25168 25173 25172
8 24863 9550 9549 24868 25168 9489 9488 25173
8 3641 24864 24869 3642 3580 25169 25174 3581
8 24864 24865 24870 24869 25169 25170 25175 25174
8 24865 24866 24871 24870 25170 25171 25176 25175
8 24866 24867 24872 24871 25171 25172 25177 25176
8 24867 24868 24873 24872 25172 25173 25178 25177
8 24868 9549 9548 24873 25173 9488 9487 25178
8 3642 24869 24874 3643 3581 25174 25179 3582
8 24869 24870 24875 24874 25174 25175 25180 25179
8 24870 24871 24876 24875 25175 25176 25181 25180
8 24871 24872 24877 24876 25176 25177 25182 25181
8 24872 24873 24878 24877 25177 25178 25183 25182
8 24873 9548 9547 24878 25178 9487 9486 25183
8 3643 24874 24879 3644 3582 25179 25184 3583
8 24874 24875 24880 24879 25179 25180 25185 25184
8 24875 24876 24881 24880 25180 25181 25186 25185
8 24876 24877 24882 24881 25181 25182 25187 25186
8 24877 24878 24883 24882 25182 25183 25188 25187
8 24878 9547 9546 24883 25183 9486 9485 25188
8 3644 24879 24884 3645 3583 25184 25189 3584
8 24879 24880 24885 24884 25184 25185 25190 25189
8 24880 24881 24886 24885 25185 25186 25191 25190
8 24881 24882 24887 24886 25186 25187 25192 25191
8 24882 24883 24888 24887 25187 25188 25193 25192
8 24883 9546 9545 24888 25188 9485 9484 25193
8 3645 24884 24889 3646 3584 25189 25194 3585
8 24884 24885 24890 24889 25189 25190 25195 25194
8 24885 24886 24891 24890 25190 25191 25196 25195
8 24886 24887 24892 24891 25191 25192 25197 25196
8 24887 24888 24893 24892 25192 25193 25198 25197
8 24888 9545 9544 24893 25193 9484 9483 25198
8 3646 24889 24894 3647 3585 25194 25199 3586
8 24889 24890 24895 24894 25194 25195 25200 25199
8 24890 24891 24896 24895 25195 25196 25201 25200
8 24891 24892 24897 24896 25196 25197 25202 25201
8 24892 24893 24898 24897 25197 25198 25203 25202
8 24893 9544 9543 24898 25198 9483 9482 25203
8 3647 24894 24899 3648 3586 25199 25204 3587
8 24894 24895 24900 24899 25199 25200 25205 25204
8 24895 24896 24901 24900 25200 25201 25206 25205
8 24896 24897 24902 24901 25201 25202 25207 25206
8 24897 24898 24903 24902 25202 25203 25208 25207
8 24898 9543 9542 24903 25203 9482 9481 25208
8 3648 24899 24904 3649 3587 25204 25209 3588
8 24899 24900 24905 24904 25204 25205 25210 25209
8 24900 24901 24906 24905 25205 25206 25211 25210
8 24901 24902 24907 24906 25206 25207 25212 25211
8 24902 24903 24908 24907 25207 25208 25213 25212
8 24903 9542 9541 24908 25208 9481 9480 25213
8 24904 24905 24910 24909 25209 25210 25215 25214
8 24905 24906 24911 24910 25210 25211 25216 25215
8 24906 24907 24912 24911 25211 25212 25217 25216
8 24907 24908 24913 24912 25212 25213 25218 25217
8 24908 9541 9540 24913 25213 9480 9479 25218
8 24909 24910 24915 24914 25214 25215 25220 25219
8 24910 24911 24916 24915 25215 25216 25221 25220
8 24911 24912 24917 24916 25216 25217 25222 25221
8 24912 24913 24918 24917 25217 25218 25223 25222
8 24913 9540 9539 24918 25218 9479 9478 25223
8 24914 24915 24920 24919 25219 25220 25225 25224
8 24915 24916 24921 24920 25220 25221 25226 25225
8 24916 24917 24922 24921 25221 25222 25227 25226
8 24917 24918 24923 24922 25222 25223 25228 25227
8 24918 9539 9538 24923 25223 9478 9477 25228
8 24919 24920 24925 24924 25224 25225 25230 25229
8 24920 24921 24926 24925 25225 25226 25231 25230
8 24921 24922 24927 24926 25226 25227 25232 25231
8 24922 24923 24928 24927 25227 25228 25233 25232
8 24923 9538 9537 24928 25228 9477 9476 25233
8 24924 24925 24930 24929 25229 25230 25235 25234
8 24925 24926 24931 24930 25230 25231 25236 25235
8 24926 24927 24932 24931 25231 25232 25237 25236
8 24927 24928 24933 24932 25232 25233 25238 25237
8 24928 9537 9536 24933 25233 9476 9475 25238
8 24929 24930 24935 24934 25234 25235 25240 25239
8 24930 24931 24936 24935 25235 25236 25241 25240
8 24931 24932 24937 24936 25236 25237 25242 25241
8 24932 24933 24938 24937 25237 25238 25243 25242
8 24933 9536 9535 24938 25238 9475 9474 25243
8 3655 24934 24939 3656 3594 25239 25244 3595
8 24934 24935 24940 24939 25239 25240 25245 25244
8 24935 24936 24941 24940 25240 25241 25246 25245
8 24936 24937 24942 24941 25241 25242 25247 25246
8 24937 24938 24943 24942 25242 25243 25248 25247
8 24938 9535 9534 24943 25243 9474 9473 25248
8 3656 24939 24944 3657 3595 25244 25249 3596
8 24939 24940 24945 24944 25244 25245 25250 25249
8 24940 24941 24946 24945 25245 25246 25251 25250
8 24941 24942 24947 24946 25246 25247 25252 25251
8 24942 24943 24948 24947 25247 25248 25253 25252
8 24943 9534 9533 24948 25248 9473 9472 25253
8 3657 24944 24949 3658 3596 25249 25254 3597
8 24944 24945 24950 24949 25249 25250 25255 25254
8 24945 24946 24951 24950 25250 25251 25256 25255
8 24946 24947 24952 24951 25251 25252 25257 25256
8 24947 24948 24953 24952 25252 25253 25258 25257
8 24948 9533 9532 24953 25253 9472 9471 25258
8 3658 24949 24954 3659 3597 25254 25259 3598
8 24949 24950 24955 24954 25254 25255 25260 25259
8 24950 24951 24956 24955 25255 25256 25261 25260
8 24951 24952 24957 24956 25256 25257 25262 25261
8 24952 24953 24958 24957 25257 25258 25263 25262
8 24953 9532 9531 24958 25258 9471 9470 25263
8 3659 24954 24959 3660 3598 25259 25264 3599
8 24954 24955 24960 24959 25259 25260 25265 25264
8 24955 24956 24961 24960 25260 25261 25266 25265
8 24956 24957 24962 24961 25261 25262 25267 25266
8 24957 24958 24963 24962 25262 25263 25268 25267
8 24958 9531 9530 24963 25263 9470 9469 25268
8 3660 24959 24964 3661 3599 25264 25269 3600
8 24959 24960 24965 24964 25264 25265 25270 25269
8 24960 24961 24966 24965 25265 25266 25271 25270
8 24961 24962 24967 24966 25266 25267 25272 25271
8 24962 24963 24968 24967 25267 25268 25273 25272
8 24963 9530 9529 24968 25268 9469 9468 25273
8 3661 24964 24969 3662 3600 25269 25274 3601
8 24964 24965 24970 24969 25269 25270 25275 25274
8 24965 24966 24971 24970 25270 25271 25276 25275
8 24966 24967 24972 24971 25271 25272 25277 25276
8 24967 24968 24973 24972 25272 25273 25278 25277
8 24968 9529 9528 24973 25273 9468 9467 25278
8 3662 24969 24974 3663 3601 25274 25279 3602
8 24969 24970 24975 24974 25274 25275 25280 25279
8 24970 24971 24976 24975 25275 25276 25281 25280
8 24971 24972 24977 24976 25276 25277 25282 25281
8 24972 24973 24978 24977 25277 25278 25283 25282
8 24973 9528 9527 24978 25278 9467 9466 25283
8 3663 24974 24979 3664 3602 25279 25284 3603
8 24974 24975 24980 24979 25279 25280 25285 25284
8 24975 24976 24981 24980 25280 25281 25286 25285
8 24976 24977 24982 24981 25281 25282 25287 25286
8 24977 24978 24983 24982 25282 25283 25288 25287
8 24978 9527 9526 24983 25283 9466 9465 25288
8 3664 24979 12899 118 3603 25284 12894 117
8 24979 24980 12900 12899 25284 25285 12895 12894
8 24980 24981 12901 12900 25285 25286 12896 12895
8 24981 24982 12902 12901 25286 25287 12897 12896
8 24982 24983 12903 12902 25287 25288 12898 12897
8 24983 9526 6177 12903 25288 9465 6178 12898
8 256 12044 24984 3543 257 12049 25289 3482
8 12044 12045 24985 24984 12049 12050 25290 25289
8 12045 12046 24986 24985 12050 12051 25291 25290
8 12046 12047 24987 24986 12051 12052 25292 25291
8 12047 12048 24988 24987 12052 12053 25293 25292
8 12048 6039 9525 24988 12053 6038 9464 25293
8 3543 24984 24989 3544 3482 25289 25294 3483
8 24984 24985 24990 24989 25289 25290 25295 25294
8 24985 24986 24991 24990 25290 25291 25296 25295
8 24986 24987 24992 24991 25291 25292 25297 25296
8 24987 24988 24993 24992 25292 25293 25298 25297
8 24988 9525 9524 24993 25293 9464 9463 25298
8 3544 24989 24994 3545 3483 25294 25299 3484
8 24989 24990 24995 24994 25294 25295 25300 25299
8 24990 24991 24996 24995 25295 25296 25301 25300
8 24991 24992 24997 24996 25296 25297 25302 25301
8 24992 24993 24998 24997 25297 25298 25303 25302
8 24993 9524 9523 24998 25298 9463 9462 25303
8 3545 24994 24999 3546 3484 25299 25304 3485
8 24994 24995 25000 24999 25299 25300 25305 25304
8 24995 24996 25001 25000 25300 25301 25306 25305
8 24996 24997 25002 25001 25301 25302 25307 25306
8 24997 24998 25003 25002 25302 25303 25308 25307
8 24998 9523 9522 25003 25303 9462 9461 25308
8 3546 24999 25004 3547 3485 25304 25309 3486
8 24999 25000 25005 25004 25304 25305 25310 25309
8 25000 25001 25006 25005 25305 25306 25311 25310
8 25001 25002 25007 25006 25306 25307 25312 25311
8 25002 25003 25008 25007 25307 25308 25313 25312
8 25003 9522 9521 25008 25308 9461 9460 25313
8 3547 25004 25009 3548 3486 25309 25314 3487
8 25004 25005 25010 25009 25309 25310 25315 25314
8 25005 25006 25011 25010 25310 25311 25316 25315
8 25006 25007 25012 25011 25311 25312 25317 25316
8 25007 25008 25013 25012 25312 25313 25318 25317
8 25008 9521 9520 25013 25313 9460 9459 25318
8 3548 25009 25014 3549 3487 25314 25319 3488
8 25009 25010 25015 25014 25314 25315 25320 25319
8 25010 25011 25016 25015 25315 25316 25321 25320
8 25011 25012 25017 25016 25316 25317 25322 25321
8 25012 25013 25018 25017 25317 25318 25323 25322
8 25013 9520 9519 25018 25318 9459 9458 25323
8 3549 25014 25019 3550 3488 25319 25324 3489
8 25014 25015 25020 25019 25319 25320 25325 25324
8 25015 25016 25021 25020 25320 25321 25326 25325
8 25016 25017 25022 25021 25321 25322 25327 25326
8 25017 25018 25023 25022 25322 25323 25328 25327
8 25018 9519 9518 25023 25323 9458 9457 25328
8 3550 25019 25024 3551 3489 25324 25329 3490
8 25019 25020 25025 25024 25324 25325 25330 25329
8 25020 25021 25026 25025 25325 25326 25331 25330
8 25021 25022 25027 25026 25326 25327 25332 25331
8 25022 25023 25028 25027 25327 25328 25333 25332
8 25023 9518 9517 25028 25328 9457 9456 25333
8 3551 25024 25029 3552 3490 25329 25334 3491
8 25024 25025 25030 25029 25329 25330 25335 25334
8 25025 25026 25031 25030 25330 25331 25336 25335
8 25026 25027 25032 25031 25331 25332 25337 25336
8 25027 25028 25033 25032 25332 25333 25338 25337
8 25028 9517 9516 25033 25333 9456 9455 25338
8 3552 25029 25034 3553 3491 25334 25339 3492
8 25029 25030 25035 25034 25334 25335 25340 25339
8 25030 25031 25036 25035 25335 25336 25341 25340
8 25031 25032 25037 25036 25336 25337 25342 25341
8 25032 25033 25038 25037 25337 25338 25343 25342
8 25033 9516 9515 25038 25338 9455 9454 25343
8 3553 25034 25039 3554 3492 25339 25344 3493
8 25034 25035 25040 25039 25339 25340 25345 25344
8 25035 25036 25041 25040 25340 25341 25346 25345
8 25036 25037 25042 25041 25341 25342 25347 25346
8 25037 25038 25043 25042 25342 25343 25348 25347
8 25038 9515 9514 25043 25343 9454 9453 25348
8 3554 25039 25044 3555 3493 25344 25349 3494
8 25039 25040 25045 25044 25344 25345 25350 25349
8 25040 25041 25046 25045 25345 25346 25351 25350
8 25041 25042 25047 25046 25346 25347 25352 25351
8 25042 25043 25048 25047 25347 25348 25353 25352
8 25043 9514 9513 25048 25348 9453 9452 25353
8 3555 25044 25049 3556 3494 25349 25354 3495
8 25044 25045 25050 25049 25349 25350 25355 25354
8 25045 25046 25051 25050 25350 25351 25356 25355
8 25046 25047 25052 25051 25351 25352 25357 25356
8 25047 25048 25053 25052 25352 25353 25358 25357
8 25048 9513 9512 25053 25353 9452 9451 25358
8 3556 25049 25054 3557 3495 25354 25359 3496
8 25049 25050 25055 25054 25354 25355 25360 25359
8 25050 25051 25056 25055 25355 25356 25361 25360
8 25051 25052 25057 25056 25356 25357 25362 25361
8 25052 25053 25058 25057 25357 25358 25363 25362
8 25053 9512 9511 25058 25358 9451 9450 25363
8 3557 25054 25059 3558 3496 25359 25364 3497
8 25054 25055 25060 25059 25359 25360 25365 25364
8 25055 25056 25061 25060 25360 25361 25366 25365
8 25056 25057 25062 25061 25361 25362 25367 25366
8 25057 25058 25063 25062 25362 25363 25368 25367
8 25058 9511 9510 25063 25363 9450 9449 25368
8 3558 25059 25064 3559 3497 25364 25369 3498
8 25059 25060 25065 25064 25364 25365 25370 25369
8 25060 25061 25066 25065 25365 25366 25371 25370
8 25061 25062 25067 25066 25366 25367 25372 25371
8 25062 25063 25068 25067 25367 25368 25373 25372
8 25063 9510 9509 25068 25368 9449 9448 25373
8 3559 25064 25069 3560 3498 25369 25374 3499
8 25064 25065 25070 25069 25369 25370 25375 25374
8 25065 25066 25071 25070 25370 25371 25376 25375
8 25066 25067 25072 25071 25371 25372 25377 25376
8 25067 25068 25073 25072 25372 25373 25378 25377
8 25068 9509 9508 25073 25373 9448 9447 25378
8 3560 25069 25074 3561 3499 25374 25379 3500
8 25069 25070 25075 25074 25374 25375 25380 25379
8 25070 25071 25076 25075 25375 25376 25381 25380
8 25071 25072 25077 25076 25376 25377 25382 25381
8 25072 25073 25078 25077 25377 25378 25383 25382
8 25073 9508 9507 25078 25378 9447 9446 25383
8 3561 25074 25079 3562 3500 25379 25384 3501
8 25074 25075 25080 25079 25379 25380 25385 25384
8 25075 25076 25081 25080 25380 25381 25386 25385
8 25076 25077 25082 25081 25381 25382 25387 25386
8 25077 25078 25083 25082 25382 25383 25388 25387
8 25078 9507 9506 25083 25383 9446 9445 25388
8 3562 25079 25084 3563 3501 25384 25389 3502
8 25079 25080 25085 25084 25384 25385 25390 25389
8 25080 25081 25086 25085 25385 25386 25391 25390
8 25081 25082 25087 25086 25386 25387 25392 25391
8 25082 25083 25088 25087 25387 25388 25393 25392
8 25083 9506 9505 25088 25388 9445 9444 25393
8 25084 25085 25090 25089 25389 25390 25395 25394
8 25085 25086 25091 25090 25390 25391 25396 25395
8 25086 25087 25092 25091 25391 25392 25397 25396
8 25087 25088 25093 25092 25392 25393 25398 25397
8 25088 9505 9504 25093 25393 9444 9443 25398
8 25089 25090 25095 25094 25394 25395 25400 25399
8 25090 25091 25096 25095 25395 25396 25401 25400
8 25091 25092 25097 25096 25396 25397 25402 25401
8 25092 25093 25098 25097 25397 25398 25403 25402
8 25093 9504 9503 25098 25398 9443 9442 25403
8 3565 25094 25099 3566 3504 25399 25404 3505
8 25094 25095 25100 25099 25399 25400 25405 25404
8 25095 25096 25101 25100 25400 25401 25406 25405
8 25096 25097 25102 25101 25401 25402 25407 25406
8 25097 25098 25103 25102 25402 25403 25408 25407
8 25098 9503 9502 25103 25403 9442 9441 25408
8 3566 25099 25104 3567 3505 25404 25409 3506
8 25099 25100 25105 25104 25404 25405 25410 25409
8 25100 25101 25106 25105 25405 25406 25411 25410
8 25101 25102 25107 25106 25406 25407 25412 25411
8 25102 25103 25108 25107 25407 25408 25413 25412
8 25103 9502 9501 25108 25408 9441 9440 25413
8 3567 25104 25109 3568 3506 25409 25414 3507
8 25104 25105 25110 25109 25409 25410 25415 25414
8 25105 25106 25111 25110 25410 25411 25416 25415
8 25106 25107 25112 25111 25411 25412 25417 25416
8 25107 25108 25113 25112 25412 25413 25418 25417
8 25108 9501 9500 25113 25413 9440 9439 25418
8 3568 25109 25114 3569 3507 25414 25419 3508
8 25109 25110 25115 25114 25414 25415 25420 25419
8 25110 25111 25116 25115 25415 25416 25421 25420
8 25111 25112 25117 25116 25416 25417 25422 25421
8 25112 25113 25118 25117 25417 25418 25423 25422
8 25113 9500 9499 25118 25418 9439 9438 25423
8 3569 25114 25119 3570 3508 25419 25424 3509
8 25114 25115 25120 25119 25419 25420 25425 25424
8 25115 25116 25121 25120 25420 25421 25426 25425
8 25116 25117 25122 25121 25421 25422 25427 25426
8 25117 25118 25123 25122 25422 25423 25428 25427
8 25118 9499 9498 25123 25423 9438 9437 25428
8 3570 25119 25124 3571 3509 25424 25429 3510
8 25119 25120 25125 25124 25424 25425 25430 25429
8 25120 25121 25126 25125 25425 25426 25431 25430
8 25121 25122 25127 25126 25426 25427 25432 25431
8 25122 25123 25128 25127 25427 25428 25433 25432
8 25123 9498 9497 25128 25428 9437 9436 25433
8 3571 25124 25129 3572 3510 25429 25434 3511
8 25124 25125 25130 25129 25429 25430 25435 25434
8 25125 25126 25131 25130 25430 25431 25436 25435
8 25126 25127 25132 25131 25431 25432 25437 25436
8 25127 25128 25133 25132 25432 25433 25438 25437
8 25128 9497 9496 25133 25433 9436 9435 25438
8 25129 25130 25135 25134 25434 25435 25440 25439
8 25130 25131 25136 25135 25435 25436 25441 25440
8 25131 25132 25137 25136 25436 25437 25442 25441
8 25132 25133 25138 25137 25437 25438 25443 25442
8 25133 9496 9495 25138 25438 9435 9434 25443
8 25134 25135 25140 25139 25439 25440 25445 25444
8 25135 25136 25141 25140 25440 25441 25446 25445
8 25136 25137 25142 25141 25441 25442 25447 25446
8 25137 25138 25143 25142 25442 25443 25448 25447
8 25138 9495 9494 25143 25443 9434 9433 25448
8 25139 25140 25145 25144 25444 25445 25450 25449
8 25140 25141 25146 25145 25445 25446 25451 25450
8 25141 25142 25147 25146 25446 25447 25452 25451
8 25142 25143 25148 25147 25447 25448 25453 25452
8 25143 9494 9493 25148 25448 9433 9432 25453
8 25144 25145 25150 25149 25449 25450 25455 25454
8 25145 25146 25151 25150 25450 25451 25456 25455
8 25146 25147 25152 25151 25451 25452 25457 25456
8 25147 25148 25153 25152 25452 25453 25458 25457
8 25148 9493 9492 25153 25453 9432 9431 25458
8 25149 25150 25155 25154 25454 25455 25460 25459
8 25150 25151 25156 25155 25455 25456 25461 25460
8 25151 25152 25157 25156 25456 25457 25462 25461
8 25152 25153 25158 25157 25457 25458 25463 25462
8 25153 9492 9491 25158 25458 9431 9430 25463
8 25154 25155 25160 25159 25459 25460 25465 25464
8 25155 25156 25161 25160 25460 25461 25466 25465
8 25156 25157 25162 25161 25461 25462 25467 25466
8 25157 25158 25163 25162 25462 25463 25468 25467
8 25158 9491 9490 25163 25463 9430 9429 25468
8 25159 25160 25165 25164 25464 25465 25470 25469
8 25160 25161 25166 25165 25465 25466 25471 25470
8 25161 25162 25167 25166 25466 25467 25472 25471
8 25162 25163 25168 25167 25467 25468 25473 25472
8 25163 9490 9489 25168 25468 9429 9428 25473
8 25164 25165 25170 25169 25469 25470 25475 25474
8 25165 25166 25171 25170 25470 25471 25476 25475
8 25166 25167 25172 25171 25471 25472 25477 25476
8 25167 25168 25173 25172 25472 25473 25478 25477
8 25168 9489 9488 25173 25473 9428 9427 25478
8 3580 25169 25174 3581 3519 25474 25479 3520
8 25169 25170 25175 25174 25474 25475 25480 25479
8 25170 25171 25176 25175 25475 25476 25481 25480
8 25171 25172 25177 25176 25476 25477 25482 25481
8 25172 25173 25178 25177 25477 25478 25483 25482
8 25173 9488 9487 25178 25478 9427 9426 25483
8 3581 25174 25179 3582 3520 25479 25484 3521
8 25174 25175 25180 25179 25479 25480 25485 25484
8 25175 25176 25181 25180 25480 25481 25486 25485
8 25176 25177 25182 25181 25481 25482 25487 25486
8 25177 25178 25183 25182 25482 25483 25488 25487
8 25178 9487 9486 25183 25483 9426 9425 25488
8 3582 25179 25184 3583 3521 25484 25489 3522
8 25179 25180 25185 25184 25484 25485 25490 25489
8 25180 25181 25186 25185 25485 25486 25491 25490
8 25181 25182 25187 25186 25486 25487 25492 25491
8 25182 25183 25188 25187 25487 25488 25493 25492
8 25183 9486 9485 25188 25488 9425 9424 25493
8 3583 25184 25189 3584 3522 25489 25494 3523
8 25184 25185 25190 25189 25489 25490 25495 25494
8 25185 25186 25191 25190 25490 25491 25496 25495
8 25186 25187 25192 25191 25491 25492 25497 25496
8 25187 25188 25193 25192 25492 25493 25498 25497
8 25188 9485 9484 25193 25493 9424 9423 25498
8 3584 25189 25194 3585 3523 25494 25499 3524
8 25189 25190 25195 25194 25494 25495 25500 25499
8 25190 25191 25196 25195 25495 25496 25501 25500
8 25191 25192 25197 25196 25496 25497 25502 25501
8 25192 25193 25198 25197 25497 25498 25503 25502
8 25193 9484 9483 25198 25498 9423 9422 25503
8 3585 25194 25199 3586 3524 25499 25504 3525
8 25194 25195 25200 25199 25499 25500 25505 25504
8 25195 25196 25201 25200 25500 25501 25506 25505
8 25196 25197 25202 25201 25501 25502 25507 25506
8 25197 25198 25203 25202 25502 25503 25508 25507
8 25198 9483 9482 25203 25503 9422 9421 25508
8 3586 25199 25204 3587 3525 25504 25509 3526
8 25199 25200 25205 25204 25504 25505 25510 25509
8 25200 25201 25206 25205 25505 25506 25511 25510
8 25201 25202 25207 25206 25506 25507 25512 25511
8 25202 25203 25208 25207 25507 25508 25513 25512
8 25203 9482 9481 25208 25508 9421 9420 25513
8 3587 25204 25209 3588 3526 25509 25514 3527
8 25204 25205 25210 25209 25509 25510 25515 25514
8 25205 25206 25211 25210 25510 25511 25516 25515
8 25206 25207 25212 25211 25511 25512 25517 25516
8 25207 25208 25213 25212 25512 25513 25518 25517
8 25208 9481 9480 25213 25513 9420 9419 25518
8 25209 25210 25215 25214 25514 25515 25520 25519
8 25210 25211 25216 25215 25515 25516 25521 25520
8 25211 25212 25217 25216 25516 25517 25522 25521
8 25212 25213 25218 25217 25517 25518 25523 25522
8 25213 9480 9479 25218 25518 9419 9418 25523
8 25214 25215 25220 25219 25519 25520 25525 25524
8 25215 25216 25221 25220 25520 25521 25526 25525
8 25216 25217 25222 25221 25521 25522 25527 25526
8 25217 25218 25223 25222 25522 25523 25528 25527
8 25218 9479 9478 25223 25523 9418 9417 25528
8 25219 25220 25225 25224 25524 25525 25530 25529
8 25220 25221 25226 25225 25525 25526 25531 25530
8 25221 25222 25227 25226 25526 25527 25532 25531
8 25222 25223 25228 25227 25527 25528 25533 25532
8 25223 9478 9477 25228 25528 9417 9416 25533
8 25224 25225 25230 25229 25529 25530 25535 25534
8 25225 25226 25231 25230 25530 25531 25536 25535
8 25226 25227 25232 25231 25531 25532 25537 25536
8 25227 25228 25233 25232 25532 25533 25538 25537
8 25228 9477 9476 25233 25533 9416 9415 25538
8 25229 25230 25235 25234 25534 25535 25540 25539
8 25230 25231 25236 25235 25535 25536 25541 25540
8 25231 25232 25237 25236 25536 25537 25542 25541
8 25232 25233 25238 25237 25537 25538 25543 25542
8 25233 9476 9475 25238 25538 9415 9414 25543
8 25234 25235 25240 25239 25539 25540 25545 25544
8 25235 25236 25241 25240 25540 25541 25546 25545
8 25236 25237 25242 25241 25541 25542 25547 25546
8 25237 25238 25243 25242 25542 25543 25548 25547
8 25238 9475 9474 25243 25543 9414 9413 25548
8 3594 25239 25244 3595 3533 25544 25549 3534
8 25239 25240 25245 25244 25544 25545 25550 25549
8 25240 25241 25246 25245 25545 25546 25551 25550
8 25241 25242 25247 25246 25546 25547 25552 25551
8 25242 25243 25248 25247 25547 25548 25553 25552
8 25243 9474 9473 25248 25548 9413 9412 25553
8 3595 25244 25249 3596 3534 25549 25554 3535
8 25244 25245 25250 25249 25549 25550 25555 25554
8 25245 25246 25251 25250 25550 25551 25556 25555
8 25246 25247 25252 25251 25551 25552 25557 25556
8 25247 25248 25253 25252 25552 25553 25558 25557
8 25248 9473 9472 25253 25553 9412 9411 25558
8 3596 25249 25254 3597 3535 25554 25559 3536
8 25249 25250 25255 25254 25554 25555 25560 25559
8 25250 25251 25256 25255 25555 25556 25561 25560
8 25251 25252 25257 25256 25556 25557 25562 25561
8 25252 25253 25258 25257 25557 25558 25563 25562
8 25253 9472 9471 25258 25558 9411 9410 25563
8 3597 25254 25259 3598 3536 25559 25564 3537
8 25254 25255 25260 25259 25559 25560 25565 25564
8 25255 25256 25261 25260 25560 25561 25566 25565
8 25256 25257 25262 25261 25561 25562 25567 25566
8 25257 25258 25263 25262 25562 25563 25568 25567
8 25258 9471 9470 25263 25563 9410 9409 25568
8 3598 25259 25264 3599 3537 25564 25569 3538
8 25259 25260 25265 25264 25564 25565 25570 25569
8 25260 25261 25266 25265 25565 25566 25571 25570
8 25261 25262 25267 25266 25566 25567 25572 25571
8 25262 25263 25268 25267 25567 25568 25573 25572
8 25263 9470 9469 25268 25568 9409 9408 25573
8 3599 25264 25269 3600 3538 25569 25574 3539
8 25264 25265 25270 25269 25569 25570 25575 25574
8 25265 25266 25271 25270 25570 25571 25576 25575
8 25266 25267 25272 25271 25571 25572 25577 25576
8 25267 25268 25273 25272 25572 25573 25578 25577
8 25268 9469 9468 25273 25573 9408 9407 25578
8 3600 25269 25274 3601 3539 25574 25579 3540
8 25269 25270 25275 25274 25574 25575 25580 25579
8 25270 25271 25276 25275 25575 25576 25581 25580
8 25271 25272 25277 25276 25576 25577 25582 25581
8 25272 25273 25278 25277 25577 25578 25583 25582
8 25273 9468 9467 25278 25578 9407 9406 25583
8 3601 25274 25279 3602 3540 25579 25584 3541
8 25274 25275 25280 25279 25579 25580 25585 25584
8 25275 25276 25281 25280 25580 25581 25586 25585
8 25276 25277 25282 25281 25581 25582 25587 25586
8 25277 25278 25283 25282 25582 25583 25588 25587
8 25278 9467 9466 25283 25583 9406 9405 25588
8 3602 25279 25284 3603 3541 25584 25589 3542
8 25279 25280 25285 25284 25584 25585 25590 25589
8 25280 25281 25286 25285 25585 25586 25591 25590
8 25281 25282 25287 25286 25586 25587 25592 25591
8 25282 25283 25288 25287 25587 25588 25593 25592
8 25283 9466 9465 25288 25588 9405 9404 25593
8 3603 25284 12894 117 3542 25589 12889 116
8 25284 25285 12895 12894 25589 25590 12890 12889
8 25285 25286 12896 12895 25590 25591 12891 12890
8 25286 25287 12897 12896 25591 25592 12892 12891
8 25287 25288 12898 12897 25592 25593 12893 12892
8 25288 9465 6178 12898 25593 9404 6179 12893
8 257 12049 25289 3482 258 12054 25594 3421
8 12049 12050 25290 25289 12054 12055 25595 25594
8 12050 12051 25291 25290 12055 12056 25596 25595
8 12051 12052 25292 25291 12056 12057 25597 25596
8 12052 12053 25293 25292 12057 12058 25598 25597
8 12053 6038 9464 25293 12058 6037 9403 25598
8 3482 25289 25294 3483 3421 25594 25599 3422
8 25289 25290 25295 25294 25594 25595 25600 25599
8 25290 25291 25296 25295 25595 25596 25601 25600
8 25291 25292 25297 25296 25596 25597 25602 25601
8 25292 25293 25298 25297 25597 25598 25603 25602
8 25293 9464 9463 25298 25598 9403 9402 25603
8 3483 25294 25299 3484 3422 25599 25604 3423
8 25294 25295 25300 25299 25599 25600 25605 25604
8 25295 25296 25301 25300 25600 25601 25606 25605
8 25296 25297 25302 25301 25601 25602 25607 25606
8 25297 25298 25303 25302 25602 25603 25608 25607
8 25298 9463 9462 25303 25603 9402 9401 25608
8 3484 25299 25304 3485 3423 25604 25609 3424
8 25299 25300 25305 25304 25604 25605 25610 25609
8 25300 25301 25306 25305 25605 25606 25611 25610
8 25301 25302 25307 25306 25606 25607 25612 25611
8 25302 25303 25308 25307 25607 25608 25613 25612
8 25303 9462 9461 25308 25608 9401 9400 25613
8 3485 25304 25309 3486 3424 25609 25614 3425
8 25304 25305 25310 25309 25609 25610 25615 25614
8 25305 25306 25311 25310 25610 25611 25616 25615
8 25306 25307 25312 25311 25611 25612 25617 25616
8 25307 25308 25313 25312 25612 25613 25618 25617
8 25308 9461 9460 25313 25613 9400 9399 25618
8 3486 25309 25314 3487 3425 25614 25619 3426
8 25309 25310 25315 25314 25614 25615 25620 25619
8 25310 25311 25316 25315 25615 25616 25621 25620
8 25311 25312 25317 25316 25616 25617 25622 25621
8 25312 25313 25318 25317 25617 25618 25623 25622
8 25313 9460 9459 25318 25618 9399 9398 25623
8 3487 25314 25319 3488 3426 25619 25624 3427
8 25314 25315 25320 25319 25619 25620 25625 25624
8 25315 25316 25321 25320 25620 25621 25626 25625
8 25316 25317 25322 25321 25621 25622 25627 25626
8 25317 25318 25323 25322 25622 25623 25628 25627
8 25318 9459 9458 25323 25623 9398 9397 25628
8 3488 25319 25324 3489 3427 25624 25629 3428
8 25319 25320 25325 25324 25624 25625 25630 25629
8 25320 25321 25326 25325 25625 25626 25631 25630
8 25321 25322 25327 25326 25626 25627 25632 25631
8 25322 25323 25328 25327 25627 25628 25633 25632
8 25323 9458 9457 25328 25628 9397 9396 25633
8 3489 25324 25329 3490 3428 25629 25634 3429
8 25324 25325 25330 25329 25629 25630 25635 25634
8 25325 25326 25331 25330 25630 25631 25636 25635
8 25326 25327 25332 25331 25631 25632 25637 25636
8 25327 25328 25333 25332 25632 25633 25638 25637
8 25328 9457 9456 25333 25633 9396 9395 25638
8 3490 25329 25334 3491 3429 25634 25639 3430
8 25329 25330 25335 25334 25634 25635 25640 25639
8 25330 25331 25336 25335 25635 25636 25641 25640
8 25331 25332 25337 25336 25636 25637 25642 25641
8 25332 25333 25338 25337 25637 25638 25643 25642
8 25333 9456 9455 25338 25638 9395 9394 25643
8 3491 25334 25339 3492 3430 25639 25644 3431
8 25334 25335 25340 25339 25639 25640 25645 25644
8 25335 25336 25341 25340 25640 25641 25646 25645
8 25336 25337 25342 25341 25641 25642 25647 25646
8 25337 25338 25343 25342 25642 25643 25648 25647
8 25338 9455 9454 25343 25643 9394 9393 25648
8 3492 25339 25344 3493 3431 25644 25649 3432
8 25339 25340 25345 25344 25644 25645 25650 25649
8 25340 25341 25346 25345 25645 25646 25651 25650
8 25341 25342 25347 25346 25646 25647 25652 25651
8 25342 25343 25348 25347 25647 25648 25653 25652
8 25343 9454 9453 25348 25648 9393 9392 25653
8 3493 25344 25349 3494 3432 25649 25654 3433
8 25344 25345 25350 25349 25649 25650 25655 25654
8 25345 25346 25351 25350 25650 25651 25656 25655
8 25346 25347 25352 25351 25651 25652 25657 25656
8 25347 25348 25353 25352 25652 25653 25658 25657
8 25348 9453 9452 25353 25653 9392 9391 25658
8 3494 25349 25354 3495 3433 25654 25659 3434
8 25349 25350 25355 25354 25654 25655 25660 25659
8 25350 25351 25356 25355 25655 25656 25661 25660
8 25351 25352 25357 25356 25656 25657 25662 25661
8 25352 25353 25358 25357 25657 25658 25663 25662
8 25353 9452 9451 25358 25658 9391 9390 25663
8 3495 25354 25359 3496 3434 25659 25664 3435
8 25354 25355 25360 25359 25659 25660 25665 25664
8 25355 25356 25361 25360 25660 25661 25666 25665
8 25356 25357 25362 25361 25661 25662 25667 25666
8 25357 25358 25363 25362 25662 25663 25668 25667
8 25358 9451 9450 25363 25663 9390 9389 25668
8 3496 25359 25364 3497 3435 25664 25669 3436
8 25359 25360 25365 25364 25664 25665 25670 25669
8 25360 25361 25366 25365 25665 25666 25671 25670
8 25361 25362 25367 25366 25666 25667 25672 25671
8 25362 25363 25368 25367 25667 25668 25673 25672
8 25363 9450 9449 25368 25668 9389 9388 25673
8 3497 25364 25369 3498 3436 25669 25674 3437
8 25364 25365 25370 25369 25669 25670 25675 25674
8 25365 25366 25371 25370 25670 25671 25676 25675
8 25366 25367 25372 25371 25671 25672 25677 25676
8 25367 25368 25373 25372 25672 25673 25678 25677
8 25368 9449 9448 25373 25673 9388 9387 25678
8 3498 25369 25374 3499 3437 25674 25679 3438
8 25369 25370 25375 25374 25674 25675 25680 25679
8 25370 25371 25376 25375 25675 25676 25681 25680
8 25371 25372 25377 25376 25676 25677 25682 25681
8 25372 25373 25378 25377 25677 25678 25683 25682
8 25373 9448 9447 25378 25678 9387 9386 25683
8 3499 25374 25379 3500 3438 25679 25684 3439
8 25374 25375 25380 25379 25679 25680 25685 25684
8 25375 25376 25381 25380 25680 25681 25686 25685
8 25376 25377 25382 25381 25681 25682 25687 25686
8 25377 25378 25383 25382 25682 25683 25688 25687
8 25378 9447 9446 25383 25683 9386 9385 25688
8 3500 25379 25384 3501 3439 25684 25689 3440
8 25379 25380 25385 25384 25684 25685 25690 25689
8 25380 25381 25386 25385 25685 25686 25691 25690
8 25381 25382 25387 25386 25686 25687 25692 25691
8 25382 25383 25388 25387 25687 25688 25693 25692
8 25383 9446 9445 25388 25688 9385 9384 25693
8 3501 25384 25389 3502 3440 25689 25694 3441
8 25384 25385 25390 25389 25689 25690 25695 25694
8 25385 25386 25391 25390 25690 25691 25696 25695
8 25386 25387 25392 25391 25691 25692 25697 25696
8 25387 25388 25393 25392 25692 25693 25698 25697
8 25388 9445 9444 25393 25693 9384 9383 25698
8 25389 25390 25395 25394 25694 25695 25700 25699
8 25390 25391 25396 25395 25695 25696 25701 25700
8 25391 25392 25397 25396 25696 25697 25702 25701
8 25392 25393 25398 25397 25697 25698 25703 25702
8 25393 9444 9443 25398 25698 9383 9382 25703
8 25394 25395 25400 25399 25699 25700 25705 25704
8 25395 25396 25401 25400 25700 25701 25706 25705
8 25396 25397 25402 25401 25701 25702 25707 25706
8 25397 25398 25403 25402 25702 25703 25708 25707
8 25398 9443 9442 25403 25703 9382 9381 25708
8 3504 25399 25404 3505 3443 25704 25709 3444
8 25399 25400 25405 25404 25704 25705 25710 25709
8 25400 25401 25406 25405 25705 25706 25711 25710
8 25401 25402 25407 25406 25706 25707 25712 25711
8 25402 25403 25408 25407 25707 25708 25713 25712
8 25403 9442 9441 25408 25708 9381 9380 25713
8 3505 25404 25409 3506 3444 25709 25714 3445
8 25404 25405 25410 25409 25709 25710 25715 25714
8 25405 25406 25411 25410 25710 25711 25716 25715
8 25406 25407 25412 25411 25711 25712 25717 25716
8 25407 25408 25413 25412 25712 25713 25718 25717
8 25408 9441 9440 25413 25713 9380 9379 25718
8 3506 25409 25414 3507 3445 25714 25719 3446
8 25409 25410 25415 25414 25714 25715 25720 25719
8 25410 25411 25416 25415 25715 25716 25721 25720
8 25411 25412 25417 25416 25716 25717 25722 25721
8 25412 25413 25418 25417 25717 25718 25723 25722
8 25413 9440 9439 25418 25718 9379 9378 25723
8 3507 25414 25419 3508 3446 25719 25724 3447
8 25414 25415 25420 25419 25719 25720 25725 25724
8 25415 25416 25421 25420 25720 25721 25726 25725
8 25416 25417 25422 25421 25721 25722 25727 25726
8 25417 25418 25423 25422 25722 25723 25728 25727
8 25418 9439 9438 25423 25723 9378 9377 25728
8 3508 25419 25424 3509 3447 25724 25729 3448
8 25419 25420 25425 25424 25724 25725 25730 25729
8 25420 25421 25426 25425 25725 25726 25731 25730
8 25421 25422 25427 25426 25726 25727 25732 25731
8 25422 25423 25428 25427 25727 25728 25733 25732
8 25423 9438 9437 25428 25728 9377 9376 25733
8 25424 25425 25430 25429 25729 25730 25735 25734
8 25425 25426 25431 25430 25730 25731 25736 25735
8 25426 25427 25432 25431 25731 25732 25737 25736
8 25427 25428 25433 25432 25732 25733 25738 25737
8 25428 9437 9436 25433 25733 9376 9375 25738
8 25429 25430 25435 25434 25734 25735 25740 25739
8 25430 25431 25436 25435 25735 25736 25741 25740
8 25431 25432 25437 25436 25736 25737 25742 25741
8 25432 25433 25438 25437 25737 25738 25743 25742
8 25433 9436 9435 25438 25738 9375 9374 25743
8 25434 25435 25440 25439 25739 25740 25745 25744
8 25435 25436 25441 25440 25740 25741 25746 25745
8 25436 25437 25442 25441 25741 25742 25747 25746
8 25437 25438 25443 25442 25742 25743 25748 25747
8 25438 9435 9434 25443 25743 9374 9373 25748
8 25439 25440 25445 25444 25744 25745 25750 25749
8 25440 25441 25446 25445 25745 25746 25751 25750
8 25441 25442 25447 25446 25746 25747 25752 25751
8 25442 25443 25448 25447 25747 25748 25753 25752
8 25443 9434 9433 25448 25748 9373 9372 25753
8 25444 25445 25450 25449 25749 25750 25755 25754
8 25445 25446 25451 25450 25750 25751 25756 25755
8 25446 25447 25452 25451 25751 25752 25757 25756
8 25447 25448 25453 25452 25752 25753 25758 25757
8 25448 9433 9432 25453 25753 9372 9371 25758
8 25449 25450 25455 25454 25754 25755 25760 25759
8 25450 25451 25456 25455 25755 25756 25761 25760
8 25451 25452 25457 25456 25756 25757 25762 25761
8 25452 25453 25458 25457 25757 25758 25763 25762
8 25453 9432 9431 25458 25758 9371 9370 25763
8 25454 25455 25460 25459 25759 25760 25765 25764
8 25455 25456 25461 25460 25760 25761 25766 25765
8 25456 25457 25462 25461 25761 25762 25767 25766
8 25457 25458 25463 25462 25762 25763 25768 25767
8 25458 9431 9430 25463 25763 9370 9369 25768
8 25459 25460 25465 25464 25764 25765 25770 25769
8 25460 25461 25466 25465 25765 25766 25771 25770
8 25461 25462 25467 25466 25766 25767 25772 25771
8 25462 25463 25468 25467 25767 25768 25773 25772
8 25463 9430 9429 25468 25768 9369 9368 25773
8 25464 25465 25470 25469 25769 25770 25775 25774
8 25465 25466 25471 25470 25770 25771 25776 25775
8 25466 25467 25472 25471 25771 25772 25777 25776
8 25467 25468 25473 25472 25772 25773 25778 25777
8 25468 9429 9428 25473 25773 9368 9367 25778
8 25469 25470 25475 25474 25774 25775 25780 25779
8 25470 25471 25476 25475 25775 25776 25781 25780
8 25471 25472 25477 25476 25776 25777 25782 25781
8 25472 25473 25478 25477 25777 25778 25783 25782
8 25473 9428 9427 25478 25778 9367 9366 25783
8 3519 25474 25479 3520 3458 25779 25784 3459
8 25474 25475 25480 25479 25779 25780 25785 25784
8 25475 25476 25481 25480 25780 25781 25786 25785
8 25476 25477 25482 25481 25781 25782 25787 25786
8 25477 25478 25483 25482 25782 25783 25788 25787
8 25478 9427 9426 25483 25783 9366 9365 25788
8 3520 25479 25484 3521 3459 25784 25789 3460
8 25479 25480 25485 25484 25784 25785 25790 25789
8 25480 25481 25486 25485 25785 25786 25791 25790
8 25481 25482 25487 25486 25786 25787 25792 25791
8 25482 25483 25488 25487 25787 25788 25793 25792
8 25483 9426 9425 25488 25788 9365 9364 25793
8 3521 25484 25489 3522 3460 25789 25794 3461
8 25484 25485 25490 25489 25789 25790 25795 25794
8 25485 25486 25491 25490 25790 25791 25796 25795
8 25486 25487 25492 25491 25791 25792 25797 25796
8 25487 25488 25493 25492 25792 25793 25798 25797
8 25488 9425 9424 25493 25793 9364 9363 25798
8 3522 25489 25494 3523 3461 25794 25799 3462
8 25489 25490 25495 25494 25794 25795 25800 25799
8 25490 25491 25496 25495 25795 25796 25801 25800
8 25491 25492 25497 25496 25796 25797 25802 25801
8 25492 25493 25498 25497 25797 25798 25803 25802
8 25493 9424 9423 25498 25798 9363 9362 25803
8 3523 25494 25499 3524 3462 25799 25804 3463
8 25494 25495 25500 25499 25799 25800 25805 25804
8 25495 25496 25501 25500 25800 25801 25806 25805
8 25496 25497 25502 25501 25801 25802 25807 25806
8 25497 25498 25503 25502 25802 25803 25808 25807
8 25498 9423 9422 25503 25803 9362 9361 25808
8 3524 25499 25504 3525 3463 25804 25809 3464
8 25499 25500 25505 25504 25804 25805 25810 25809
8 25500 25501 25506 25505 25805 25806 25811 25810
8 25501 25502 25507 25506 25806 25807 25812 25811
8 25502 25503 25508 25507 25807 25808 25813 25812
8 25503 9422 9421 25508 25808 9361 9360 25813
8 3525 25504 25509 3526 3464 25809 25814 3465
8 25504 25505 25510 25509 25809 25810 25815 25814
8 25505 25506 25511 25510 25810 25811 25816 25815
8 25506 25507 25512 25511 25811 25812 25817 25816
8 25507 25508 25513 25512 25812 25813 25818 25817
8 25508 9421 9420 25513 25813 9360 9359 25818
8 3526 25509 25514 3527 3465 25814 25819 3466
8 25509 25510 25515 25514 25814 25815 25820 25819
8 25510 25511 25516 25515 25815 25816 25821 25820
8 25511 25512 25517 25516 25816 25817 25822 25821
8 25512 25513 25518 25517 25817 25818 25823 25822
8 25513 9420 9419 25518 25818 9359 9358 25823
8 25514 25515 25520 25519 25819 25820 25825 25824
8 25515 25516 25521 25520 25820 25821 25826 25825
8 25516 25517 25522 25521 25821 25822 25827 25826
8 25517 25518 25523 25522 25822 25823 25828 25827
8 25518 9419 9418 25523 25823 9358 9357 25828
8 25519 25520 25525 25524 25824 25825 25830 25829
8 25520 25521 25526 25525 25825 25826 25831 25830
8 25521 25522 25527 25526 25826 25827 25832 25831
8 25522 25523 25528 25527 25827 25828 25833 25832
8 25523 9418 9417 25528 25828 9357 9356 25833
8 25524 25525 25530 25529 25829 25830 25835 25834
8 25525 25526 25531 25530 25830 25831 25836 25835
8 25526 25527 25532 25531 25831 25832 25837 25836
8 25527 25528 25533 25532 25832 25833 25838 25837
8 25528 9417 9416 25533 25833 9356 9355 25838
8 25529 25530 25535 25534 25834 25835 25840 25839
8 25530 25531 25536 25535 25835 25836 25841 25840
8 25531 25532 25537 25536 25836 25837 25842 25841
8 25532 25533 25538 25537 25837 25838 25843 25842
8 25533 9416 9415 25538 25838 9355 9354 25843
8 25534 25535 25540 25539 25839 25840 25845 25844
8 25535 25536 25541 25540 25840 25841 25846 25845
8 25536 25537 25542 25541 25841 25842 25847 25846
8 25537 25538 25543 25542 25842 25843 25848 25847
8 25538 9415 9414 25543 25843 9354 9353 25848
8 25539 25540 25545 25544 25844 25845 25850 25849
8 25540 25541 25546 25545 25845 25846 25851 25850
8 25541 25542 25547 25546 25846 25847 25852 25851
8 25542 25543 25548 25547 25847 25848 25853 25852
8 25543 9414 9413 25548 25848 9353 9352 25853
8 3533 25544 25549 3534 3472 25849 25854 3473
8 25544 25545 25550 25549 25849 25850 25855 25854
8 25545 25546 25551 25550 25850 25851 25856 25855
8 25546 25547 25552 25551 25851 25852 25857 25856
8 25547 25548 25553 25552 25852 25853 25858 25857
8 25548 9413 9412 25553 25853 9352 9351 25858
8 3534 25549 25554 3535 3473 25854 25859 3474
8 25549 25550 25555 25554 25854 25855 25860 25859
8 25550 25551 25556 25555 25855 25856 25861 25860
8 25551 25552 25557 25556 25856 25857 25862 25861
8 25552 25553 25558 25557 25857 25858 25863 25862
8 25553 9412 9411 25558 25858 9351 9350 25863
8 3535 25554 25559 3536 3474 25859 25864 3475
8 25554 25555 25560 25559 25859 25860 25865 25864
8 25555 25556 25561 25560 25860 25861 25866 25865
8 25556 25557 25562 25561 25861 25862 25867 25866
8 25557 25558 25563 25562 25862 25863 25868 25867
8 25558 9411 9410 25563 25863 9350 9349 25868
8 3536 25559 25564 3537 3475 25864 25869 3476
8 25559 25560 25565 25564 25864 25865 25870 25869
8 25560 25561 25566 25565 25865 25866 25871 25870
8 25561 25562 25567 25566 25866 25867 25872 25871
8 25562 25563 25568 25567 25867 25868 25873 25872
8 25563 9410 9409 25568 25868 9349 9348 25873
8 3537 25564 25569 3538 3476 25869 25874 3477
8 25564 25565 25570 25569 25869 25870 25875 25874
8 25565 25566 25571 25570 25870 25871 25876 25875
8 25566 25567 25572 25571 25871 25872 25877 25876
8 25567 25568 25573 25572 25872 25873 25878 25877
8 25568 9409 9408 25573 25873 9348 9347 25878
8 3538 25569 25574 3539 3477 25874 25879 3478
8 25569 25570 25575 25574 25874 25875 25880 25879
8 25570 25571 25576 25575 25875 25876 25881 25880
8 25571 25572 25577 25576 25876 25877 25882 25881
8 25572 25573 25578 25577 25877 25878 25883 25882
8 25573 9408 9407 25578 25878 9347 9346 25883
8 3539 25574 25579 3540 3478 25879 25884 3479
8 25574 25575 25580 25579 25879 25880 25885 25884
8 25575 25576 25581 25580 25880 25881 25886 25885
8 25576 25577 25582 25581 25881 25882 25887 25886
8 25577 25578 25583 25582 25882 25883 25888 25887
8 25578 9407 9406 25583 25883 9346 9345 25888
8 3540 25579 25584 3541 3479 25884 25889 3480
8 25579 25580 25585 25584 25884 25885 25890 25889
8 25580 25581 25586 25585 25885 25886 25891 25890
8 25581 25582 25587 25586 25886 25887 25892 25891
8 25582 25583 25588 25587 25887 25888 25893 25892
8 25583 9406 9405 25588 25888 9345 9344 25893
8 3541 25584 25589 3542 3480 25889 25894 3481
8 25584 25585 25590 25589 25889 25890 25895 25894
8 25585 25586 25591 25590 25890 25891 25896 25895
8 25586 25587 25592 25591 25891 25892 25897 25896
8 25587 25588 25593 25592 25892 25893 25898 25897
8 25588 9405 9404 25593 25893 9344 9343 25898
8 3542 25589 12889 116 3481 25894 12884 115
8 25589 25590 12890 12889 25894 25895 12885 12884
8 25590 25591 12891 12890 25895 25896 12886 12885
8 25591 25592 12892 12891 25896 25897 12887 12886
8 25592 25593 12893 12892 25897 25898 12888 12887
8 25593 9404 6179 12893 25898 9343 6180 12888
8 258 12054 25594 3421 259 12059 25899 3360
8 12054 12055 25595 25594 12059 12060 25900 25899
8 12055 12056 25596 25595 12060 12061 25901 25900
8 12056 12057 25597 25596 12061 12062 25902 25901
8 12057 12058 25598 25597 12062 12063 25903 25902
8 12058 6037 9403 25598 12063 6036 9342 25903
8 3421 25594 25599 3422 3360 25899 25904 3361
8 25594 25595 25600 25599 25899 25900 25905 25904
8 25595 25596 25601 25600 25900 25901 25906 25905
8 25596 25597 25602 25601 25901 25902 25907 25906
8 25597 25598 25603 25602 25902 25903 25908 25907
8 25598 9403 9402 25603 25903 9342 9341 25908
8 3422 25599 25604 3423 3361 25904 25909 3362
8 25599 25600 25605 25604 25904 25905 25910 25909
8 25600 25601 25606 25605 25905 25906 25911 25910
8 25601 25602 25607 25606 25906 25907 25912 25911
8 25602 25603 25608 25607 25907 25908 25913 25912
8 25603 9402 9401 25608 25908 9341 9340 25913
8 3423 25604 25609 3424 3362 25909 25914 3363
8 25604 25605 25610 25609 25909 25910 25915 25914
8 25605 25606 25611 25610 25910 25911 25916 25915
8 25606 25607 25612 25611 25911 25912 25917 25916
8 25607 25608 25613 25612 25912 25913 25918 25917
8 25608 9401 9400 25613 25913 9340 9339 25918
8 3424 25609 25614 3425 3363 25914 25919 3364
8 25609 25610 25615 25614 25914 25915 25920 25919
8 25610 25611 25616 25615 25915 25916 25921 25920
8 25611 25612 25617 25616 25916 25917 25922 25921
8 25612 25613 25618 25617 25917 25918 25923 25922
8 25613 9400 9399 25618 25918 9339 9338 25923
8 3425 25614 25619 3426 3364 25919 25924 3365
8 25614 25615 25620 25619 25919 25920 25925 25924
8 25615 25616 25621 25620 25920 25921 25926 25925
8 25616 25617 25622 25621 25921 25922 25927 25926
8 25617 25618 25623 25622 25922 25923 25928 25927
8 25618 9399 9398 25623 25923 9338 9337 25928
8 3426 25619 25624 3427 3365 25924 25929 3366
8 25619 25620 25625 25624 25924 25925 25930 25929
8 25620 25621 25626 25625 25925 25926 25931 25930
8 25621 25622 25627 25626 25926 25927 25932 25931
8 25622 25623 25628 25627 25927 25928 25933 25932
8 25623 9398 9397 25628 25928 9337 9336 25933
8 3427 25624 25629 3428 3366 25929 25934 3367
8 25624 25625 25630 25629 25929 25930 25935 25934
8 25625 25626 25631 25630 25930 25931 25936 25935
8 25626 25627 25632 25631 25931 25932 25937 25936
8 25627 25628 25633 25632 25932 25933 25938 25937
8 25628 9397 9396 25633 25933 9336 9335 25938
8 3428 25629 25634 3429 3367 25934 25939 3368
8 25629 25630 25635 25634 25934 25935 25940 25939
8 25630 25631 25636 25635 25935 25936 25941 25940
8 25631 25632 25637 25636 25936 25937 25942 25941
8 25632 25633 25638 25637 25937 25938 25943 25942
8 25633 9396 9395 25638 25938 9335 9334 25943
8 3429 25634 25639 3430 3368 25939 25944 3369
8 25634 25635 25640 25639 25939 25940 25945 25944
8 25635 25636 25641 25640 25940 25941 25946 25945
8 25636 25637 25642 25641 25941 25942 25947 25946
8 25637 25638 25643 25642 25942 25943 25948 25947
8 25638 9395 9394 25643 25943 9334 9333 25948
8 3430 25639 25644 3431 3369 25944 25949 3370
8 25639 25640 25645 25644 25944 25945 25950 25949
8 25640 25641 25646 25645 25945 25946 25951 25950
8 25641 25642 25647 25646 25946 25947 25952 25951
8 25642 25643 25648 25647 25947 25948 25953 25952
8 25643 9394 9393 25648 25948 9333 9332 25953
8 3431 25644 25649 3432 3370 25949 25954 3371
8 25644 25645 25650 25649 25949 25950 25955 25954
8 25645 25646 25651 25650 25950 25951 25956 25955
8 25646 25647 25652 25651 25951 25952 25957 25956
8 25647 25648 25653 25652 25952 25953 25958 25957
8 25648 9393 9392 25653 25953 9332 9331 25958
8 3432 25649 25654 3433 3371 25954 25959 3372
8 25649 25650 25655 25654 25954 25955 25960 25959
8 25650 25651 25656 25655 25955 25956 25961 25960
8 25651 25652 25657 25656 25956 25957 25962 25961
8 25652 25653 25658 25657 25957 25958 25963 25962
8 25653 9392 9391 25658 25958 9331 9330 25963
8 3433 25654 25659 3434 3372 25959 25964 3373
8 25654 25655 25660 25659 25959 25960 25965 25964
8 25655 25656 25661 25660 25960 25961 25966 25965
8 25656 25657 25662 25661 25961 25962 25967 25966
8 25657 25658 25663 25662 25962 25963 25968 25967
8 25658 9391 9390 25663 25963 9330 9329 25968
8 3434 25659 25664 3435 3373 25964 25969 3374
8 25659 25660 25665 25664 25964 25965 25970 25969
8 25660 25661 25666 25665 25965 25966 25971 25970
8 25661 25662 25667 25666 25966 25967 25972 25971
8 25662 25663 25668 25667 25967 25968 25973 25972
8 25663 9390 9389 25668 25968 9329 9328 25973
8 3435 25664 25669 3436 3374 25969 25974 3375
8 25664 25665 25670 25669 25969 25970 25975 25974
8 25665 25666 25671 25670 25970 25971 25976 25975
8 25666 25667 25672 25671 25971 25972 25977 25976
8 25667 25668 25673 25672 25972 25973 25978 25977
8 25668 9389 9388 25673 25973 9328 9327 25978
8 3436 25669 25674 3437 3375 25974 25979 3376
8 25669 25670 25675 25674 25974 25975 25980 25979
8 25670 25671 25676 25675 25975 25976 25981 25980
8 25671 25672 25677 25676 25976 25977 25982 25981
8 25672 25673 25678 25677 25977 25978 25983 25982
8 25673 9388 9387 25678 25978 9327 9326 25983
8 3437 25674 25679 3438 3376 25979 25984 3377
8 25674 25675 25680 25679 25979 25980 25985 25984
8 25675 25676 25681 25680 25980 25981 25986 25985
8 25676 25677 25682 25681 25981 25982 25987 25986
8 25677 25678 25683 25682 25982 25983 25988 25987
8 25678 9387 9386 25683 25983 9326 9325 25988
8 3438 25679 25684 3439 3377 25984 25989 3378
8 25679 25680 25685 25684 25984 25985 25990 25989
8 25680 25681 25686 25685 25985 25986 25991 25990
8 25681 25682 25687 25686 25986 25987 25992 25991
8 25682 25683 25688 25687 25987 25988 25993 25992
8 25683 9386 9385 25688 25988 9325 9324 25993
8 3439 25684 25689 3440 3378 25989 25994 3379
8 25684 25685 25690 25689 25989 25990 25995 25994
8 25685 25686 25691 25690 25990 25991 25996 25995
8 25686 25687 25692 25691 25991 25992 25997 25996
8 25687 25688 25693 25692 25992 25993 25998 25997
8 25688 9385 9384 25693 25993 9324 9323 25998
8 3440 25689 25694 3441 3379 25994 25999 3380
8 25689 25690 25695 25694 25994 25995 26000 25999
8 25690 25691 25696 25695 25995 25996 26001 26000
8 25691 25692 25697 25696 25996 25997 26002 26001
8 25692 25693 25698 25697 25997 25998 26003 26002
8 25693 9384 9383 25698 25998 9323 9322 26003
8 25694 25695 25700 25699 25999 26000 26005 26004
8 25695 25696 25701 25700 26000 26001 26006 26005
8 25696 25697 25702 25701 26001 26002 26007 26006
8 25697 25698 25703 25702 26002 26003 26008 26007
8 25698 9383 9382 25703 26003 9322 9321 26008
8 25699 25700 25705 25704 26004 26005 26010 26009
8 25700 25701 25706 25705 26005 26006 26011 26010
8 25701 25702 25707 25706 26006 26007 26012 26011
8 25702 25703 25708 25707 26007 26008 26013 26012
8 25703 9382 9381 25708 26008 9321 9320 26013
8 3443 25704 25709 3444 3382 26009 26014 3383
8 25704 25705 25710 25709 26009 26010 26015 26014
8 25705 25706 25711 25710 26010 26011 26016 26015
8 25706 25707 25712 25711 26011 26012 26017 26016
8 25707 25708 25713 25712 26012 26013 26018 26017
8 25708 9381 9380 25713 26013 9320 9319 26018
8 3444 25709 25714 3445 3383 26014 26019 3384
8 25709 25710 25715 25714 26014 26015 26020 26019
8 25710 25711 25716 25715 26015 26016 26021 26020
8 25711 25712 25717 25716 26016 26017 26022 26021
8 25712 25713 25718 25717 26017 26018 26023 26022
8 25713 9380 9379 25718 26018 9319 9318 26023
8 3445 25714 25719 3446 3384 26019 26024 3385
8 25714 25715 25720 25719 26019 26020 26025 26024
8 25715 25716 25721 25720 26020 26021 26026 26025
8 25716 25717 25722 25721 26021 26022 26027 26026
8 25717 25718 25723 25722 26022 26023 26028 26027
8 25718 9379 9378 25723 26023 9318 9317 26028
8 3446 25719 25724 3447 3385 26024 26029 3386
8 25719 25720 25725 25724 26024 26025 26030 26029
8 25720 25721 25726 25725 26025 26026 26031 26030
8 25721 25722 25727 25726 26026 26027 26032 26031
8 25722 25723 25728 25727 26027 26028 26033 26032
8 25723 9378 9377 25728 26028 9317 9316 26033
8 25724 25725 25730 25729 26029 26030 26035 26034
8 25725 25726 25731 25730 26030 26031 26036 26035
8 25726 25727 25732 25731 26031 26032 26037 26036
8 25727 25728 25733 25732 26032 26033 26038 26037
8 25728 9377 9376 25733 26033 9316 9315 26038
8 25729 25730 25735 25734 26034 26035 26040 26039
8 25730 25731 25736 25735 26035 26036 26041 26040
8 25731 25732 25737 25736 26036 26037 26042 26041
8 25732 25733 25738 25737 26037 26038 26043 26042
8 25733 9376 9375 25738 26038 9315 9314 26043
8 25734 25735 25740 25739 26039 26040 26045 26044
8 25735 25736 25741 25740 26040 26041 26046 26045
8 25736 25737 25742 25741 26041 26042 26047 26046
8 25737 25738 25743 25742 26042 26043 26048 26047
8 25738 9375 9374 25743 26043 9314 9313 26048
8 25739 25740 25745 25744 26044 26045 26050 26049
8 25740 25741 25746 25745 26045 26046 26051 26050
8 25741 25742 25747 25746 26046 26047 26052 26051
8 25742 25743 25748 25747 26047 26048 26053 26052
8 25743 9374 9373 25748 26048 9313 9312 26053
8 25744 25745 25750 25749 26049 26050 26055 26054
8 25745 25746 25751 25750 26050 26051 26056 26055
8 25746 25747 25752 25751 26051 26052 26057 26056
8 25747 25748 25753 25752 26052 26053 26058 26057
8 25748 9373 9372 25753 26053 9312 9311 26058
8 25749 25750 25755 25754 26054 26055 26060 26059
8 25750 25751 25756 25755 26055 26056 26061 26060
8 25751 25752 25757 25756 26056 26057 26062 26061
8 25752 25753 25758 25757 26057 26058 26063 26062
8 25753 9372 9371 25758 26058 9311 9310 26063
8 3453 25754 25759 3454 3392 26059 26064 3393
8 25754 25755 25760 25759 26059 26060 26065 26064
8 25755 25756 25761 25760 26060 26061 26066 26065
8 25756 25757 25762 25761 26061 26062 26067 26066
8 25757 25758 25763 25762 26062 26063 26068 26067
8 25758 9371 9370 25763 26063 9310 9309 26068
8 25759 25760 25765 25764 26064 26065 26070 26069
8 25760 25761 25766 25765 26065 26066 26071 26070
8 25761 25762 25767 25766 26066 26067 26072 26071
8 25762 25763 25768 25767 26067 26068 26073 26072
8 25763 9370 9369 25768 26068 9309 9308 26073
8 25764 25765 25770 25769 26069 26070 26075 26074
8 25765 25766 25771 25770 26070 26071 26076 26075
8 25766 25767 25772 25771 26071 26072 26077 26076
8 25767 25768 25773 25772 26072 26073 26078 26077
8 25768 9369 9368 25773 26073 9308 9307 26078
8 25769 25770 25775 25774 26074 26075 26080 26079
8 25770 25771 25776 25775 26075 26076 26081 26080
8 25771 25772 25777 25776 26076 26077 26082 26081
8 25772 25773 25778 25777 26077 26078 26083 26082
8 25773 9368 9367 25778 26078 9307 9306 26083
8 25774 25775 25780 25779 26079 26080 26085 26084
8 25775 25776 25781 25780 26080 26081 26086 26085
8 25776 25777 25782 25781 26081 26082 26087 26086
8 25777 25778 25783 25782 26082 26083 26088 26087
8 25778 9367 9366 25783 26083 9306 9305 26088
8 25779 25780 25785 25784 26084 26085 26090 26089
8 25780 25781 25786 25785 26085 26086 26091 26090
8 25781 25782 25787 25786 26086 26087 26092 26091
8 25782 25783 25788 25787 26087 26088 26093 26092
8 25783 9366 9365 25788 26088 9305 9304 26093
8 25784 25785 25790 25789 26089 26090 26095 26094
8 25785 25786 25791 25790 26090 26091 26096 26095
8 25786 25787 25792 25791 26091 26092 26097 26096
8 25787 25788 25793 25792 26092 26093 26098 26097
8 25788 9365 9364 25793 26093 9304 9303 26098
8 3460 25789 25794 3461 3399 26094 26099 3400
8 25789 25790 25795 25794 26094 26095 26100 26099
8 25790 25791 25796 25795 26095 26096 26101 26100
8 25791 25792 25797 25796 26096 26097 26102 26101
8 25792 25793 25798 25797 26097 26098 26103 26102
8 25793 9364 9363 25798 26098 9303 9302 26103
8 3461 25794 25799 3462 3400 26099 26104 3401
8 25794 25795 25800 25799 26099 26100 26105 26104
8 25795 25796 25801 25800 26100 26101 26106 26105
8 25796 25797 25802 25801 26101 26102 26107 26106
8 25797 25798 25803 25802 26102 26103 26108 26107
8 25798 9363 9362 25803 26103 9302 9301 26108
8 3462 25799 25804 3463 3401 26104 26109 3402
8 25799 25800 25805 25804 26104 26105 26110 26109
8 25800 25801 25806 25805 26105 26106 26111 26110
8 25801 25802 25807 25806 26106 26107 26112 26111
8 25802 25803 25808 25807 26107 26108 26113 26112
8 25803 9362 9361 25808 26108 9301 9300 26113
8 3463 25804 25809 3464 3402 26109 26114 3403
8 25804 25805 25810 25809 26109 26110 26115 26114
8 25805 25806 25811 25810 26110 26111 26116 26115
8 25806 25807 25812 25811 26111 26112 26117 26116
8 25807 25808 25813 25812 26112 26113 26118 26117
8 25808 9361 9360 25813 26113 9300 9299 26118
8 3464 25809 25814 3465 3403 26114 26119 3404
8 25809 25810 25815 25814 26114 26115 26120 26119
8 25810 25811 25816 25815 26115 26116 26121 26120
8 25811 25812 25817 25816 26116 26117 26122 26121
8 25812 25813 25818 25817 26117 26118 26123 26122
8 25813 9360 9359 25818 26118 9299 9298 26123
8 3465 25814 25819 3466 3404 26119 26124 3405
8 25814 25815 25820 25819 26119 26120 26125 26124
8 25815 25816 25821 25820 26120 26121 26126 26125
8 25816 25817 25822 25821 26121 26122 26127 26126
8 25817 25818 25823 25822 26122 26123 26128 26127
8 25818 9359 9358 25823 26123 9298 9297 26128
8 25819 25820 25825 25824 26124 26125 26130 26129
8 25820 25821 25826 25825 26125 26126 26131 26130
8 25821 25822 25827 25826 26126 26127 26132 26131
8 25822 25823 25828 25827 26127 26128 26133 26132
8 25823 9358 9357 25828 26128 9297 9296 26133
8 25824 25825 25830 25829 26129 26130 26135 26134
8 25825 25826 25831 25830 26130 26131 26136 26135
8 25826 25827 25832 25831 26131 26132 26137 26136
8 25827 25828 25833 25832 26132 26133 26138 26137
8 25828 9357 9356 25833 26133 9296 9295 26138
8 25829 25830 25835 25834 26134 26135 26140 26139
8 25830 25831 25836 25835 26135 26136 26141 26140
8 25831 25832 25837 25836 26136 26137 26142 26141
8 25832 25833 25838 25837 26137 26138 26143 26142
8 25833 9356 9355 25838 26138 9295 9294 26143
8 25834 25835 25840 25839 26139 26140 26145 26144
8 25835 25836 25841 25840 26140 26141 26146 26145
8 25836 25837 25842 25841 26141 26142 26147 26146
8 25837 25838 25843 25842 26142 26143 26148 26147
8 25838 9355 9354 25843 26143 9294 9293 26148
8 25839 25840 25845 25844 26144 26145 26150 26149
8 25840 25841 25846 25845 26145 26146 26151 26150
8 25841 25842 25847 25846 26146 26147 26152 26151
8 25842 25843 25848 25847 26147 26148 26153 26152
8 25843 9354 9353 25848 26148 9293 9292 26153
8 25844 25845 25850 25849 26149 26150 26155 26154
8 25845 25846 25851 25850 26150 26151 26156 26155
8 25846 25847 25852 25851 26151 26152 26157 26156
8 25847 25848 25853 25852 26152 26153 26158 26157
8 25848 9353 9352 25853 26153 9292 9291 26158
8 3472 25849 25854 3473 3411 26154 26159 3412
8 25849 25850 25855 25854 26154 26155 26160 26159
8 25850 25851 25856 25855 26155 26156 26161 26160
8 25851 25852 25857 25856 26156 26157 26162 26161
8 25852 25853 25858 25857 26157 26158 26163 26162
8 25853 9352 9351 25858 26158 9291 9290 26163
8 3473 25854 25859 3474 3412 26159 26164 3413
8 25854 25855 25860 25859 26159 26160 26165 26164
8 25855 25856 25861 25860 26160 26161 26166 26165
8 25856 25857 25862 25861 26161 26162 26167 26166
8 25857 25858 25863 25862 26162 26163 26168 26167
8 25858 9351 9350 25863 26163 9290 9289 26168
8 3474 25859 25864 3475 3413 26164 26169 3414
8 25859 25860 25865 25864 26164 26165 26170 26169
8 25860 25861 25866 25865 26165 26166 26171 26170
8 25861 25862 25867 25866 26166 26167 26172 26171
8 25862 25863 25868 25867 26167 26168 26173 26172
8 25863 9350 9349 25868 26168 9289 9288 26173
8 3475 25864 25869 3476 3414 26169 26174 3415
8 25864 25865 25870 25869 26169 26170 26175 26174
8 25865 25866 25871 25870 26170 26171 26176 26175
8 25866 25867 25872 25871 26171 26172 26177 26176
8 25867 25868 25873 25872 26172 26173 26178 26177
8 25868 9349 9348 25873 26173 9288 9287 26178
8 3476 25869 25874 3477 3415 26174 26179 3416
8 25869 25870 25875 25874 26174 26175 26180 26179
8 25870 25871 25876 25875 26175 26176 26181 26180
8 25871 25872 25877 25876 26176 26177 26182 26181
8 25872 25873 25878 25877 26177 26178 26183 26182
8 25873 9348 9347 25878 26178 9287 9286 26183
8 3477 25874 25879 3478 3416 26179 26184 3417
8 25874 25875 25880 25879 26179 26180 26185 26184
8 25875 25876 25881 25880 26180 26181 26186 26185
8 25876 25877 25882 25881 26181 26182 26187 26186
8 25877 25878 25883 25882 26182 26183 26188 26187
8 25878 9347 9346 25883 26183 9286 9285 26188
8 3478 25879 25884 3479 3417 26184 26189 3418
8 25879 25880 25885 25884 26184 26185 26190 26189
8 25880 25881 25886 25885 26185 26186 26191 26190
8 25881 25882 25887 25886 26186 26187 26192 26191
8 25882 25883 25888 25887 26187 26188 26193 26192
8 25883 9346 9345 25888 26188 9285 9284 26193
8 3479 25884 25889 3480 3418 26189 26194 3419
8 25884 25885 25890 25889 26189 26190 26195 26194
8 25885 25886 25891 25890 26190 26191 26196 26195
8 25886 25887 25892 25891 26191 26192 26197 26196
8 25887 25888 25893 25892 26192 26193 26198 26197
8 25888 9345 9344 25893 26193 9284 9283 26198
8 3480 25889 25894 3481 3419 26194 26199 3420
8 25889 25890 25895 25894 26194 26195 26200 26199
8 25890 25891 25896 25895 26195 26196 26201 26200
8 25891 25892 25897 25896 26196 26197 26202 26201
8 25892 25893 25898 25897 26197 26198 26203 26202
8 25893 9344 9343 25898 26198 9283 9282 26203
8 3481 25894 12884 115 3420 26199 12879 114
8 25894 25895 12885 12884 26199 26200 12880 12879
8 25895 25896 12886 12885 26200 26201 12881 12880
8 25896 25897 12887 12886 26201 26202 12882 12881
8 25897 25898 12888 12887 26202 26203 12883 12882
8 25898 9343 6180 12888 26203 9282 6181 12883
8 259 12059 25899 3360 260 12064 26204 3299
8 12059 12060 25900 25899 12064 12065 26205 26204
8 12060 12061 25901 25900 12065 12066 26206 26205
8 12061 12062 25902 25901 12066 12067 26207 26206
8 12062 12063 25903 25902 12067 12068 26208 26207
8 12063 6036 9342 25903 12068 6035 9281 26208
8 3360 25899 25904 3361 3299 26204 26209 3300
8 25899 25900 25905 25904 26204 26205 26210 26209
8 25900 25901 25906 25905 26205 26206 26211 26210
8 25901 25902 25907 25906 26206 26207 26212 26211
8 25902 25903 25908 25907 26207 26208 26213 26212
8 25903 9342 9341 25908 26208 9281 9280 26213
8 3361 25904 25909 3362 3300 26209 26214 3301
8 25904 25905 25910 25909 26209 26210 26215 26214
8 25905 25906 25911 25910 26210 26211 26216 26215
8 25906 25907 25912 25911 26211 26212 26217 26216
8 25907 25908 25913 25912 26212 26213 26218 26217
8 25908 9341 9340 25913 26213 9280 9279 26218
8 3362 25909 25914 3363 3301 26214 26219 3302
8 25909 25910 25915 25914 26214 26215 26220 26219
8 25910 25911 25916 25915 26215 26216 26221 26220
8 25911 25912 25917 25916 26216 26217 26222 26221
8 25912 25913 25918 25917 26217 26218 26223 26222
8 25913 9340 9339 25918 26218 9279 9278 26223
8 3363 25914 25919 3364 3302 26219 26224 3303
8 25914 25915 25920 25919 26219 26220 26225 26224
8 25915 25916 25921 25920 26220 26221 26226 26225
8 25916 25917 25922 25921 26221 26222 26227 26226
8 25917 25918 25923 25922 26222 26223 26228 26227
8 25918 9339 9338 25923 26223 9278 9277 26228
8 3364 25919 25924 3365 3303 26224 26229 3304
8 25919 25920 25925 25924 26224 26225 26230 26229
8 25920 25921 25926 25925 26225 26226 26231 26230
8 25921 25922 25927 25926 26226 26227 26232 26231
8 25922 25923 25928 25927 26227 26228 26233 26232
8 25923 9338 9337 25928 26228 9277 9276 26233
8 3365 25924 25929 3366 3304 26229 26234 3305
8 25924 25925 25930 25929 26229 26230 26235 26234
8 25925 25926 25931 25930 26230 26231 26236 26235
8 25926 25927 25932 25931 26231 26232 26237 26236
8 25927 25928 25933 25932 26232 26233 26238 26237
8 25928 9337 9336 25933 26233 9276 9275 26238
8 3366 25929 25934 3367 3305 26234 26239 3306
8 25929 25930 25935 25934 26234 26235 26240 26239
8 25930 25931 25936 25935 26235 26236 26241 26240
8 25931 25932 25937 25936 26236 26237 26242 26241
8 25932 25933 25938 25937 26237 26238 26243 26242
8 25933 9336 9335 25938 26238 9275 9274 26243
8 3367 25934 25939 3368 3306 26239 26244 3307
8 25934 25935 25940 25939 26239 26240 26245 26244
8 25935 25936 25941 25940 26240 26241 26246 26245
8 25936 25937 25942 25941 26241 26242 26247 26246
8 25937 25938 25943 25942 26242 26243 26248 26247
8 25938 9335 9334 25943 26243 9274 9273 26248
8 3368 25939 25944 3369 3307 26244 26249 3308
8 25939 25940 25945 25944 26244 26245 26250 26249
8 25940 25941 25946 25945 26245 26246 26251 26250
8 25941 25942 25947 25946 26246 26247 26252 26251
8 25942 25943 25948 25947 26247 26248 26253 26252
8 25943 9334 9333 25948 26248 9273 9272 26253
8 3369 25944 25949 3370 3308 26249 26254 3309
8 25944 25945 25950 25949 26249 26250 26255 26254
8 25945 25946 25951 25950 26250 26251 26256 26255
8 25946 25947 25952 25951 26251 26252 26257 26256
8 25947 25948 25953 25952 26252 26253 26258 26257
8 25948 9333 9332 25953 26253 9272 9271 26258
8 3370 25949 25954 3371 3309 26254 26259 3310
8 25949 25950 25955 25954 26254 26255 26260 26259
8 25950 25951 25956 25955 26255 26256 26261 26260
8 25951 25952 25957 25956 26256 26257 26262 26261
8 25952 25953 25958 25957 26257 26258 26263 26262
8 25953 9332 9331 25958 26258 9271 9270 26263
8 3371 25954 25959 3372 3310 26259 26264 3311
8 25954 25955 25960 25959 26259 26260 26265 26264
8 25955 25956 25961 25960 26260 26261 26266 26265
8 25956 25957 25962 25961 26261 26262 26267 26266
8 25957 25958 25963 25962 26262 26263 26268 26267
8 25958 9331 9330 25963 26263 9270 9269 26268
8 3372 25959 25964 3373 3311 26264 26269 3312
8 25959 25960 25965 25964 26264 26265 26270 26269
8 25960 25961 25966 25965 26265 26266 26271 26270
8 25961 25962 25967 25966 26266 26267 26272 26271
8 25962 25963 25968 25967 26267 26268 26273 26272
8 25963 9330 9329 25968 26268 9269 9268 26273
8 3373 25964 25969 3374 3312 26269 26274 3313
8 25964 25965 25970 25969 26269 26270 26275 26274
8 25965 25966 25971 25970 26270 26271 26276 26275
8 25966 25967 25972 25971 26271 26272 26277 26276
8 25967 25968 25973 25972 26272 26273 26278 26277
8 25968 9329 9328 25973 26273 9268 9267 26278
8 3374 25969 25974 3375 3313 26274 26279 3314
8 25969 25970 25975 25974 26274 26275 26280 26279
8 25970 25971 25976 25975 26275 26276 26281 26280
8 25971 25972 25977 25976 26276 26277 26282 26281
8 25972 25973 25978 25977 26277 26278 26283 26282
8 25973 9328 9327 25978 26278 9267 9266 26283
8 3375 25974 25979 3376 3314 26279 26284 3315
8 25974 25975 25980 25979 26279 26280 26285 26284
8 25975 25976 25981 25980 26280 26281 26286 26285
8 25976 25977 25982 25981 26281 26282 26287 26286
8 25977 25978 25983 25982 26282 26283 26288 26287
8 25978 9327 9326 25983 26283 9266 9265 26288
8 3376 25979 25984 3377 3315 26284 26289 3316
8 25979 25980 25985 25984 26284 26285 26290 26289
8 25980 25981 25986 25985 26285 26286 26291 26290
8 25981 25982 25987 25986 26286 26287 26292 26291
8 25982 25983 25988 25987 26287 26288 26293 26292
8 25983 9326 9325 25988 26288 9265 9264 26293
8 3377 25984 25989 3378 3316 26289 26294 3317
8 25984 25985 25990 25989 26289 26290 26295 26294
8 25985 25986 25991 25990 26290 26291 26296 26295
8 25986 25987 25992 25991 26291 26292 26297 26296
8 25987 25988 25993 25992 26292 26293 26298 26297
8 25988 9325 9324 25993 26293 9264 9263 26298
8 3378 25989 25994 3379 3317 26294 26299 3318
8 25989 25990 25995 25994 26294 26295 26300 26299
8 25990 25991 25996 25995 26295 26296 26301 26300
8 25991 25992 25997 25996 26296 26297 26302 26301
8 25992 25993 25998 25997 26297 26298 26303 26302
8 25993 9324 9323 25998 26298 9263 9262 26303
8 3379 25994 25999 3380 3318 26299 26304 3319
8 25994 25995 26000 25999 26299 26300 26305 26304
8 25995 25996 26001 26000 26300 26301 26306 26305
8 25996 25997 26002 26001 26301 26302 26307 26306
8 25997 25998 26003 26002 26302 26303 26308 26307
8 25998 9323 9322 26003 26303 9262 9261 26308
8 25999 26000 26005 26004 26304 26305 26310 26309
8 26000 26001 26006 26005 26305 26306 26311 26310
8 26001 26002 26007 26006 26306 26307 26312 26311
8 26002 26003 26008 26007 26307 26308 26313 26312
8 26003 9322 9321 26008 26308 9261 9260 26313
8 26004 26005 26010 26009 26309 26310 26315 26314
8 26005 26006 26011 26010 26310 26311 26316 26315
8 26006 26007 26012 26011 26311 26312 26317 26316
8 26007 26008 26013 26012 26312 26313 26318 26317
8 26008 9321 9320 26013 26313 9260 9259 26318
8 3382 26009 26014 3383 3321 26314 26319 3322
8 26009 26010 26015 26014 26314 26315 26320 26319
8 26010 26011 26016 26015 26315 26316 26321 26320
8 26011 26012 26017 26016 26316 26317 26322 26321
8 26012 26013 26018 26017 26317 26318 26323 26322
8 26013 9320 9319 26018 26318 9259 9258 26323
8 3383 26014 26019 3384 3322 26319 26324 3323
8 26014 26015 26020 26019 26319 26320 26325 26324
8 26015 26016 26021 26020 26320 26321 26326 26325
8 26016 26017 26022 26021 26321 26322 26327 26326
8 26017 26018 26023 26022 26322 26323 26328 26327
8 26018 9319 9318 26023 26323 9258 9257 26328
8 3384 26019 26024 3385 3323 26324 26329 3324
8 26019 26020 26025 26024 26324 26325 26330 26329
8 26020 26021 26026 26025 26325 26326 26331 26330
8 26021 26022 26027 26026 26326 26327 26332 26331
8 26022 26023 26028 26027 26327 26328 26333 26332
8 26023 9318 9317 26028 26328 9257 9256 26333
8 3385 26024 26029 3386 3324 26329 26334 3325
8 26024 26025 26030 26029 26329 26330 26335 26334
8 26025 26026 26031 26030 26330 26331 26336 26335
8 26026 26027 26032 26031 26331 26332 26337 26336
8 26027 26028 26033 26032 26332 26333 26338 26337
8 26028 9317 9316 26033 26333 9256 9255 26338
8 26029 26030 26035 26034 26334 26335 26340 26339
8 26030 26031 26036 26035 26335 26336 26341 26340
8 26031 26032 26037 26036 26336 26337 26342 26341
8 26032 26033 26038 26037 26337 26338 26343 26342
8 26033 9316 9315 26038 26338 9255 9254 26343
8 26034 26035 26040 26039 26339 26340 26345 26344
8 26035 26036 26041 26040 26340 26341 26346 26345
8 26036 26037 26042 26041 26341 26342 26347 26346
8 26037 26038 26043 26042 26342 26343 26348 26347
8 26038 9315 9314 26043 26343 9254 9253 26348
8 26039 26040 26045 26044 26344 26345 26350 26349
8 26040 26041 26046 26045 26345 26346 26351 26350
8 26041 26042 26047 26046 26346 26347 26352 26351
8 26042 26043 26048 26047 26347 26348 26353 26352
8 26043 9314 9313 26048 26348 9253 9252 26353
8 26044 26045 26050 26049 26349 26350 26355 26354
8 26045 26046 26051 26050 26350 26351 26356 26355
8 26046 26047 26052 26051 26351 26352 26357 26356
8 26047 26048 26053 26052 26352 26353 26358 26357
8 26048 9313 9312 26053 26353 9252 9251 26358
8 26049 26050 26055 26054 26354 26355 26360 26359
8 26050 26051 26056 26055 26355 26356 26361 26360
8 26051 26052 26057 26056 26356 26357 26362 26361
8 26052 26053 26058 26057 26357 26358 26363 26362
8 26053 9312 9311 26058 26358 9251 9250 26363
8 3391 26054 26059 3392 3330 26359 26364 3331
8 26054 26055 26060 26059 26359 26360 26365 26364
8 26055 26056 26061 26060 26360 26361 26366 26365
8 26056 26057 26062 26061 26361 26362 26367 26366
8 26057 26058 26063 26062 26362 26363 26368 26367
8 26058 9311 9310 26063 26363 9250 9249 26368
8 3392 26059 26064 3393 3331 26364 26369 3332
8 26059 26060 26065 26064 26364 26365 26370 26369
8 26060 26061 26066 26065 26365 26366 26371 26370
8 26061 26062 26067 26066 26366 26367 26372 26371
8 26062 26063 26068 26067 26367 26368 26373 26372
8 26063 9310 9309 26068 26368 9249 9248 26373
8 26064 26065 26070 26069 26369 26370 26375 26374
8 26065 26066 26071 26070 26370 26371 26376 26375
8 26066 26067 26072 26071 26371 26372 26377 26376
8 26067 26068 26073 26072 26372 26373 26378 26377
8 26068 9309 9308 26073 26373 9248 9247 26378
8 26069 26070 26075 26074 26374 26375 26380 26379
8 26070 26071 26076 26075 26375 26376 26381 26380
8 26071 26072 26077 26076 26376 26377 26382 26381
8 26072 26073 26078 26077 26377 26378 26383 26382
8 26073 9308 9307 26078 26378 9247 9246 26383
8 26074 26075 26080 26079 26379 26380 26385 26384
8 26075 26076 26081 26080 26380 26381 26386 26385
8 26076 26077 26082 26081 26381 26382 26387 26386
8 26077 26078 26083 26082 26382 26383 26388 26387
8 26078 9307 9306 26083 26383 9246 9245 26388
8 26079 26080 26085 26084 26384 26385 26390 26389
8 26080 26081 26086 26085 26385 26386 26391 26390
8 26081 26082 26087 26086 26386 26387 26392 26391
8 26082 26083 26088 26087 26387 26388 26393 26392
8 26083 9306 9305 26088 26388 9245 9244 26393
8 26084 26085 26090 26089 26389 26390 26395 26394
8 26085 26086 26091 26090 26390 26391 26396 26395
8 26086 26087 26092 26091 26391 26392 26397 26396
8 26087 26088 26093 26092 26392 26393 26398 26397
8 26088 9305 9304 26093 26393 9244 9243 26398
8 26089 26090 26095 26094 26394 26395 26400 26399
8 26090 26091 26096 26095 26395 26396 26401 26400
8 26091 26092 26097 26096 26396 26397 26402 26401
8 26092 26093 26098 26097 26397 26398 26403 26402
8 26093 9304 9303 26098 26398 9243 9242 26403
8 3399 26094 26099 3400 3338 26399 26404 3339
8 26094 26095 26100 26099 26399 26400 26405 26404
8 26095 26096 26101 26100 26400 26401 26406 26405
8 26096 26097 26102 26101 26401 26402 26407 26406
8 26097 26098 26103 26102 26402 26403 26408 26407
8 26098 9303 9302 26103 26403 9242 9241 26408
8 3400 26099 26104 3401 3339 26404 26409 3340
8 26099 26100 26105 26104 26404 26405 26410 26409
8 26100 26101 26106 26105 26405 26406 26411 26410
8 26101 26102 26107 26106 26406 26407 26412 26411
8 26102 26103 26108 26107 26407 26408 26413 26412
8 26103 9302 9301 26108 26408 9241 9240 26413
8 3401 26104 26109 3402 3340 26409 26414 3341
8 26104 26105 26110 26109 26409 26410 26415 26414
8 26105 26106 26111 26110 26410 26411 26416 26415
8 26106 26107 26112 26111 26411 26412 26417 26416
8 26107 26108 26113 26112 26412 26413 26418 26417
8 26108 9301 9300 26113 26413 9240 9239 26418
8 3402 26109 26114 3403 3341 26414 26419 3342
8 26109 26110 26115 26114 26414 26415 26420 26419
8 26110 26111 26116 26115 26415 26416 26421 26420
8 26111 26112 26117 26116 26416 26417 26422 26421
8 26112 26113 26118 26117 26417 26418 26423 26422
8 26113 9300 9299 26118 26418 9239 9238 26423
8 3403 26114 26119 3404 3342 26419 26424 3343
8 26114 26115 26120 26119 26419 26420 26425 26424
8 26115 26116 26121 26120 26420 26421 26426 26425
8 26116 26117 26122 26121 26421 26422 26427 26426
8 26117 26118 26123 26122 26422 26423 26428 26427
8 26118 9299 9298 26123 26423 9238 9237 26428
8 3404 26119 26124 3405 3343 26424 26429 3344
8 26119 26120 26125 26124 26424 26425 26430 26429
8 26120 26121 26126 26125 26425 26426 26431 26430
8 26121 26122 26127 26126 26426 26427 26432 26431
8 26122 26123 26128 26127 26427 26428 26433 26432
8 26123 9298 9297 26128 26428 9237 9236 26433
8 26124 26125 26130 26129 26429 26430 26435 26434
8 26125 26126 26131 26130 26430 26431 26436 26435
8 26126 26127 26132 26131 26431 26432 26437 26436
8 26127 26128 26133 26132 26432 26433 26438 26437
8 26128 9297 9296 26133 26433 9236 9235 26438
8 26129 26130 26135 26134 26434 26435 26440 26439
8 26130 26131 26136 26135 26435 26436 26441 26440
8 26131 26132 26137 26136 26436 26437 26442 26441
8 26132 26133 26138 26137 26437 26438 26443 26442
8 26133 9296 9295 26138 26438 9235 9234 26443
8 26134 26135 26140 26139 26439 26440 26445 26444
8 26135 26136 26141 26140 26440 26441 26446 26445
8 26136 26137 26142 26141 26441 26442 26447 26446
8 26137 26138 26143 26142 26442 26443 26448 26447
8 26138 9295 9294 26143 26443 9234 9233 26448
8 26139 26140 26145 26144 26444 26445 26450 26449
8 26140 26141 26146 26145 26445 26446 26451 26450
8 26141 26142 26147 26146 26446 26447 26452 26451
8 26142 26143 26148 26147 26447 26448 26453 26452
8 26143 9294 9293 26148 26448 9233 9232 26453
8 26144 26145 26150 26149 26449 26450 26455 26454
8 26145 26146 26151 26150 26450 26451 26456 26455
8 26146 26147 26152 26151 26451 26452 26457 26456
8 26147 26148 26153 26152 26452 26453 26458 26457
8 26148 9293 9292 26153 26453 9232 9231 26458
8 26149 26150 26155 26154 26454 26455 26460 26459
8 26150 26151 26156 26155 26455 26456 26461 26460
8 26151 26152 26157 26156 26456 26457 26462 26461
8 26152 26153 26158 26157 26457 26458 26463 26462
8 26153 9292 9291 26158 26458 9231 9230 26463
8 3411 26154 26159 3412 3350 26459 26464 3351
8 26154 26155 26160 26159 26459 26460 26465 26464
8 26155 26156 26161 26160 26460 26461 26466 26465
8 26156 26157 26162 26161 26461 26462 26467 26466
8 26157 26158 26163 26162 26462 26463 26468 26467
8 26158 9291 9290 26163 26463 9230 9229 26468
8 3412 26159 26164 3413 3351 26464 26469 3352
8 26159 26160 26165 26164 26464 26465 26470 26469
8 26160 26161 26166 26165 26465 26466 26471 26470
8 26161 26162 26167 26166 26466 26467 26472 26471
8 26162 26163 26168 26167 26467 26468 26473 26472
8 26163 9290 9289 26168 26468 9229 9228 26473
8 3413 26164 26169 3414 3352 26469 26474 3353
8 26164 26165 26170 26169 26469 26470 26475 26474
8 26165 26166 26171 26170 26470 26471 26476 26475
8 26166 26167 26172 26171 26471 26472 26477 26476
8 26167 26168 26173 26172 26472 26473 26478 26477
8 26168 9289 9288 26173 26473 9228 9227 26478
8 3414 26169 26174 3415 3353 26474 26479 3354
8 26169 26170 26175 26174 26474 26475 26480 26479
8 26170 26171 26176 26175 26475 26476 26481 26480
8 26171 26172 26177 26176 26476 26477 26482 26481
8 26172 26173 26178 26177 26477 26478 26483 26482
8 26173 9288 9287 26178 26478 9227 9226 26483
8 3415 26174 26179 3416 3354 26479 26484 3355
8 26174 26175 26180 26179 26479 26480 26485 26484
8 26175 26176 26181 26180 26480 26481 26486 26485
8 26176 26177 26182 26181 26481 26482 26487 26486
8 26177 26178 26183 26182 26482 26483 26488 26487
8 26178 9287 9286 26183 26483 9226 9225 26488
8 3416 26179 26184 3417 3355 26484 26489 3356
8 26179 26180 26185 26184 26484 26485 26490 26489
8 26180 26181 26186 26185 26485 26486 26491 26490
8 26181 26182 26187 26186 26486 26487 26492 26491
8 26182 26183 26188 26187 26487 26488 26493 26492
8 26183 9286 9285 26188 26488 9225 9224 26493
8 3417 26184 26189 3418 3356 26489 26494 3357
8 26184 26185 26190 26189 26489 26490 26495 26494
8 26185 26186 26191 26190 26490 26491 26496 26495
8 26186 26187 26192 26191 26491 26492 26497 26496
8 26187 26188 26193 26192 26492 26493 26498 26497
8 26188 9285 9284 26193 26493 9224 9223 26498
8 3418 26189 26194 3419 3357 26494 26499 3358
8 26189 26190 26195 26194 26494 26495 26500 26499
8 26190 26191 26196 26195 26495 26496 26501 26500
8 26191 26192 26197 26196 26496 26497 26502 26501
8 26192 26193 26198 26197 26497 26498 26503 26502
8 26193 9284 9283 26198 26498 9223 9222 26503
8 3419 26194 26199 3420 3358 26499 26504 3359
8 26194 26195 26200 26199 26499 26500 26505 26504
8 26195 26196 26201 26200 26500 26501 26506 26505
8 26196 26197 26202 26201 26501 26502 26507 26506
8 26197 26198 26203 26202 26502 26503 26508 26507
8 26198 9283 9282 26203 26503 9222 9221 26508
8 3420 26199 12879 114 3359 26504 12874 113
8 26199 26200 12880 12879 26504 26505 12875 12874
8 26200 26201 12881 12880 26505 26506 12876 12875
8 26201 26202 12882 12881 26506 26507 12877 12876
8 26202 26203 12883 12882 26507 26508 12878 12877
8 26203 9282 6181 12883 26508 9221 6182 12878
8 260 12064 26204 3299 261 12069 26509 3238
8 12064 12065 26205 26204 12069 12070 26510 26509
8 12065 12066 26206 26205 12070 12071 26511 26510
8 12066 12067 26207 26206 12071 12072 26512 26511
8 12067 12068 26208 26207 12072 12073 26513 26512
8 12068 6035 9281 26208 12073 6034 9220 26513
8 3299 26204 26209 3300 3238 26509 26514 3239
8 26204 26205 26210 26209 26509 26510 26515 26514
8 26205 26206 26211 26210 26510 26511 26516 26515
8 26206 26207 26212 26211 26511 26512 26517 26516
8 26207 26208 26213 26212 26512 26513 26518 26517
8 26208 9281 9280 26213 26513 9220 9219 26518
8 3300 26209 26214 3301 3239 26514 26519 3240
8 26209 26210 26215 26214 26514 26515 26520 26519
8 26210 26211 26216 26215 26515 26516 26521 26520
8 26211 26212 26217 26216 26516 26517 26522 26521
8 26212 26213 26218 26217 26517 26518 26523 26522
8 26213 9280 9279 26218 26518 9219 9218 26523
8 3301 26214 26219 3302 3240 26519 26524 3241
8 26214 26215 26220 26219 26519 26520 26525 26524
8 26215 26216 26221 26220 26520 26521 26526 26525
8 26216 26217 26222 26221 26521 26522 26527 26526
8 26217 26218 26223 26222 26522 26523 26528 26527
8 26218 9279 9278 26223 26523 9218 9217 26528
8 3302 26219 26224 3303 3241 26524 26529 3242
8 26219 26220 26225 26224 26524 26525 26530 26529
8 26220 26221 26226 26225 26525 26526 26531 26530
8 26221 26222 26227 26226 26526 26527 26532 26531
8 26222 26223 26228 26227 26527 26528 26533 26532
8 26223 9278 9277 26228 26528 9217 9216 26533
8 3303 26224 26229 3304 3242 26529 26534 3243
8 26224 26225 26230 26229 26529 26530 26535 26534
8 26225 26226 26231 26230 26530 26531 26536 26535
8 26226 26227 26232 26231 26531 26532 26537 26536
8 26227 26228 26233 26232 26532 26533 26538 26537
8 26228 9277 9276 26233 26533 9216 9215 26538
8 3304 26229 26234 3305 3243 26534 26539 3244
8 26229 26230 26235 26234 26534 26535 26540 26539
8 26230 26231 26236 26235 26535 26536 26541 26540
8 26231 26232 26237 26236 26536 26537 26542 26541
8 26232 26233 26238 26237 26537 26538 26543 26542
8 26233 9276 9275 26238 26538 9215 9214 26543
8 3305 26234 26239 3306 3244 26539 26544 3245
8 26234 26235 26240 26239 26539 26540 26545 26544
8 26235 26236 26241 26240 26540 26541 26546 26545
8 26236 26237 26242 26241 26541 26542 26547 26546
8 26237 26238 26243 26242 26542 26543 26548 26547
8 26238 9275 9274 26243 26543 9214 9213 26548
8 3306 26239 26244 3307 3245 26544 26549 3246
8 26239 26240 26245 26244 26544 26545 26550 26549
8 26240 26241 26246 26245 26545 26546 26551 26550
8 26241 26242 26247 26246 26546 26547 26552 26551
8 26242 26243 26248 26247 26547 26548 26553 26552
8 26243 9274 9273 26248 26548 9213 9212 26553
8 3307 26244 26249 3308 3246 26549 26554 3247
8 26244 26245 26250 26249 26549 26550 26555 26554
8 26245 26246 26251 26250 26550 26551 26556 26555
8 26246 26247 26252 26251 26551 26552 26557 26556
8 26247 26248 26253 26252 26552 26553 26558 26557
8 26248 9273 9272 26253 26553 9212 9211 26558
8 3308 26249 26254 3309 3247 26554 26559 3248
8 26249 26250 26255 26254 26554 26555 26560 26559
8 26250 26251 26256 26255 26555 26556 26561 26560
8 26251 26252 26257 26256 26556 26557 26562 26561
8 26252 26253 26258 26257 26557 26558 26563 26562
8 26253 9272 9271 26258 26558 9211 9210 26563
8 3309 26254 26259 3310 3248 26559 26564 3249
8 26254 26255 26260 26259 26559 26560 26565 26564
8 26255 26256 26261 26260 26560 26561 26566 26565
8 26256 26257 26262 26261 26561 26562 26567 26566
8 26257 26258 26263 26262 26562 26563 26568 26567
8 26258 9271 9270 26263 26563 9210 9209 26568
8 3310 26259 26264 3311 3249 26564 26569 3250
8 26259 26260 26265 26264 26564 26565 26570 26569
8 26260 26261 26266 26265 26565 26566 26571 26570
8 26261 26262 26267 26266 26566 26567 26572 26571
8 26262 26263 26268 26267 26567 26568 26573 26572
8 26263 9270 9269 26268 26568 9209 9208 26573
8 3311 26264 26269 3312 3250 26569 26574 3251
8 26264 26265 26270 26269 26569 26570 26575 26574
8 26265 26266 26271 26270 26570 26571 26576 26575
8 26266 26267 26272 26271 26571 26572 26577 26576
8 26267 26268 26273 26272 26572 26573 26578 26577
8 26268 9269 9268 26273 26573 9208 9207 26578
8 3312 26269 26274 3313 3251 26574 26579 3252
8 26269 26270 26275 26274 26574 26575 26580 26579
8 26270 26271 26276 26275 26575 26576 26581 26580
8 26271 26272 26277 26276 26576 26577 26582 26581
8 26272 26273 26278 26277 26577 26578 26583 26582
8 26273 9268 9267 26278 26578 9207 9206 26583
8 3313 26274 26279 3314 3252 26579 26584 3253
8 26274 26275 26280 26279 26579 26580 26585 26584
8 26275 26276 26281 26280 26580 26581 26586 26585
8 26276 26277 26282 26281 26581 26582 26587 26586
8 26277 26278 26283 26282 26582 26583 26588 26587
8 26278 9267 9266 26283 26583 9206 9205 26588
8 3314 26279 26284 3315 3253 26584 26589 3254
8 26279 26280 26285 26284 26584 26585 26590 26589
8 26280 26281 26286 26285 26585 26586 26591 26590
8 26281 26282 26287 26286 26586 26587 26592 26591
8 26282 26283 26288 26287 26587 26588 26593 26592
8 26283 9266 9265 26288 26588 9205 9204 26593
8 3315 26284 26289 3316 3254 26589 26594 3255
8 26284 26285 26290 26289 26589 26590 26595 26594
8 26285 26286 26291 26290 26590 26591 26596 26595
8 26286 26287 26292 26291 26591 26592 26597 26596
8 26287 26288 26293 26292 26592 26593 26598 26597
8 26288 9265 9264 26293 26593 9204 9203 26598
8 3316 26289 26294 3317 3255 26594 26599 3256
8 26289 26290 26295 26294 26594 26595 26600 26599
8 26290 26291 26296 26295 26595 26596 26601 26600
8 26291 26292 26297 26296 26596 26597 26602 26601
8 26292 26293 26298 26297 26597 26598 26603 26602
8 26293 9264 9263 26298 26598 9203 9202 26603
8 3317 26294 26299 3318 3256 26599 26604 3257
8 26294 26295 26300 26299 26599 26600 26605 26604
8 26295 26296 26301 26300 26600 26601 26606 26605
8 26296 26297 26302 26301 26601 26602 26607 26606
8 26297 26298 26303 26302 26602 26603 26608 26607
8 26298 9263 9262 26303 26603 9202 9201 26608
8 3318 26299 26304 3319 3257 26604 26609 3258
8 26299 26300 26305 26304 26604 26605 26610 26609
8 26300 26301 26306 26305 26605 26606 26611 26610
8 26301 26302 26307 26306 26606 26607 26612 26611
8 26302 26303 26308 26307 26607 26608 26613 26612
8 26303 9262 9261 26308 26608 9201 9200 26613
8 26304 26305 26310 26309 26609 26610 26615 26614
8 26305 26306 26311 26310 26610 26611 26616 26615
8 26306 26307 26312 26311 26611 26612 26617 26616
8 26307 26308 26313 26312 26612 26613 26618 26617
8 26308 9261 9260 26313 26613 9200 9199 26618
8 26309 26310 26315 26314 26614 26615 26620 26619
8 26310 26311 26316 26315 26615 26616 26621 26620
8 26311 26312 26317 26316 26616 26617 26622 26621
8 26312 26313 26318 26317 26617 26618 26623 26622
8 26313 9260 9259 26318 26618 9199 9198 26623
8 3321 26314 26319 3322 3260 26619 26624 3261
8 26314 26315 26320 26319 26619 26620 26625 26624
8 26315 26316 26321 26320 26620 26621 26626 26625
8 26316 26317 26322 26321 26621 26622 26627 26626
8 26317 26318 26323 26322 26622 26623 26628 26627
8 26318 9259 9258 26323 26623 9198 9197 26628
8 3322 26319 26324 3323 3261 26624 26629 3262
8 26319 26320 26325 26324 26624 26625 26630 26629
8 26320 26321 26326 26325 26625 26626 26631 26630
8 26321 26322 26327 26326 26626 26627 26632 26631
8 26322 26323 26328 26327 26627 26628 26633 26632
8 26323 9258 9257 26328 26628 9197 9196 26633
8 3323 26324 26329 3324 3262 26629 26634 3263
8 26324 26325 26330 26329 26629 26630 26635 26634
8 26325 26326 26331 26330 26630 26631 26636 26635
8 26326 26327 26332 26331 26631 26632 26637 26636
8 26327 26328 26333 26332 26632 26633 26638 26637
8 26328 9257 9256 26333 26633 9196 9195 26638
8 3324 26329 26334 3325 3263 26634 26639 3264
8 26329 26330 26335 26334 26634 26635 26640 26639
8 26330 26331 26336 26335 26635 26636 26641 26640
8 26331 26332 26337 26336 26636 26637 26642 26641
8 26332 26333 26338 26337 26637 26638 26643 26642
8 26333 9256 9255 26338 26638 9195 9194 26643
8 26334 26335 26340 26339 26639 26640 26645 26644
8 26335 26336 26341 26340 26640 26641 26646 26645
8 26336 26337 26342 26341 26641 26642 26647 26646
8 26337 26338 26343 26342 26642 26643 26648 26647
8 26338 9255 9254 26343 26643 9194 9193 26648
8 26339 26340 26345 26344 26644 26645 26650 26649
8 26340 26341 26346 26345 26645 26646 26651 26650
8 26341 26342 26347 26346 26646 26647 26652 26651
8 26342 26343 26348 26347 26647 26648 26653 26652
8 26343 9254 9253 26348 26648 9193 9192 26653
8 26344 26345 26350 26349 26649 26650 26655 26654
8 26345 26346 26351 26350 26650 26651 26656 26655
8 26346 26347 26352 26351 26651 26652 26657 26656
8 26347 26348 26353 26352 26652 26653 26658 26657
8 26348 9253 9252 26353 26653 9192 9191 26658
8 26349 26350 26355 26354 26654 26655 26660 26659
8 26350 26351 26356 26355 26655 26656 26661 26660
8 26351 26352 26357 26356 26656 26657 26662 26661
8 26352 26353 26358 26357 26657 26658 26663 26662
8 26353 9252 9251 26358 26658 9191 9190 26663
8 26354 26355 26360 26359 26659 26660 26665 26664
8 26355 26356 26361 26360 26660 26661 26666 26665
8 26356 26357 26362 26361 26661 26662 26667 26666
8 26357 26358 26363 26362 26662 26663 26668 26667
8 26358 9251 9250 26363 26663 9190 9189 26668
8 3330 26359 26364 3331 3269 26664 26669 3270
8 26359 26360 26365 26364 26664 26665 26670 26669
8 26360 26361 26366 26365 26665 26666 26671 26670
8 26361 26362 26367 26366 26666 26667 26672 26671
8 26362 26363 26368 26367 26667 26668 26673 26672
8 26363 9250 9249 26368 26668 9189 9188 26673
8 3331 26364 26369 3332 3270 26669 26674 3271
8 26364 26365 26370 26369 26669 26670 26675 26674
8 26365 26366 26371 26370 26670 26671 26676 26675
8 26366 26367 26372 26371 26671 26672 26677 26676
8 26367 26368 26373 26372 26672 26673 26678 26677
8 26368 9249 9248 26373 26673 9188 9187 26678
8 3332 26369 26374 3333 3271 26674 26679 3272
8 26369 26370 26375 26374 26674 26675 26680 26679
8 26370 26371 26376 26375 26675 26676 26681 26680
8 26371 26372 26377 26376 26676 26677 26682 26681
8 26372 26373 26378 26377 26677 26678 26683 26682
8 26373 9248 9247 26378 26678 9187 9186 26683
8 3333 26374 26379 3334 3272 26679 26684 3273
8 26374 26375 26380 26379 26679 26680 26685 26684
8 26375 26376 26381 26380 26680 26681 26686 26685
8 26376 26377 26382 26381 26681 26682 26687 26686
8 26377 26378 26383 26382 26682 26683 26688 26687
8 26378 9247 9246 26383 26683 9186 9185 26688
8 3334 26379 26384 3335 3273 26684 26689 3274
8 26379 26380 26385 26384 26684 26685 26690 26689
8 26380 26381 26386 26385 26685 26686 26691 26690
8 26381 26382 26387 26386 26686 26687 26692 26691
8 26382 26383 26388 26387 26687 26688 26693 26692
8 26383 9246 9245 26388 26688 9185 9184 26693
8 26384 26385 26390 26389 26689 26690 26695 26694
8 26385 26386 26391 26390 26690 26691 26696 26695
8 26386 26387 26392 26391 26691 26692 26697 26696
8 26387 26388 26393 26392 26692 26693 26698 26697
8 26388 9245 9244 26393 26693 9184 9183 26698
8 26389 26390 26395 26394 26694 26695 26700 26699
8 26390 26391 26396 26395 26695 26696 26701 26700
8 26391 26392 26397 26396 26696 26697 26702 26701
8 26392 26393 26398 26397 26697 26698 26703 26702
8 26393 9244 9243 26398 26698 9183 9182 26703
8 26394 26395 26400 26399 26699 26700 26705 26704
8 26395 26396 26401 26400 26700 26701 26706 26705
8 26396 26397 26402 26401 26701 26702 26707 26706
8 26397 26398 26403 26402 26702 26703 26708 26707
8 26398 9243 9242 26403 26703 9182 9181 26708
8 26399 26400 26405 26404 26704 26705 26710 26709
8 26400 26401 26406 26405 26705 26706 26711 26710
8 26401 26402 26407 26406 26706 26707 26712 26711
8 26402 26403 26408 26407 26707 26708 26713 26712
8 26403 9242 9241 26408 26708 9181 9180 26713
8 26404 26405 26410 26409 26709 26710 26715 26714
8 26405 26406 26411 26410 26710 26711 26716 26715
8 26406 26407 26412 26411 26711 26712 26717 26716
8 26407 26408 26413 26412 26712 26713 26718 26717
8 26408 9241 9240 26413 26713 9180 9179 26718
8 3340 26409 26414 3341 3279 26714 26719 3280
8 26409 26410 26415 26414 26714 26715 26720 26719
8 26410 26411 26416 26415 26715 26716 26721 26720
8 26411 26412 26417 26416 26716 26717 26722 26721
8 26412 26413 26418 26417 26717 26718 26723 26722
8 26413 9240 9239 26418 26718 9179 9178 26723
8 3341 26414 26419 3342 3280 26719 26724 3281
8 26414 26415 26420 26419 26719 26720 26725 26724
8 26415 26416 26421 26420 26720 26721 26726 26725
8 26416 26417 26422 26421 26721 26722 26727 26726
8 26417 26418 26423 26422 26722 26723 26728 26727
8 26418 9239 9238 26423 26723 9178 9177 26728
8 3342 26419 26424 3343 3281 26724 26729 3282
8 26419 26420 26425 26424 26724 26725 26730 26729
8 26420 26421 26426 26425 26725 26726 26731 26730
8 26421 26422 26427 26426 26726 26727 26732 26731
8 26422 26423 26428 26427 26727 26728 26733 26732
8 26423 9238 9237 26428 26728 9177 9176 26733
8 3343 26424 26429 3344 3282 26729 26734 3283
8 26424 26425 26430 26429 26729 26730 26735 26734
8 26425 26426 26431 26430 26730 26731 26736 26735
8 26426 26427 26432 26431 26731 26732 26737 26736
8 26427 26428 26433 26432 26732 26733 26738 26737
8 26428 9237 9236 26433 26733 9176 9175 26738
8 26429 26430 26435 26434 26734 26735 26740 26739
8 26430 26431 26436 26435 26735 26736 26741 26740
8 26431 26432 26437 26436 26736 26737 26742 26741
8 26432 26433 26438 26437 26737 26738 26743 26742
8 26433 9236 9235 26438 26738 9175 9174 26743
8 26434 26435 26440 26439 26739 26740 26745 26744
8 26435 26436 26441 26440 26740 26741 26746 26745
8 26436 26437 26442 26441 26741 26742 26747 26746
8 26437 26438 26443 26442 26742 26743 26748 26747
8 26438 9235 9234 26443 26743 9174 9173 26748
8 26439 26440 26445 26444 26744 26745 26750 26749
8 26440 26441 26446 26445 26745 26746 26751 26750
8 26441 26442 26447 26446 26746 26747 26752 26751
8 26442 26443 26448 26447 26747 26748 26753 26752
8 26443 9234 9233 26448 26748 9173 9172 26753
8 26444 26445 26450 26449 26749 26750 26755 26754
8 26445 26446 26451 26450 26750 26751 26756 26755
8 26446 26447 26452 26451 26751 26752 26757 26756
8 26447 26448 26453 26452 26752 26753 26758 26757
8 26448 9233 9232 26453 26753 9172 9171 26758
8 26449 26450 26455 26454 26754 26755 26760 26759
8 26450 26451 26456 26455 26755 26756 26761 26760
8 26451 26452 26457 26456 26756 26757 26762 26761
8 26452 26453 26458 26457 26757 26758 26763 26762
8 26453 9232 9231 26458 26758 9171 9170 26763
8 26454 26455 26460 26459 26759 26760 26765 26764
8 26455 26456 26461 26460 26760 26761 26766 26765
8 26456 26457 26462 26461 26761 26762 26767 26766
8 26457 26458 26463 26462 26762 26763 26768 26767
8 26458 9231 9230 26463 26763 9170 9169 26768
8 3350 26459 26464 3351 3289 26764 26769 3290
8 26459 26460 26465 26464 26764 26765 26770 26769
8 26460 26461 26466 26465 26765 26766 26771 26770
8 26461 26462 26467 26466 26766 26767 26772 26771
8 26462 26463 26468 26467 26767 26768 26773 26772
8 26463 9230 9229 26468 26768 9169 9168 26773
8 3351 26464 26469 3352 3290 26769 26774 3291
8 26464 26465 26470 26469 26769 26770 26775 26774
8 26465 26466 26471 26470 26770 26771 26776 26775
8 26466 26467 26472 26471 26771 26772 26777 26776
8 26467 26468 26473 26472 26772 26773 26778 26777
8 26468 9229 9228 26473 26773 9168 9167 26778
8 3352 26469 26474 3353 3291 26774 26779 3292
8 26469 26470 26475 26474 26774 26775 26780 26779
8 26470 26471 26476 26475 26775 26776 26781 26780
8 26471 26472 26477 26476 26776 26777 26782 26781
8 26472 26473 26478 26477 26777 26778 26783 26782
8 26473 9228 9227 26478 26778 9167 9166 26783
8 3353 26474 26479 3354 3292 26779 26784 3293
8 26474 26475 26480 26479 26779 26780 26785 26784
8 26475 26476 26481 26480 26780 26781 26786 26785
8 26476 26477 26482 26481 26781 26782 26787 26786
8 26477 26478 26483 26482 26782 26783 26788 26787
8 26478 9227 9226 26483 26783 9166 9165 26788
8 3354 26479 26484 3355 3293 26784 26789 3294
8 26479 26480 26485 26484 26784 26785 26790 26789
8 26480 26481 26486 26485 26785 26786 26791 26790
8 26481 26482 26487 26486 26786 26787 26792 26791
8 26482 26483 26488 26487 26787 26788 26793 26792
8 26483 9226 9225 26488 26788 9165 9164 26793
8 3355 26484 26489 3356 3294 26789 26794 3295
8 26484 26485 26490 26489 26789 26790 26795 26794
8 26485 26486 26491 26490 26790 26791 26796 26795
8 26486 26487 26492 26491 26791 26792 26797 26796
8 26487 26488 26493 26492 26792 26793 26798 26797
8 26488 9225 9224 26493 26793 9164 9163 26798
8 3356 26489 26494 3357 3295 26794 26799 3296
8 26489 26490 26495 26494 26794 26795 26800 26799
8 26490 26491 26496 26495 26795 26796 26801 26800
8 26491 26492 26497 26496 26796 26797 26802 26801
8 26492 26493 26498 26497 26797 26798 26803 26802
8 26493 9224 9223 26498 26798 9163 9162 26803
8 3357 26494 26499 3358 3296 26799 26804 3297
8 26494 26495 26500 26499 26799 26800 26805 26804
8 26495 26496 26501 26500 26800 26801 26806 26805
8 26496 26497 26502 26501 26801 26802 26807 26806
8 26497 26498 26503 26502 26802 26803 26808 26807
8 26498 9223 9222 26503 26803 9162 9161 26808
8 3358 26499 26504 3359 3297 26804 26809 3298
8 26499 26500 26505 26504 26804 26805 26810 26809
8 26500 26501 26506 26505 26805 26806 26811 26810
8 26501 26502 26507 26506 26806 26807 26812 26811
8 26502 26503 26508 26507 26807 26808 26813 26812
8 26503 9222 9221 26508 26808 9161 9160 26813
8 3359 26504 12874 113 3298 26809 12869 112
8 26504 26505 12875 12874 26809 26810 12870 12869
8 26505 26506 12876 12875 26810 26811 12871 12870
8 26506 26507 12877 12876 26811 26812 12872 12871
8 26507 26508 12878 12877 26812 26813 12873 12872
8 26508 9221 6182 12878 26813 9160 6183 12873
8 261 12069 26509 3238 262 12074 26814 3177
8 12069 12070 26510 26509 12074 12075 26815 26814
8 12070 12071 26511 26510 12075 12076 26816 26815
8 12071 12072 26512 26511 12076 12077 26817 26816
8 12072 12073 26513 26512 12077 12078 26818 26817
8 12073 6034 9220 26513 12078 6033 9159 26818
8 3238 26509 26514 3239 3177 26814 26819 3178
8 26509 26510 26515 26514 26814 26815 26820 26819
8 26510 26511 26516 26515 26815 26816 26821 26820
8 26511 26512 26517 26516 26816 26817 26822 26821
8 26512 26513 26518 26517 26817 26818 26823 26822
8 26513 9220 9219 26518 26818 9159 9158 26823
8 3239 26514 26519 3240 3178 26819 26824 3179
8 26514 26515 26520 26519 26819 26820 26825 26824
8 26515 26516 26521 26520 26820 26821 26826 26825
8 26516 26517 26522 26521 26821 26822 26827 26826
8 26517 26518 26523 26522 26822 26823 26828 26827
8 26518 9219 9218 26523 26823 9158 9157 26828
8 3240 26519 26524 3241 3179 26824 26829 3180
8 26519 26520 26525 26524 26824 26825 26830 26829
8 26520 26521 26526 26525 26825 26826 26831 26830
8 26521 26522 26527 26526 26826 26827 26832 26831
8 26522 26523 26528 26527 26827 26828 26833 26832
8 26523 9218 9217 26528 26828 9157 9156 26833
8 3241 26524 26529 3242 3180 26829 26834 3181
8 26524 26525 26530 26529 26829 26830 26835 26834
8 26525 26526 26531 26530 26830 26831 26836 26835
8 26526 26527 26532 26531 26831 26832 26837 26836
8 26527 26528 26533 26532 26832 26833 26838 26837
8 26528 9217 9216 26533 26833 9156 9155 26838
8 3242 26529 26534 3243 3181 26834 26839 3182
8 26529 26530 26535 26534 26834 26835 26840 26839
8 26530 26531 26536 26535 26835 26836 26841 26840
8 26531 26532 26537 26536 26836 26837 26842 26841
8 26532 26533 26538 26537 26837 26838 26843 26842
8 26533 9216 9215 26538 26838 9155 9154 26843
8 3243 26534 26539 3244 3182 26839 26844 3183
8 26534 26535 26540 26539 26839 26840 26845 26844
8 26535 26536 26541 26540 26840 26841 26846 26845
8 26536 26537 26542 26541 26841 26842 26847 26846
8 26537 26538 26543 26542 26842 26843 26848 26847
8 26538 9215 9214 26543 26843 9154 9153 26848
8 3244 26539 26544 3245 3183 26844 26849 3184
8 26539 26540 26545 26544 26844 26845 26850 26849
8 26540 26541 26546 26545 26845 26846 26851 26850
8 26541 26542 26547 26546 26846 26847 26852 26851
8 26542 26543 26548 26547 26847 26848 26853 26852
8 26543 9214 9213 26548 26848 9153 9152 26853
8 3245 26544 26549 3246 3184 26849 26854 3185
8 26544 26545 26550 26549 26849 26850 26855 26854
8 26545 26546 26551 26550 26850 26851 26856 26855
8 26546 26547 26552 26551 26851 26852 26857 26856
8 26547 26548 26553 26552 26852 26853 26858 26857
8 26548 9213 9212 26553 26853 9152 9151 26858
8 3246 26549 26554 3247 3185 26854 26859 3186
8 26549 26550 26555 26554 26854 26855 26860 26859
8 26550 26551 26556 26555 26855 26856 26861 26860
8 26551 26552 26557 26556 26856 26857 26862 26861
8 26552 26553 26558 26557 26857 26858 26863 26862
8 26553 9212 9211 26558 26858 9151 9150 26863
8 3247 26554 26559 3248 3186 26859 26864 3187
8 26554 26555 26560 26559 26859 26860 26865 26864
8 26555 26556 26561 26560 26860 26861 26866 26865
8 26556 26557 26562 26561 26861 26862 26867 26866
8 26557 26558 26563 26562 26862 26863 26868 26867
8 26558 9211 9210 26563 26863 9150 9149 26868
8 3248 26559 26564 3249 3187 26864 26869 3188
8 26559 26560 26565 26564 26864 26865 26870 26869
8 26560 26561 26566 26565 26865 26866 26871 26870
8 26561 26562 26567 26566 26866 26867 26872 26871
8 26562 26563 26568 26567 26867 26868 26873 26872
8 26563 9210 9209 26568 26868 9149 9148 26873
8 3249 26564 26569 3250 3188 26869 26874 3189
8 26564 26565 26570 26569 26869 26870 26875 26874
8 26565 26566 26571 26570 26870 26871 26876 26875
8 26566 26567 26572 26571 26871 26872 26877 26876
8 26567 26568 26573 26572 26872 26873 26878 26877
8 26568 9209 9208 26573 26873 9148 9147 26878
8 3250 26569 26574 3251 3189 26874 26879 3190
8 26569 26570 26575 26574 26874 26875 26880 26879
8 26570 26571 26576 26575 26875 26876 26881 26880
8 26571 26572 26577 26576 26876 26877 26882 26881
8 26572 26573 26578 26577 26877 26878 26883 26882
8 26573 9208 9207 26578 26878 9147 9146 26883
8 3251 26574 26579 3252 3190 26879 26884 3191
8 26574 26575 26580 26579 26879 26880 26885 26884
8 26575 26576 26581 26580 26880 26881 26886 26885
8 26576 26577 26582 26581 26881 26882 26887 26886
8 26577 26578 26583 26582 26882 26883 26888 26887
8 26578 9207 9206 26583 26883 9146 9145 26888
8 3252 26579 26584 3253 3191 26884 26889 3192
8 26579 26580 26585 26584 26884 26885 26890 26889
8 26580 26581 26586 26585 26885 26886 26891 26890
8 26581 26582 26587 26586 26886 26887 26892 26891
8 26582 26583 26588 26587 26887 26888 26893 26892
8 26583 9206 9205 26588 26888 9145 9144 26893
8 3253 26584 26589 3254 3192 26889 26894 3193
8 26584 26585 26590 26589 26889 26890 26895 26894
8 26585 26586 26591 26590 26890 26891 26896 26895
8 26586 26587 26592 26591 26891 26892 26897 26896
8 26587 26588 26593 26592 26892 26893 26898 26897
8 26588 9205 9204 26593 26893 9144 9143 26898
8 3254 26589 26594 3255 3193 26894 26899 3194
8 26589 26590 26595 26594 26894 26895 26900 26899
8 26590 26591 26596 26595 26895 26896 26901 26900
8 26591 26592 26597 26596 26896 26897 26902 26901
8 26592 26593 26598 26597 26897 26898 26903 26902
8 26593 9204 9203 26598 26898 9143 9142 26903
8 3255 26594 26599 3256 3194 26899 26904 3195
8 26594 26595 26600 26599 26899 26900 26905 26904
8 26595 26596 26601 26600 26900 26901 26906 26905
8 26596 26597 26602 26601 26901 26902 26907 26906
8 26597 26598 26603 26602 26902 26903 26908 26907
8 26598 9203 9202 26603 26903 9142 9141 26908
8 3256 26599 26604 3257 3195 26904 26909 3196
8 26599 26600 26605 26604 26904 26905 26910 26909
8 26600 26601 26606 26605 26905 26906 26911 26910
8 26601 26602 26607 26606 26906 26907 26912 26911
8 26602 26603 26608 26607 26907 26908 26913 26912
8 26603 9202 9201 26608 26908 9141 9140 26913
8 3257 26604 26609 3258 3196 26909 26914 3197
8 26604 26605 26610 26609 26909 26910 26915 26914
8 26605 26606 26611 26610 26910 26911 26916 26915
8 26606 26607 26612 26611 26911 26912 26917 26916
8 26607 26608 26613 26612 26912 26913 26918 26917
8 26608 9201 9200 26613 26913 9140 9139 26918
8 26609 26610 26615 26614 26914 26915 26920 26919
8 26610 26611 26616 26615 26915 26916 26921 26920
8 26611 26612 26617 26616 26916 26917 26922 26921
8 26612 26613 26618 26617 26917 26918 26923 26922
8 26613 9200 9199 26618 26918 9139 9138 26923
8 26614 26615 26620 26619 26919 26920 26925 26924
8 26615 26616 26621 26620 26920 26921 26926 26925
8 26616 26617 26622 26621 26921 26922 26927 26926
8 26617 26618 26623 26622 26922 26923 26928 26927
8 26618 9199 9198 26623 26923 9138 9137 26928
8 3260 26619 26624 3261 3199 26924 26929 3200
8 26619 26620 26625 26624 26924 26925 26930 26929
8 26620 26621 26626 26625 26925 26926 26931 26930
8 26621 26622 26627 26626 26926 26927 26932 26931
8 26622 26623 26628 26627 26927 26928 26933 26932
8 26623 9198 9197 26628 26928 9137 9136 26933
8 3261 26624 26629 3262 3200 26929 26934 3201
8 26624 26625 26630 26629 26929 26930 26935 26934
8 26625 26626 26631 26630 26930 26931 26936 26935
8 26626 26627 26632 26631 26931 26932 26937 26936
8 26627 26628 26633 26632 26932 26933 26938 26937
8 26628 9197 9196 26633 26933 9136 9135 26938
8 3262 26629 26634 3263 3201 26934 26939 3202
8 26629 26630 26635 26634 26934 26935 26940 26939
8 26630 26631 26636 26635 26935 26936 26941 26940
8 26631 26632 26637 26636 26936 26937 26942 26941
8 26632 26633 26638 26637 26937 26938 26943 26942
8 26633 9196 9195 26638 26938 9135 9134 26943
8 3263 26634 26639 3264 3202 26939 26944 3203
8 26634 26635 26640 26639 26939 26940 26945 26944
8 26635 26636 26641 26640 26940 26941 26946 26945
8 26636 26637 26642 26641 26941 26942 26947 26946
8 26637 26638 26643 26642 26942 26943 26948 26947
8 26638 9195 9194 26643 26943 9134 9133 26948
8 26639 26640 26645 26644 26944 26945 26950 26949
8 26640 26641 26646 26645 26945 26946 26951 26950
8 26641 26642 26647 26646 26946 26947 26952 26951
8 26642 26643 26648 26647 26947 26948 26953 26952
8 26643 9194 9193 26648 26948 9133 9132 26953
8 26644 26645 26650 26649 26949 26950 26955 26954
8 26645 26646 26651 26650 26950 26951 26956 26955
8 26646 26647 26652 26651 26951 26952 26957 26956
8 26647 26648 26653 26652 26952 26953 26958 26957
8 26648 9193 9192 26653 26953 9132 9131 26958
8 26649 26650 26655 26654 26954 26955 26960 26959
8 26650 26651 26656 26655 26955 26956 26961 26960
8 26651 26652 26657 26656 26956 26957 26962 26961
8 26652 26653 26658 26657 26957 26958 26963 26962
8 26653 9192 9191 26658 26958 9131 9130 26963
8 26654 26655 26660 26659 26959 26960 26965 26964
8 26655 26656 26661 26660 26960 26961 26966 26965
8 26656 26657 26662 26661 26961 26962 26967 26966
8 26657 26658 26663 26662 26962 26963 26968 26967
8 26658 9191 9190 26663 26963 9130 9129 26968
8 26659 26660 26665 26664 26964 26965 26970 26969
8 26660 26661 26666 26665 26965 26966 26971 26970
8 26661 26662 26667 26666 26966 26967 26972 26971
8 26662 26663 26668 26667 26967 26968 26973 26972
8 26663 9190 9189 26668 26968 9129 9128 26973
8 3269 26664 26669 3270 3208 26969 26974 3209
8 26664 26665 26670 26669 26969 26970 26975 26974
8 26665 26666 26671 26670 26970 26971 26976 26975
8 26666 26667 26672 26671 26971 26972 26977 26976
8 26667 26668 26673 26672 26972 26973 26978 26977
8 26668 9189 9188 26673 26973 9128 9127 26978
8 3270 26669 26674 3271 3209 26974 26979 3210
8 26669 26670 26675 26674 26974 26975 26980 26979
8 26670 26671 26676 26675 26975 26976 26981 26980
8 26671 26672 26677 26676 26976 26977 26982 26981
8 26672 26673 26678 26677 26977 26978 26983 26982
8 26673 9188 9187 26678 26978 9127 9126 26983
8 3271 26674 26679 3272 3210 26979 26984 3211
8 26674 26675 26680 26679 26979 26980 26985 26984
8 26675 26676 26681 26680 26980 26981 26986 26985
8 26676 26677 26682 26681 26981 26982 26987 26986
8 26677 26678 26683 26682 26982 26983 26988 26987
8 26678 9187 9186 26683 26983 9126 9125 26988
8 3272 26679 26684 3273 3211 26984 26989 3212
8 26679 26680 26685 26684 26984 26985 26990 26989
8 26680 26681 26686 26685 26985 26986 26991 26990
8 26681 26682 26687 26686 26986 26987 26992 26991
8 26682 26683 26688 26687 26987 26988 26993 26992
8 26683 9186 9185 26688 26988 9125 9124 26993
8 3273 26684 26689 3274 3212 26989 26994 3213
8 26684 26685 26690 26689 26989 26990 26995 26994
8 26685 26686 26691 26690 26990 26991 26996 26995
8 26686 26687 26692 26691 26991 26992 26997 26996
8 26687 26688 26693 26692 26992 26993 26998 26997
8 26688 9185 9184 26693 26993 9124 9123 26998
8 26689 26690 26695 26694 26994 26995 27000 26999
8 26690 26691 26696 26695 26995 26996 27001 27000
8 26691 26692 26697 26696 26996 26997 27002 27001
8 26692 26693 26698 26697 26997 26998 27003 27002
8 26693 9184 9183 26698 26998 9123 9122 27003
8 26694 26695 26700 26699 26999 27000 27005 27004
8 26695 26696 26701 26700 27000 27001 27006 27005
8 26696 26697 26702 26701 27001 27002 27007 27006
8 26697 26698 26703 26702 27002 27003 27008 27007
8 26698 9183 9182 26703 27003 9122 9121 27008
8 26699 26700 26705 26704 27004 27005 27010 27009
8 26700 26701 26706 26705 27005 27006 27011 27010
8 26701 26702 26707 26706 27006 27007 27012 27011
8 26702 26703 26708 26707 27007 27008 27013 27012
8 26703 9182 9181 26708 27008 9121 9120 27013
8 26704 26705 26710 26709 27009 27010 27015 27014
8 26705 26706 26711 26710 27010 27011 27016 27015
8 26706 26707 26712 26711 27011 27012 27017 27016
8 26707 26708 26713 26712 27012 27013 27018 27017
8 26708 9181 9180 26713 27013 9120 9119 27018
8 26709 26710 26715 26714 27014 27015 27020 27019
8 26710 26711 26716 26715 27015 27016 27021 27020
8 26711 26712 26717 26716 27016 27017 27022 27021
8 26712 26713 26718 26717 27017 27018 27023 27022
8 26713 9180 9179 26718 27018 9119 9118 27023
8 3279 26714 26719 3280 3218 27019 27024 3219
8 26714 26715 26720 26719 27019 27020 27025 27024
8 26715 26716 26721 26720 27020 27021 27026 27025
8 26716 26717 26722 26721 27021 27022 27027 27026
8 26717 26718 26723 26722 27022 27023 27028 27027
8 26718 9179 9178 26723 27023 9118 9117 27028
8 3280 26719 26724 3281 3219 27024 27029 3220
8 26719 26720 26725 26724 27024 27025 27030 27029
8 26720 26721 26726 26725 27025 27026 27031 27030
8 26721 26722 26727 26726 27026 27027 27032 27031
8 26722 26723 26728 26727 27027 27028 27033 27032
8 26723 9178 9177 26728 27028 9117 9116 27033
8 3281 26724 26729 3282 3220 27029 27034 3221
8 26724 26725 26730 26729 27029 27030 27035 27034
8 26725 26726 26731 26730 27030 27031 27036 27035
8 26726 26727 26732 26731 27031 27032 27037 27036
8 26727 26728 26733 26732 27032 27033 27038 27037
8 26728 9177 9176 26733 27033 9116 9115 27038
8 3282 26729 26734 3283 3221 27034 27039 3222
8 26729 26730 26735 26734 27034 27035 27040 27039
8 26730 26731 26736 26735 27035 27036 27041 27040
8 26731 26732 26737 26736 27036 27037 27042 27041
8 26732 26733 26738 26737 27037 27038 27043 27042
8 26733 9176 9175 26738 27038 9115 9114 27043
8 26734 26735 26740 26739 27039 27040 27045 27044
8 26735 26736 26741 26740 27040 27041 27046 27045
8 26736 26737 26742 26741 27041 27042 27047 27046
8 26737 26738 26743 26742 27042 27043 27048 27047
8 26738 9175 9174 26743 27043 9114 9113 27048
8 26739 26740 26745 26744 27044 27045 27050 27049
8 26740 26741 26746 26745 27045 27046 27051 27050
8 26741 26742 26747 26746 27046 27047 27052 27051
8 26742 26743 26748 26747 27047 27048 27053 27052
8 26743 9174 9173 26748 27048 9113 9112 27053
8 26744 26745 26750 26749 27049 27050 27055 27054
8 26745 26746 26751 26750 27050 27051 27056 27055
8 26746 26747 26752 26751 27051 27052 27057 27056
8 26747 26748 26753 26752 27052 27053 27058 27057
8 26748 9173 9172 26753 27053 9112 9111 27058
8 26749 26750 26755 26754 27054 27055 27060 27059
8 26750 26751 26756 26755 27055 27056 27061 27060
8 26751 26752 26757 26756 27056 27057 27062 27061
8 26752 26753 26758 26757 27057 27058 27063 27062
8 26753 9172 9171 26758 27058 9111 9110 27063
8 26754 26755 26760 26759 27059 27060 27065 27064
8 26755 26756 26761 26760 27060 27061 27066 27065
8 26756 26757 26762 26761 27061 27062 27067 27066
8 26757 26758 26763 26762 27062 27063 27068 27067
8 26758 9171 9170 26763 27063 9110 9109 27068
8 26759 26760 26765 26764 27064 27065 27070 27069
8 26760 26761 26766 26765 27065 27066 27071 27070
8 26761 26762 26767 26766 27066 27067 27072 27071
8 26762 26763 26768 26767 27067 27068 27073 27072
8 26763 9170 9169 26768 27068 9109 9108 27073
8 3289 26764 26769 3290 3228 27069 27074 3229
8 26764 26765 26770 26769 27069 27070 27075 27074
8 26765 26766 26771 26770 27070 27071 27076 27075
8 26766 26767 26772 26771 27071 27072 27077 27076
8 26767 26768 26773 26772 27072 27073 27078 27077
8 26768 9169 9168 26773 27073 9108 9107 27078
8 3290 26769 26774 3291 3229 27074 27079 3230
8 26769 26770 26775 26774 27074 27075 27080 27079
8 26770 26771 26776 26775 27075 27076 27081 27080
8 26771 26772 26777 26776 27076 27077 27082 27081
8 26772 26773 26778 26777 27077 27078 27083 27082
8 26773 9168 9167 26778 27078 9107 9106 27083
8 3291 26774 26779 3292 3230 27079 27084 3231
8 26774 26775 26780 26779 27079 27080 27085 27084
8 26775 26776 26781 26780 27080 27081 27086 27085
8 26776 26777 26782 26781 27081 27082 27087 27086
8 26777 26778 26783 26782 27082 27083 27088 27087
8 26778 9167 9166 26783 27083 9106 9105 27088
8 3292 26779 26784 3293 3231 27084 27089 3232
8 26779 26780 26785 26784 27084 27085 27090 27089
8 26780 26781 26786 26785 27085 27086 27091 27090
8 26781 26782 26787 26786 27086 27087 27092 27091
8 26782 26783 26788 26787 27087 27088 27093 27092
8 26783 9166 9165 26788 27088 9105 9104 27093
8 3293 26784 26789 3294 3232 27089 27094 3233
8 26784 26785 26790 26789 27089 27090 27095 27094
8 26785 26786 26791 26790 27090 27091 27096 27095
8 26786 26787 26792 26791 27091 27092 27097 27096
8 26787 26788 26793 26792 27092 27093 27098 27097
8 26788 9165 9164 26793 27093 9104 9103 27098
8 3294 26789 26794 3295 3233 27094 27099 3234
8 26789 26790 26795 26794 27094 27095 27100 27099
8 26790 26791 26796 26795 27095 27096 27101 27100
8 26791 26792 26797 26796 27096 27097 27102 27101
8 26792 26793 26798 26797 27097 27098 27103 27102
8 26793 9164 9163 26798 27098 9103 9102 27103
8 3295 26794 26799 3296 3234 27099 27104 3235
8 26794 26795 26800 26799 27099 27100 27105 27104
8 26795 26796 26801 26800 27100 27101 27106 27105
8 26796 26797 26802 26801 27101 27102 27107 27106
8 26797 26798 26803 26802 27102 27103 27108 27107
8 26798 9163 9162 26803 27103 9102 9101 27108
8 3296 26799 26804 3297 3235 27104 27109 3236
8 26799 26800 26805 26804 27104 27105 27110 27109
8 26800 26801 26806 26805 27105 27106 27111 27110
8 26801 26802 26807 26806 27106 27107 27112 27111
8 26802 26803 26808 26807 27107 27108 27113 27112
8 26803 9162 9161 26808 27108 9101 9100 27113
8 3297 26804 26809 3298 3236 27109 27114 3237
8 26804 26805 26810 26809 27109 27110 27115 27114
8 26805 26806 26811 26810 27110 27111 27116 27115
8 26806 26807 26812 26811 27111 27112 27117 27116
8 26807 26808 26813 26812 27112 27113 27118 27117
8 26808 9161 9160 26813 27113 9100 9099 27118
8 3298 26809 12869 112 3237 27114 12864 111
8 26809 26810 12870 12869 27114 27115 12865 12864
8 26810 26811 12871 12870 27115 27116 12866 12865
8 26811 26812 12872 12871 27116 27117 12867 12866
8 26812 26813 12873 12872 27117 27118 12868 12867
8 26813 9160 6183 12873 27118 9099 6184 12868
8 262 12074 26814 3177 263 12079 27119 3116
8 12074 12075 26815 26814 12079 12080 27120 27119
8 12075 12076 26816 26815 12080 12081 27121 27120
8 12076 12077 26817 26816 12081 12082 27122 27121
8 12077 12078 26818 26817 12082 12083 27123 27122
8 12078 6033 9159 26818 12083 6032 9098 27123
8 3177 26814 26819 3178 3116 27119 27124 3117
8 26814 26815 26820 26819 27119 27120 27125 27124
8 26815 26816 26821 26820 27120 27121 27126 27125
8 26816 26817 26822 26821 27121 27122 27127 27126
8 26817 26818 26823 26822 27122 27123 27128 27127
8 26818 9159 9158 26823 27123 9098 9097 27128
8 3178 26819 26824 3179 3117 27124 27129 3118
8 26819 26820 26825 26824 27124 27125 27130 27129
8 26820 26821 26826 26825 27125 27126 27131 27130
8 26821 26822 26827 26826 27126 27127 27132 27131
8 26822 26823 26828 26827 27127 27128 27133 27132
8 26823 9158 9157 26828 27128 9097 9096 27133
8 3179 26824 26829 3180 3118 27129 27134 3119
8 26824 26825 26830 26829 27129 27130 27135 27134
8 26825 26826 26831 26830 27130 27131 27136 27135
8 26826 26827 26832 26831 27131 27132 27137 27136
8 26827 26828 26833 26832 27132 27133 27138 27137
8 26828 9157 9156 26833 27133 9096 9095 27138
8 3180 26829 26834 3181 3119 27134 27139 3120
8 26829 26830 26835 26834 27134 27135 27140 27139
8 26830 26831 26836 26835 27135 27136 27141 27140
8 26831 26832 26837 26836 27136 27137 27142 27141
8 26832 26833 26838 26837 27137 27138 27143 27142
8 26833 9156 9155 26838 27138 9095 9094 27143
8 3181 26834 26839 3182 3120 27139 27144 3121
8 26834 26835 26840 26839 27139 27140 27145 27144
8 26835 26836 26841 26840 27140 27141 27146 27145
8 26836 26837 26842 26841 27141 27142 27147 27146
8 26837 26838 26843 26842 27142 27143 27148 27147
8 26838 9155 9154 26843 27143 9094 9093 27148
8 3182 26839 26844 3183 3121 27144 27149 3122
8 26839 26840 26845 26844 27144 27145 27150 27149
8 26840 26841 26846 26845 27145 27146 27151 27150
8 26841 26842 26847 26846 27146 27147 27152 27151
8 26842 26843 26848 26847 27147 27148 27153 27152
8 26843 9154 9153 26848 27148 9093 9092 27153
8 3183 26844 26849 3184 3122 27149 27154 3123
8 26844 26845 26850 26849 27149 27150 27155 27154
8 26845 26846 26851 26850 27150 27151 27156 27155
8 26846 26847 26852 26851 27151 27152 27157 27156
8 26847 26848 26853 26852 27152 27153 27158 27157
8 26848 9153 9152 26853 27153 9092 9091 27158
8 3184 26849 26854 3185 3123 27154 27159 3124
8 26849 26850 26855 26854 27154 27155 27160 27159
8 26850 26851 26856 26855 27155 27156 27161 27160
8 26851 26852 26857 26856 27156 27157 27162 27161
8 26852 26853 26858 26857 27157 27158 27163 27162
8 26853 9152 9151 26858 27158 9091 9090 27163
8 3185 26854 26859 3186 3124 27159 27164 3125
8 26854 26855 26860 26859 27159 27160 27165 27164
8 26855 26856 26861 26860 27160 27161 27166 27165
8 26856 26857 26862 26861 27161 27162 27167 27166
8 26857 26858 26863 26862 27162 27163 27168 27167
8 26858 9151 9150 26863 27163 9090 9089 27168
8 3186 26859 26864 3187 3125 27164 27169 3126
8 26859 26860 26865 26864 27164 27165 27170 27169
8 26860 26861 26866 26865 27165 27166 27171 27170
8 26861 26862 26867 26866 27166 27167 27172 27171
8 26862 26863 26868 26867 27167 27168 27173 27172
8 26863 9150 9149 26868 27168 9089 9088 27173
8 3187 26864 26869 3188 3126 27169 27174 3127
8 26864 26865 26870 26869 27169 27170 27175 27174
8 26865 26866 26871 26870 27170 27171 27176 27175
8 26866 26867 26872 26871 27171 27172 27177 27176
8 26867 26868 26873 26872 27172 27173 27178 27177
8 26868 9149 9148 26873 27173 9088 9087 27178
8 3188 26869 26874 3189 3127 27174 27179 3128
8 26869 26870 26875 26874 27174 27175 27180 27179
8 26870 26871 26876 26875 27175 27176 27181 27180
8 26871 26872 26877 26876 27176 27177 27182 27181
8 26872 26873 26878 26877 27177 27178 27183 27182
8 26873 9148 9147 26878 27178 9087 9086 27183
8 3189 26874 26879 3190 3128 27179 27184 3129
8 26874 26875 26880 26879 27179 27180 27185 27184
8 26875 26876 26881 26880 27180 27181 27186 27185
8 26876 26877 26882 26881 27181 27182 27187 27186
8 26877 26878 26883 26882 27182 27183 27188 27187
8 26878 9147 9146 26883 27183 9086 9085 27188
8 3190 26879 26884 3191 3129 27184 27189 3130
8 26879 26880 26885 26884 27184 27185 27190 27189
8 26880 26881 26886 26885 27185 27186 27191 27190
8 26881 26882 26887 26886 27186 27187 27192 27191
8 26882 26883 26888 26887 27187 27188 27193 27192
8 26883 9146 9145 26888 27188 9085 9084 27193
8 3191 26884 26889 3192 3130 27189 27194 3131
8 26884 26885 26890 26889 27189 27190 27195 27194
8 26885 26886 26891 26890 27190 27191 27196 27195
8 26886 26887 26892 26891 27191 27192 27197 27196
8 26887 26888 26893 26892 27192 27193 27198 27197
8 26888 9145 9144 26893 27193 9084 9083 27198
8 3192 26889 26894 3193 3131 27194 27199 3132
8 26889 26890 26895 26894 27194 27195 27200 27199
8 26890 26891 26896 26895 27195 27196 27201 27200
8 26891 26892 26897 26896 27196 27197 27202 27201
8 26892 26893 26898 26897 27197 27198 27203 27202
8 26893 9144 9143 26898 27198 9083 9082 27203
8 3193 26894 26899 3194 3132 27199 27204 3133
8 26894 26895 26900 26899 27199 27200 27205 27204
8 26895 26896 26901 26900 27200 27201 27206 27205
8 26896 26897 26902 26901 27201 27202 27207 27206
8 26897 26898 26903 26902 27202 27203 27208 27207
8 26898 9143 9142 26903 27203 9082 9081 27208
8 3194 26899 26904 3195 3133 27204 27209 3134
8 26899 26900 26905 26904 27204 27205 27210 27209
8 26900 26901 26906 26905 27205 27206 27211 27210
8 26901 26902 26907 26906 27206 27207 27212 27211
8 26902 26903 26908 26907 27207 27208 27213 27212
8 26903 9142 9141 26908 27208 9081 9080 27213
8 3195 26904 26909 3196 3134 27209 27214 3135
8 26904 26905 26910 26909 27209 27210 27215 27214
8 26905 26906 26911 26910 27210 27211 27216 27215
8 26906 26907 26912 26911 27211 27212 27217 27216
8 26907 26908 26913 26912 27212 27213 27218 27217
8 26908 9141 9140 26913 27213 9080 9079 27218
8 3196 26909 26914 3197 3135 27214 27219 3136
8 26909 26910 26915 26914 27214 27215 27220 27219
8 26910 26911 26916 26915 27215 27216 27221 27220
8 26911 26912 26917 26916 27216 27217 27222 27221
8 26912 26913 26918 26917 27217 27218 27223 27222
8 26913 9140 9139 26918 27218 9079 9078 27223
8 26914 26915 26920 26919 27219 27220 27225 27224
8 26915 26916 26921 26920 27220 27221 27226 27225
8 26916 26917 26922 26921 27221 27222 27227 27226
8 26917 26918 26923 26922 27222 27223 27228 27227
8 26918 9139 9138 26923 27223 9078 9077 27228
8 26919 26920 26925 26924 27224 27225 27230 27229
8 26920 26921 26926 26925 27225 27226 27231 27230
8 26921 26922 26927 26926 27226 27227 27232 27231
8 26922 26923 26928 26927 27227 27228 27233 27232
8 26923 9138 9137 26928 27228 9077 9076 27233
8 3199 26924 26929 3200 3138 27229 27234 3139
8 26924 26925 26930 26929 27229 27230 27235 27234
8 26925 26926 26931 26930 27230 27231 27236 27235
8 26926 26927 26932 26931 27231 27232 27237 27236
8 26927 26928 26933 26932 27232 27233 27238 27237
8 26928 9137 9136 26933 27233 9076 9075 27238
8 3200 26929 26934 3201 3139 27234 27239 3140
8 26929 26930 26935 26934 27234 27235 27240 27239
8 26930 26931 26936 26935 27235 27236 27241 27240
8 26931 26932 26937 26936 27236 27237 27242 27241
8 26932 26933 26938 26937 27237 27238 27243 27242
8 26933 9136 9135 26938 27238 9075 9074 27243
8 3201 26934 26939 3202 3140 27239 27244 3141
8 26934 26935 26940 26939 27239 27240 27245 27244
8 26935 26936 26941 26940 27240 27241 27246 27245
8 26936 26937 26942 26941 27241 27242 27247 27246
8 26937 26938 26943 26942 27242 27243 27248 27247
8 26938 9135 9134 26943 27243 9074 9073 27248
8 26939 26940 26945 26944 27244 27245 27250 27249
8 26940 26941 26946 26945 27245 27246 27251 27250
8 26941 26942 26947 26946 27246 27247 27252 27251
8 26942 26943 26948 26947 27247 27248 27253 27252
8 26943 9134 9133 26948 27248 9073 9072 27253
8 26944 26945 26950 26949 27249 27250 27255 27254
8 26945 26946 26951 26950 27250 27251 27256 27255
8 26946 26947 26952 26951 27251 27252 27257 27256
8 26947 26948 26953 26952 27252 27253 27258 27257
8 26948 9133 9132 26953 27253 9072 9071 27258
8 26949 26950 26955 26954 27254 27255 27260 27259
8 26950 26951 26956 26955 27255 27256 27261 27260
8 26951 26952 26957 26956 27256 27257 27262 27261
8 26952 26953 26958 26957 27257 27258 27263 27262
8 26953 9132 9131 26958 27258 9071 9070 27263
8 26954 26955 26960 26959 27259 27260 27265 27264
8 26955 26956 26961 26960 27260 27261 27266 27265
8 26956 26957 26962 26961 27261 27262 27267 27266
8 26957 26958 26963 26962 27262 27263 27268 27267
8 26958 9131 9130 26963 27263 9070 9069 27268
8 26959 26960 26965 26964 27264 27265 27270 27269
8 26960 26961 26966 26965 27265 27266 27271 27270
8 26961 26962 26967 26966 27266 27267 27272 27271
8 26962 26963 26968 26967 27267 27268 27273 27272
8 26963 9130 9129 26968 27268 9069 9068 27273
8 26964 26965 26970 26969 27269 27270 27275 27274
8 26965 26966 26971 26970 27270 27271 27276 27275
8 26966 26967 26972 26971 27271 27272 27277 27276
8 26967 26968 26973 26972 27272 27273 27278 27277
8 26968 9129 9128 26973 27273 9068 9067 27278
8 3208 26969 26974 3209 3147 27274 27279 3148
8 26969 26970 26975 26974 27274 27275 27280 27279
8 26970 26971 26976 26975 27275 27276 27281 27280
8 26971 26972 26977 26976 27276 27277 27282 27281
8 26972 26973 26978 26977 27277 27278 27283 27282
8 26973 9128 9127 26978 27278 9067 9066 27283
8 3209 26974 26979 3210 3148 27279 27284 3149
8 26974 26975 26980 26979 27279 27280 27285 27284
8 26975 26976 26981 26980 27280 27281 27286 27285
8 26976 26977 26982 26981 27281 27282 27287 27286
8 26977 26978 26983 26982 27282 27283 27288 27287
8 26978 9127 9126 26983 27283 9066 9065 27288
8 3210 26979 26984 3211 3149 27284 27289 3150
8 26979 26980 26985 26984 27284 27285 27290 27289
8 26980 26981 26986 26985 27285 27286 27291 27290
8 26981 26982 26987 26986 27286 27287 27292 27291
8 26982 26983 26988 26987 27287 27288 27293 27292
8 26983 9126 9125 26988 27288 9065 9064 27293
8 3211 26984 26989 3212 3150 27289 27294 3151
8 26984 26985 26990 26989 27289 27290 27295 27294
8 26985 26986 26991 26990 27290 27291 27296 27295
8 26986 26987 26992 26991 27291 27292 27297 27296
8 26987 26988 26993 26992 27292 27293 27298 27297
8 26988 9125 9124 26993 27293 9064 9063 27298
8 3212 26989 26994 3213 3151 27294 27299 3152
8 26989 26990 26995 26994 27294 27295 27300 27299
8 26990 26991 26996 26995 27295 27296 27301 27300
8 26991 26992 26997 26996 27296 27297 27302 27301
8 26992 26993 26998 26997 27297 27298 27303 27302
8 26993 9124 9123 26998 27298 9063 9062 27303
8 26994 26995 27000 26999 27299 27300 27305 27304
8 26995 26996 27001 27000 27300 27301 27306 27305
8 26996 26997 27002 27001 27301 27302 27307 27306
8 26997 26998 27003 27002 27302 27303 27308 27307
8 26998 9123 9122 27003 27303 9062 9061 27308
8 26999 27000 27005 27004 27304 27305 27310 27309
8 27000 27001 27006 27005 27305 27306 27311 27310
8 27001 27002 27007 27006 27306 27307 27312 27311
8 27002 27003 27008 27007 27307 27308 27313 27312
8 27003 9122 9121 27008 27308 9061 9060 27313
8 27004 27005 27010 27009 27309 27310 27315 27314
8 27005 27006 27011 27010 27310 27311 27316 27315
8 27006 27007 27012 27011 27311 27312 27317 27316
8 27007 27008 27013 27012 27312 27313 27318 27317
8 27008 9121 9120 27013 27313 9060 9059 27318
8 27009 27010 27015 27014 27314 27315 27320 27319
8 27010 27011 27016 27015 27315 27316 27321 27320
8 27011 27012 27017 27016 27316 27317 27322 27321
8 27012 27013 27018 27017 27317 27318 27323 27322
8 27013 9120 9119 27018 27318 9059 9058 27323
8 27014 27015 27020 27019 27319 27320 27325 27324
8 27015 27016 27021 27020 27320 27321 27326 27325
8 27016 27017 27022 27021 27321 27322 27327 27326
8 27017 27018 27023 27022 27322 27323 27328 27327
8 27018 9119 9118 27023 27323 9058 9057 27328
8 27019 27020 27025 27024 27324 27325 27330 27329
8 27020 27021 27026 27025 27325 27326 27331 27330
8 27021 27022 27027 27026 27326 27327 27332 27331
8 27022 27023 27028 27027 27327 27328 27333 27332
8 27023 9118 9117 27028 27328 9057 9056 27333
8 27024 27025 27030 27029 27329 27330 27335 27334
8 27025 27026 27031 27030 27330 27331 27336 27335
8 27026 27027 27032 27031 27331 27332 27337 27336
8 27027 27028 27033 27032 27332 27333 27338 27337
8 27028 9117 9116 27033 27333 9056 9055 27338
8 27029 27030 27035 27034 27334 27335 27340 27339
8 27030 27031 27036 27035 27335 27336 27341 27340
8 27031 27032 27037 27036 27336 27337 27342 27341
8 27032 27033 27038 27037 27337 27338 27343 27342
8 27033 9116 9115 27038 27338 9055 9054 27343
8 27034 27035 27040 27039 27339 27340 27345 27344
8 27035 27036 27041 27040 27340 27341 27346 27345
8 27036 27037 27042 27041 27341 27342 27347 27346
8 27037 27038 27043 27042 27342 27343 27348 27347
8 27038 9115 9114 27043 27343 9054 9053 27348
8 27039 27040 27045 27044 27344 27345 27350 27349
8 27040 27041 27046 27045 27345 27346 27351 27350
8 27041 27042 27047 27046 27346 27347 27352 27351
8 27042 27043 27048 27047 27347 27348 27353 27352
8 27043 9114 9113 27048 27348 9053 9052 27353
8 27044 27045 27050 27049 27349 27350 27355 27354
8 27045 27046 27051 27050 27350 27351 27356 27355
8 27046 27047 27052 27051 27351 27352 27357 27356
8 27047 27048 27053 27052 27352 27353 27358 27357
8 27048 9113 9112 27053 27353 9052 9051 27358
8 27049 27050 27055 27054 27354 27355 27360 27359
8 27050 27051 27056 27055 27355 27356 27361 27360
8 27051 27052 27057 27056 27356 27357 27362 27361
8 27052 27053 27058 27057 27357 27358 27363 27362
8 27053 9112 9111 27058 27358 9051 9050 27363
8 27054 27055 27060 27059 27359 27360 27365 27364
8 27055 27056 27061 27060 27360 27361 27366 27365
8 27056 27057 27062 27061 27361 27362 27367 27366
8 27057 27058 27063 27062 27362 27363 27368 27367
8 27058 9111 9110 27063 27363 9050 9049 27368
8 27059 27060 27065 27064 27364 27365 27370 27369
8 27060 27061 27066 27065 27365 27366 27371 27370
8 27061 27062 27067 27066 27366 27367 27372 27371
8 27062 27063 27068 27067 27367 27368 27373 27372
8 27063 9110 9109 27068 27368 9049 9048 27373
8 27064 27065 27070 27069 27369 27370 27375 27374
8 27065 27066 27071 27070 27370 27371 27376 27375
8 27066 27067 27072 27071 27371 27372 27377 27376
8 27067 27068 27073 27072 27372 27373 27378 27377
8 27068 9109 9108 27073 27373 9048 9047 27378
8 3228 27069 27074 3229 3167 27374 27379 3168
8 27069 27070 27075 27074 27374 27375 27380 27379
8 27070 27071 27076 27075 27375 27376 27381 27380
8 27071 27072 27077 27076 27376 27377 27382 27381
8 27072 27073 27078 27077 27377 27378 27383 27382
8 27073 9108 9107 27078 27378 9047 9046 27383
8 3229 27074 27079 3230 3168 27379 27384 3169
8 27074 27075 27080 27079 27379 27380 27385 27384
8 27075 27076 27081 27080 27380 27381 27386 27385
8 27076 27077 27082 27081 27381 27382 27387 27386
8 27077 27078 27083 27082 27382 27383 27388 27387
8 27078 9107 9106 27083 27383 9046 9045 27388
8 3230 27079 27084 3231 3169 27384 27389 3170
8 27079 27080 27085 27084 27384 27385 27390 27389
8 27080 27081 27086 27085 27385 27386 27391 27390
8 27081 27082 27087 27086 27386 27387 27392 27391
8 27082 27083 27088 27087 27387 27388 27393 27392
8 27083 9106 9105 27088 27388 9045 9044 27393
8 3231 27084 27089 3232 3170 27389 27394 3171
8 27084 27085 27090 27089 27389 27390 27395 27394
8 27085 27086 27091 27090 27390 27391 27396 27395
8 27086 27087 27092 27091 27391 27392 27397 27396
8 27087 27088 27093 27092 27392 27393 27398 27397
8 27088 9105 9104 27093 27393 9044 9043 27398
8 3232 27089 27094 3233 3171 27394 27399 3172
8 27089 27090 27095 27094 27394 27395 27400 27399
8 27090 27091 27096 27095 27395 27396 27401 27400
8 27091 27092 27097 27096 27396 27397 27402 27401
8 27092 27093 27098 27097 27397 27398 27403 27402
8 27093 9104 9103 27098 27398 9043 9042 27403
8 3233 27094 27099 3234 3172 27399 27404 3173
8 27094 27095 27100 27099 27399 27400 27405 27404
8 27095 27096 27101 27100 27400 27401 27406 27405
8 27096 27097 27102 27101 27401 27402 27407 27406
8 27097 27098 27103 27102 27402 27403 27408 27407
8 27098 9103 9102 27103 27403 9042 9041 27408
8 3234 27099 27104 3235 3173 27404 27409 3174
8 27099 27100 27105 27104 27404 27405 27410 27409
8 27100 27101 27106 27105 27405 27406 27411 27410
8 27101 27102 27107 27106 27406 27407 27412 27411
8 27102 27103 27108 27107 27407 27408 27413 27412
8 27103 9102 9101 27108 27408 9041 9040 27413
8 3235 27104 27109 3236 3174 27409 27414 3175
8 27104 27105 27110 27109 27409 27410 27415 27414
8 27105 27106 27111 27110 27410 27411 27416 27415
8 27106 27107 27112 27111 27411 27412 27417 27416
8 27107 27108 27113 27112 27412 27413 27418 27417
8 27108 9101 9100 27113 27413 9040 9039 27418
8 3236 27109 27114 3237 3175 27414 27419 3176
8 27109 27110 27115 27114 27414 27415 27420 27419
8 27110 27111 27116 27115 27415 27416 27421 27420
8 27111 27112 27117 27116 27416 27417 27422 27421
8 27112 27113 27118 27117 27417 27418 27423 27422
8 27113 9100 9099 27118 27418 9039 9038 27423
8 3237 27114 12864 111 3176 27419 12859 110
8 27114 27115 12865 12864 27419 27420 12860 12859
8 27115 27116 12866 12865 27420 27421 12861 12860
8 27116 27117 12867 12866 27421 27422 12862 12861
8 27117 27118 12868 12867 27422 27423 12863 12862
8 27118 9099 6184 12868 27423 9038 6185 12863
8 263 12079 27119 3116 264 12084 27424 3055
8 12079 12080 27120 27119 12084 12085 27425 27424
8 12080 12081 27121 27120 12085 12086 27426 27425
8 12081 12082 27122 27121 12086 12087 27427 27426
8 12082 12083 27123 27122 12087 12088 27428 27427
8 12083 6032 9098 27123 12088 6031 9037 27428
8 3116 27119 27124 3117 3055 27424 27429 3056
8 27119 27120 27125 27124 27424 27425 27430 27429
8 27120 27121 27126 27125 27425 27426 27431 27430
8 27121 27122 27127 27126 27426 27427 27432 27431
8 27122 27123 27128 27127 27427 27428 27433 27432
8 27123 9098 9097 27128 27428 9037 9036 27433
8 3117 27124 27129 3118 3056 27429 27434 3057
8 27124 27125 27130 27129 27429 27430 27435 27434
8 27125 27126 27131 27130 27430 27431 27436 27435
8 27126 27127 27132 27131 27431 27432 27437 27436
8 27127 27128 27133 27132 27432 27433 27438 27437
8 27128 9097 9096 27133 27433 9036 9035 27438
8 3118 27129 27134 3119 3057 27434 27439 3058
8 27129 27130 27135 27134 27434 27435 27440 27439
8 27130 27131 27136 27135 27435 27436 27441 27440
8 27131 27132 27137 27136 27436 27437 27442 27441
8 27132 27133 27138 27137 27437 27438 27443 27442
8 27133 9096 9095 27138 27438 9035 9034 27443
8 3119 27134 27139 3120 3058 27439 27444 3059
8 27134 27135 27140 27139 27439 27440 27445 27444
8 27135 27136 27141 27140 27440 27441 27446 27445
8 27136 27137 27142 27141 27441 27442 27447 27446
8 27137 27138 27143 27142 27442 27443 27448 27447
8 27138 9095 9094 27143 27443 9034 9033 27448
8 3120 27139 27144 3121 3059 27444 27449 3060
8 27139 27140 27145 27144 27444 27445 27450 27449
8 27140 27141 27146 27145 27445 27446 27451 27450
8 27141 27142 27147 27146 27446 27447 27452 27451
8 27142 27143 27148 27147 27447 27448 27453 27452
8 27143 9094 9093 27148 27448 9033 9032 27453
8 3121 27144 27149 3122 3060 27449 27454 3061
8 27144 27145 27150 27149 27449 27450 27455 27454
8 27145 27146 27151 27150 27450 27451 27456 27455
8 27146 27147 27152 27151 27451 27452 27457 27456
8 27147 27148 27153 27152 27452 27453 27458 27457
8 27148 9093 9092 27153 27453 9032 9031 27458
8 3122 27149 27154 3123 3061 27454 27459 3062
8 27149 27150 27155 27154 27454 27455 27460 27459
8 27150 27151 27156 27155 27455 27456 27461 27460
8 27151 27152 27157 27156 27456 27457 27462 27461
8 27152 27153 27158 27157 27457 27458 27463 27462
8 27153 9092 9091 27158 27458 9031 9030 27463
8 3123 27154 27159 3124 3062 27459 27464 3063
8 27154 27155 27160 27159 27459 27460 27465 27464
8 27155 27156 27161 27160 27460 27461 27466 27465
8 27156 27157 27162 27161 27461 27462 27467 27466
8 27157 27158 27163 27162 27462 27463 27468 27467
8 27158 9091 9090 27163 27463 9030 9029 27468
8 3124 27159 27164 3125 3063 27464 27469 3064
8 27159 27160 27165 27164 27464 27465 27470 27469
8 27160 27161 27166 27165 27465 27466 27471 27470
8 27161 27162 27167 27166 27466 27467 27472 27471
8 27162 27163 27168 27167 27467 27468 27473 27472
8 27163 9090 9089 27168 27468 9029 9028 27473
8 3125 27164 27169 3126 3064 27469 27474 3065
8 27164 27165 27170 27169 27469 27470 27475 27474
8 27165 27166 27171 27170 27470 27471 27476 27475
8 27166 27167 27172 27171 27471 27472 27477 27476
8 27167 27168 27173 27172 27472 27473 27478 27477
8 27168 9089 9088 27173 27473 9028 9027 27478
8 3126 27169 27174 3127 3065 27474 27479 3066
8 27169 27170 27175 27174 27474 27475 27480 27479
8 27170 27171 27176 27175 27475 27476 27481 27480
8 27171 27172 27177 27176 27476 27477 27482 27481
8 27172 27173 27178 27177 27477 27478 27483 27482
8 27173 9088 9087 27178 27478 9027 9026 27483
8 3127 27174 27179 3128 3066 27479 27484 3067
8 27174 27175 27180 27179 27479 27480 27485 27484
8 27175 27176 27181 27180 27480 27481 27486 27485
8 27176 27177 27182 27181 27481 27482 27487 27486
8 27177 27178 27183 27182 27482 27483 27488 27487
8 27178 9087 9086 27183 27483 9026 9025 27488
8 3128 27179 27184 3129 3067 27484 27489 3068
8 27179 27180 27185 27184 27484 27485 27490 27489
8 27180 27181 27186 27185 27485 27486 27491 27490
8 27181 27182 27187 27186 27486 27487 27492 27491
8 27182 27183 27188 27187 27487 27488 27493 27492
8 27183 9086 9085 27188 27488 9025 9024 27493
8 3129 27184 27189 3130 3068 27489 27494 3069
8 27184 27185 27190 27189 27489 27490 27495 27494
8 27185 27186 27191 27190 27490 27491 27496 27495
8 27186 27187 27192 27191 27491 27492 27497 27496
8 27187 27188 27193 27192 27492 27493 27498 27497
8 27188 9085 9084 27193 27493 9024 9023 27498
8 3130 27189 27194 3131 3069 27494 27499 3070
8 27189 27190 27195 27194 27494 27495 27500 27499
8 27190 27191 27196 27195 27495 27496 27501 27500
8 27191 27192 27197 27196 27496 27497 27502 27501
8 27192 27193 27198 27197 27497 27498 27503 27502
8 27193 9084 9083 27198 27498 9023 9022 27503
8 3131 27194 27199 3132 3070 27499 27504 3071
8 27194 27195 27200 27199 27499 27500 27505 27504
8 27195 27196 27201 27200 27500 27501 27506 27505
8 27196 27197 27202 27201 27501 27502 27507 27506
8 27197 27198 27203 27202 27502 27503 27508 27507
8 27198 9083 9082 27203 27503 9022 9021 27508
8 3132 27199 27204 3133 3071 27504 27509 3072
8 27199 27200 27205 27204 27504 27505 27510 27509
8 27200 27201 27206 27205 27505 27506 27511 27510
8 27201 27202 27207 27206 27506 27507 27512 27511
8 27202 27203 27208 27207 27507 27508 27513 27512
8 27203 9082 9081 27208 27508 9021 9020 27513
8 3133 27204 27209 3134 3072 27509 27514 3073
8 27204 27205 27210 27209 27509 27510 27515 27514
8 27205 27206 27211 27210 27510 27511 27516 27515
8 27206 27207 27212 27211 27511 27512 27517 27516
8 27207 27208 27213 27212 27512 27513 27518 27517
8 27208 9081 9080 27213 27513 9020 9019 27518
8 3134 27209 27214 3135 3073 27514 27519 3074
8 27209 27210 27215 27214 27514 27515 27520 27519
8 27210 27211 27216 27215 27515 27516 27521 27520
8 27211 27212 27217 27216 27516 27517 27522 27521
8 27212 27213 27218 27217 27517 27518 27523 27522
8 27213 9080 9079 27218 27518 9019 9018 27523
8 3135 27214 27219 3136 3074 27519 27524 3075
8 27214 27215 27220 27219 27519 27520 27525 27524
8 27215 27216 27221 27220 27520 27521 27526 27525
8 27216 27217 27222 27221 27521 27522 27527 27526
8 27217 27218 27223 27222 27522 27523 27528 27527
8 27218 9079 9078 27223 27523 9018 9017 27528
8 27219 27220 27225 27224 27524 27525 27530 27529
8 27220 27221 27226 27225 27525 27526 27531 27530
8 27221 27222 27227 27226 27526 27527 27532 27531
8 27222 27223 27228 27227 27527 27528 27533 27532
8 27223 9078 9077 27228 27528 9017 9016 27533
8 27224 27225 27230 27229 27529 27530 27535 27534
8 27225 27226 27231 27230 27530 27531 27536 27535
8 27226 27227 27232 27231 27531 27532 27537 27536
8 27227 27228 27233 27232 27532 27533 27538 27537
8 27228 9077 9076 27233 27533 9016 9015 27538
8 27229 27230 27235 27234 27534 27535 27540 27539
8 27230 27231 27236 27235 27535 27536 27541 27540
8 27231 27232 27237 27236 27536 27537 27542 27541
8 27232 27233 27238 27237 27537 27538 27543 27542
8 27233 9076 9075 27238 27538 9015 9014 27543
8 27234 27235 27240 27239 27539 27540 27545 27544
8 27235 27236 27241 27240 27540 27541 27546 27545
8 27236 27237 27242 27241 27541 27542 27547 27546
8 27237 27238 27243 27242 27542 27543 27548 27547
8 27238 9075 9074 27243 27543 9014 9013 27548
8 27239 27240 27245 27244 27544 27545 27550 27549
8 27240 27241 27246 27245 27545 27546 27551 27550
8 27241 27242 27247 27246 27546 27547 27552 27551
8 27242 27243 27248 27247 27547 27548 27553 27552
8 27243 9074 9073 27248 27548 9013 9012 27553
8 27244 27245 27250 27249 27549 27550 27555 27554
8 27245 27246 27251 27250 27550 27551 27556 27555
8 27246 27247 27252 27251 27551 27552 27557 27556
8 27247 27248 27253 27252 27552 27553 27558 27557
8 27248 9073 9072 27253 27553 9012 9011 27558
8 27249 27250 27255 27254 27554 27555 27560 27559
8 27250 27251 27256 27255 27555 27556 27561 27560
8 27251 27252 27257 27256 27556 27557 27562 27561
8 27252 27253 27258 27257 27557 27558 27563 27562
8 27253 9072 9071 27258 27558 9011 9010 27563
8 27254 27255 27260 27259 27559 27560 27565 27564
8 27255 27256 27261 27260 27560 27561 27566 27565
8 27256 27257 27262 27261 27561 27562 27567 27566
8 27257 27258 27263 27262 27562 27563 27568 27567
8 27258 9071 9070 27263 27563 9010 9009 27568
8 27259 27260 27265 27264 27564 27565 27570 27569
8 27260 27261 27266 27265 27565 27566 27571 27570
8 27261 27262 27267 27266 27566 27567 27572 27571
8 27262 27263 27268 27267 27567 27568 27573 27572
8 27263 9070 9069 27268 27568 9009 9008 27573
8 3145 27264 27269 3146 3084 27569 27574 3085
8 27264 27265 27270 27269 27569 27570 27575 27574
8 27265 27266 27271 27270 27570 27571 27576 27575
8 27266 27267 27272 27271 27571 27572 27577 27576
8 27267 27268 27273 27272 27572 27573 27578 27577
8 27268 9069 9068 27273 27573 9008 9007 27578
8 3146 27269 27274 3147 3085 27574 27579 3086
8 27269 27270 27275 27274 27574 27575 27580 27579
8 27270 27271 27276 27275 27575 27576 27581 27580
8 27271 27272 27277 27276 27576 27577 27582 27581
8 27272 27273 27278 27277 27577 27578 27583 27582
8 27273 9068 9067 27278 27578 9007 9006 27583
8 3147 27274 27279 3148 3086 27579 27584 3087
8 27274 27275 27280 27279 27579 27580 27585 27584
8 27275 27276 27281 27280 27580 27581 27586 27585
8 27276 27277 27282 27281 27581 27582 27587 27586
8 27277 27278 27283 27282 27582 27583 27588 27587
8 27278 9067 9066 27283 27583 9006 9005 27588
8 3148 27279 27284 3149 3087 27584 27589 3088
8 27279 27280 27285 27284 27584 27585 27590 27589
8 27280 27281 27286 27285 27585 27586 27591 27590
8 27281 27282 27287 27286 27586 27587 27592 27591
8 27282 27283 27288 27287 27587 27588 27593 27592
8 27283 9066 9065 27288 27588 9005 9004 27593
8 3149 27284 27289 3150 3088 27589 27594 3089
8 27284 27285 27290 27289 27589 27590 27595 27594
8 27285 27286 27291 27290 27590 27591 27596 27595
8 27286 27287 27292 27291 27591 27592 27597 27596
8 27287 27288 27293 27292 27592 27593 27598 27597
8 27288 9065 9064 27293 27593 9004 9003 27598
8 3150 27289 27294 3151 3089 27594 27599 3090
8 27289 27290 27295 27294 27594 27595 27600 27599
8 27290 27291 27296 27295 27595 27596 27601 27600
8 27291 27292 27297 27296 27596 27597 27602 27601
8 27292 27293 27298 27297 27597 27598 27603 27602
8 27293 9064 9063 27298 27598 9003 9002 27603
8 3151 27294 27299 3152 3090 27599 27604 3091
8 27294 27295 27300 27299 27599 27600 27605 27604
8 27295 27296 27301 27300 27600 27601 27606 27605
8 27296 27297 27302 27301 27601 27602 27607 27606
8 27297 27298 27303 27302 27602 27603 27608 27607
8 27298 9063 9062 27303 27603 9002 9001 27608
8 3152 27299 27304 3153 3091 27604 27609 3092
8 27299 27300 27305 27304 27604 27605 27610 27609
8 27300 27301 27306 27305 27605 27606 27611 27610
8 27301 27302 27307 27306 27606 27607 27612 27611
8 27302 27303 27308 27307 27607 27608 27613 27612
8 27303 9062 9061 27308 27608 9001 9000 27613
8 3153 27304 27309 3154 3092 27609 27614 3093
8 27304 27305 27310 27309 27609 27610 27615 27614
8 27305 27306 27311 27310 27610 27611 27616 27615
8 27306 27307 27312 27311 27611 27612 27617 27616
8 27307 27308 27313 27312 27612 27613 27618 27617
8 27308 9061 9060 27313 27613 9000 8999 27618
8 27309 27310 27315 27314 27614 27615 27620 27619
8 27310 27311 27316 27315 27615 27616 27621 27620
8 27311 27312 27317 27316 27616 27617 27622 27621
8 27312 27313 27318 27317 27617 27618 27623 27622
8 27313 9060 9059 27318 27618 8999 8998 27623
8 27314 27315 27320 27319 27619 27620 27625 27624
8 27315 27316 27321 27320 27620 27621 27626 27625
8 27316 27317 27322 27321 27621 27622 27627 27626
8 27317 27318 27323 27322 27622 27623 27628 27627
8 27318 9059 9058 27323 27623 8998 8997 27628
8 27319 27320 27325 27324 27624 27625 27630 27629
8 27320 27321 27326 27325 27625 27626 27631 27630
8 27321 27322 27327 27326 27626 27627 27632 27631
8 27322 27323 27328 27327 27627 27628 27633 27632
8 27323 9058 9057 27328 27628 8997 8996 27633
8 27324 27325 27330 27329 27629 27630 27635 27634
8 27325 27326 27331 27330 27630 27631 27636 27635
8 27326 27327 27332 27331 27631 27632 27637 27636
8 27327 27328 27333 27332 27632 27633 27638 27637
8 27328 9057 9056 27333 27633 8996 8995 27638
8 27329 27330 27335 27334 27634 27635 27640 27639
8 27330 27331 27336 27335 27635 27636 27641 27640
8 27331 27332 27337 27336 27636 27637 27642 27641
8 27332 27333 27338 27337 27637 27638 27643 27642
8 27333 9056 9055 27338 27638 8995 8994 27643
8 27334 27335 27340 27339 27639 27640 27645 27644
8 27335 27336 27341 27340 27640 27641 27646 27645
8 27336 27337 27342 27341 27641 27642 27647 27646
8 27337 27338 27343 27342 27642 27643 27648 27647
8 27338 9055 9054 27343 27643 8994 8993 27648
8 27339 27340 27345 27344 27644 27645 27650 27649
8 27340 27341 27346 27345 27645 27646 27651 27650
8 27341 27342 27347 27346 27646 27647 27652 27651
8 27342 27343 27348 27347 27647 27648 27653 27652
8 27343 9054 9053 27348 27648 8993 8992 27653
8 27344 27345 27350 27349 27649 27650 27655 27654
8 27345 27346 27351 27350 27650 27651 27656 27655
8 27346 27347 27352 27351 27651 27652 27657 27656
8 27347 27348 27353 27352 27652 27653 27658 27657
8 27348 9053 9052 27353 27653 8992 8991 27658
8 27349 27350 27355 27354 27654 27655 27660 27659
8 27350 27351 27356 27355 27655 27656 27661 27660
8 27351 27352 27357 27356 27656 27657 27662 27661
8 27352 27353 27358 27357 27657 27658 27663 27662
8 27353 9052 9051 27358 27658 8991 8990 27663
8 27354 27355 27360 27359 27659 27660 27665 27664
8 27355 27356 27361 27360 27660 27661 27666 27665
8 27356 27357 27362 27361 27661 27662 27667 27666
8 27357 27358 27363 27362 27662 27663 27668 27667
8 27358 9051 9050 27363 27663 8990 8989 27668
8 27359 27360 27365 27364 27664 27665 27670 27669
8 27360 27361 27366 27365 27665 27666 27671 27670
8 27361 27362 27367 27366 27666 27667 27672 27671
8 27362 27363 27368 27367 27667 27668 27673 27672
8 27363 9050 9049 27368 27668 8989 8988 27673
8 27364 27365 27370 27369 27669 27670 27675 27674
8 27365 27366 27371 27370 27670 27671 27676 27675
8 27366 27367 27372 27371 27671 27672 27677 27676
8 27367 27368 27373 27372 27672 27673 27678 27677
8 27368 9049 9048 27373 27673 8988 8987 27678
8 27369 27370 27375 27374 27674 27675 27680 27679
8 27370 27371 27376 27375 27675 27676 27681 27680
8 27371 27372 27377 27376 27676 27677 27682 27681
8 27372 27373 27378 27377 27677 27678 27683 27682
8 27373 9048 9047 27378 27678 8987 8986 27683
8 3167 27374 27379 3168 3106 27679 27684 3107
8 27374 27375 27380 27379 27679 27680 27685 27684
8 27375 27376 27381 27380 27680 27681 27686 27685
8 27376 27377 27382 27381 27681 27682 27687 27686
8 27377 27378 27383 27382 27682 27683 27688 27687
8 27378 9047 9046 27383 27683 8986 8985 27688
8 3168 27379 27384 3169 3107 27684 27689 3108
8 27379 27380 27385 27384 27684 27685 27690 27689
8 27380 27381 27386 27385 27685 27686 27691 27690
8 27381 27382 27387 27386 27686 27687 27692 27691
8 27382 27383 27388 27387 27687 27688 27693 27692
8 27383 9046 9045 27388 27688 8985 8984 27693
8 3169 27384 27389 3170 3108 27689 27694 3109
8 27384 27385 27390 27389 27689 27690 27695 27694
8 27385 27386 27391 27390 27690 27691 27696 27695
8 27386 27387 27392 27391 27691 27692 27697 27696
8 27387 27388 27393 27392 27692 27693 27698 27697
8 27388 9045 9044 27393 27693 8984 8983 27698
8 3170 27389 27394 3171 3109 27694 27699 3110
8 27389 27390 27395 27394 27694 27695 27700 27699
8 27390 27391 27396 27395 27695 27696 27701 27700
8 27391 27392 27397 27396 27696 27697 27702 27701
8 27392 27393 27398 27397 27697 27698 27703 27702
8 27393 9044 9043 27398 27698 8983 8982 27703
8 3171 27394 27399 3172 3110 27699 27704 3111
8 27394 27395 27400 27399 27699 27700 27705 27704
8 27395 27396 27401 27400 27700 27701 27706 27705
8 27396 27397 27402 27401 27701 27702 27707 27706
8 27397 27398 27403 27402 27702 27703 27708 27707
8 27398 9043 9042 27403 27703 8982 8981 27708
8 3172 27399 27404 3173 3111 27704 27709 3112
8 27399 27400 27405 27404 27704 27705 27710 27709
8 27400 27401 27406 27405 27705 27706 27711 27710
8 27401 27402 27407 27406 27706 27707 27712 27711
8 27402 27403 27408 27407 27707 27708 27713 27712
8 27403 9042 9041 27408 27708 8981 8980 27713
8 3173 27404 27409 3174 3112 27709 27714 3113
8 27404 27405 27410 27409 27709 27710 27715 27714
8 27405 27406 27411 27410 27710 27711 27716 27715
8 27406 27407 27412 27411 27711 27712 27717 27716
8 27407 27408 27413 27412 27712 27713 27718 27717
8 27408 9041 9040 27413 27713 8980 8979 27718
8 3174 27409 27414 3175 3113 27714 27719 3114
8 27409 27410 27415 27414 27714 27715 27720 27719
8 27410 27411 27416 27415 27715 27716 27721 27720
8 27411 27412 27417 27416 27716 27717 27722 27721
8 27412 27413 27418 27417 27717 27718 27723 27722
8 27413 9040 9039 27418 27718 8979 8978 27723
8 3175 27414 27419 3176 3114 27719 27724 3115
8 27414 27415 27420 27419 27719 27720 27725 27724
8 27415 27416 27421 27420 27720 27721 27726 27725
8 27416 27417 27422 27421 27721 27722 27727 27726
8 27417 27418 27423 27422 27722 27723 27728 27727
8 27418 9039 9038 27423 27723 8978 8977 27728
8 3176 27419 12859 110 3115 27724 12854 109
8 27419 27420 12860 12859 27724 27725 12855 12854
8 27420 27421 12861 12860 27725 27726 12856 12855
8 27421 27422 12862 12861 27726 27727 12857 12856
8 27422 27423 12863 12862 27727 27728 12858 12857
8 27423 9038 6185 12863 27728 8977 6186 12858
8 264 12084 27424 3055 265 12089 27729 2994
8 12084 12085 27425 27424 12089 12090 27730 27729
8 12085 12086 27426 27425 12090 12091 27731 27730
8 12086 12087 27427 27426 12091 12092 27732 27731
8 12087 12088 27428 27427 12092 12093 27733 27732
8 12088 6031 9037 27428 12093 6030 8976 27733
8 3055 27424 27429 3056 2994 27729 27734 2995
8 27424 27425 27430 27429 27729 27730 27735 27734
8 27425 27426 27431 27430 27730 27731 27736 27735
8 27426 27427 27432 27431 27731 27732 27737 27736
8 27427 27428 27433 27432 27732 27733 27738 27737
8 27428 9037 9036 27433 27733 8976 8975 27738
8 3056 27429 27434 3057 2995 27734 27739 2996
8 27429 27430 27435 27434 27734 27735 27740 27739
8 27430 27431 27436 27435 27735 27736 27741 27740
8 27431 27432 27437 27436 27736 27737 27742 27741
8 27432 27433 27438 27437 27737 27738 27743 27742
8 27433 9036 9035 27438 27738 8975 8974 27743
8 3057 27434 27439 3058 2996 27739 27744 2997
8 27434 27435 27440 27439 27739 27740 27745 27744
8 27435 27436 27441 27440 27740 27741 27746 27745
8 27436 27437 27442 27441 27741 27742 27747 27746
8 27437 27438 27443 27442 27742 27743 27748 27747
8 27438 9035 9034 27443 27743 8974 8973 27748
8 3058 27439 27444 3059 2997 27744 27749 2998
8 27439 27440 27445 27444 27744 27745 27750 27749
8 27440 27441 27446 27445 27745 27746 27751 27750
8 27441 27442 27447 27446 27746 27747 27752 27751
8 27442 27443 27448 27447 27747 27748 27753 27752
8 27443 9034 9033 27448 27748 8973 8972 27753
8 3059 27444 27449 3060 2998 27749 27754 2999
8 27444 27445 27450 27449 27749 27750 27755 27754
8 27445 27446 27451 27450 27750 27751 27756 27755
8 27446 27447 27452 27451 27751 27752 27757 27756
8 27447 27448 27453 27452 27752 27753 27758 27757
8 27448 9033 9032 27453 27753 8972 8971 27758
8 3060 27449 27454 3061 2999 27754 27759 3000
8 27449 27450 27455 27454 27754 27755 27760 27759
8 27450 27451 27456 27455 27755 27756 27761 27760
8 27451 27452 27457 27456 27756 27757 27762 27761
8 27452 27453 27458 27457 27757 27758 27763 27762
8 27453 9032 9031 27458 27758 8971 8970 27763
8 3061 27454 27459 3062 3000 27759 27764 3001
8 27454 27455 27460 27459 27759 27760 27765 27764
8 27455 27456 27461 27460 27760 27761 27766 27765
8 27456 27457 27462 27461 27761 27762 27767 27766
8 27457 27458 27463 27462 27762 27763 27768 27767
8 27458 9031 9030 27463 27763 8970 8969 27768
8 3062 27459 27464 3063 3001 27764 27769 3002
8 27459 27460 27465 27464 27764 27765 27770 27769
8 27460 27461 27466 27465 27765 27766 27771 27770
8 27461 27462 27467 27466 27766 27767 27772 27771
8 27462 27463 27468 27467 27767 27768 27773 27772
8 27463 9030 9029 27468 27768 8969 8968 27773
8 3063 27464 27469 3064 3002 27769 27774 3003
8 27464 27465 27470 27469 27769 27770 27775 27774
8 27465 27466 27471 27470 27770 27771 27776 27775
8 27466 27467 27472 27471 27771 27772 27777 27776
8 27467 27468 27473 27472 27772 27773 27778 27777
8 27468 9029 9028 27473 27773 8968 8967 27778
8 3064 27469 27474 3065 3003 27774 27779 3004
8 27469 27470 27475 27474 27774 27775 27780 27779
8 27470 27471 27476 27475 27775 27776 27781 27780
8 27471 27472 27477 27476 27776 27777 27782 27781
8 27472 27473 27478 27477 27777 27778 27783 27782
8 27473 9028 9027 27478 27778 8967 8966 27783
8 3065 27474 27479 3066 3004 27779 27784 3005
8 27474 27475 27480 27479 27779 27780 27785 27784
8 27475 27476 27481 27480 27780 27781 27786 27785
8 27476 27477 27482 27481 27781 27782 27787 27786
8 27477 27478 27483 27482 27782 27783 27788 27787
8 27478 9027 9026 27483 27783 8966 8965 27788
8 3066 27479 27484 3067 3005 27784 27789 3006
8 27479 27480 27485 27484 27784 27785 27790 27789
8 27480 27481 27486 27485 27785 27786 27791 27790
8 27481 27482 27487 27486 27786 27787 27792 27791
8 27482 27483 27488 27487 27787 27788 27793 27792
8 27483 9026 9025 27488 27788 8965 8964 27793
8 3067 27484 27489 3068 3006 27789 27794 3007
8 27484 27485 27490 27489 27789 27790 27795 27794
8 27485 27486 27491 27490 27790 27791 27796 27795
8 27486 27487 27492 27491 27791 27792 27797 27796
8 27487 27488 27493 27492 27792 27793 27798 27797
8 27488 9025 9024 27493 27793 8964 8963 27798
8 3068 27489 27494 3069 3007 27794 27799 3008
8 27489 27490 27495 27494 27794 27795 27800 27799
8 27490 27491 27496 27495 27795 27796 27801 27800
8 27491 27492 27497 27496 27796 27797 27802 27801
8 27492 27493 27498 27497 27797 27798 27803 27802
8 27493 9024 9023 27498 27798 8963 8962 27803
8 3069 27494 27499 3070 3008 27799 27804 3009
8 27494 27495 27500 27499 27799 27800 27805 27804
8 27495 27496 27501 27500 27800 27801 27806 27805
8 27496 27497 27502 27501 27801 27802 27807 27806
8 27497 27498 27503 27502 27802 27803 27808 27807
8 27498 9023 9022 27503 27803 8962 8961 27808
8 3070 27499 27504 3071 3009 27804 27809 3010
8 27499 27500 27505 27504 27804 27805 27810 27809
8 27500 27501 27506 27505 27805 27806 27811 27810
8 27501 27502 27507 27506 27806 27807 27812 27811
8 27502 27503 27508 27507 27807 27808 27813 27812
8 27503 9022 9021 27508 27808 8961 8960 27813
8 3071 27504 27509 3072 3010 27809 27814 3011
8 27504 27505 27510 27509 27809 27810 27815 27814
8 27505 27506 27511 27510 27810 27811 27816 27815
8 27506 27507 27512 27511 27811 27812 27817 27816
8 27507 27508 27513 27512 27812 27813 27818 27817
8 27508 9021 9020 27513 27813 8960 8959 27818
8 3072 27509 27514 3073 3011 27814 27819 3012
8 27509 27510 27515 27514 27814 27815 27820 27819
8 27510 27511 27516 27515 27815 27816 27821 27820
8 27511 27512 27517 27516 27816 27817 27822 27821
8 27512 27513 27518 27517 27817 27818 27823 27822
8 27513 9020 9019 27518 27818 8959 8958 27823
8 3073 27514 27519 3074 3012 27819 27824 3013
8 27514 27515 27520 27519 27819 27820 27825 27824
8 27515 27516 27521 27520 27820 27821 27826 27825
8 27516 27517 27522 27521 27821 27822 27827 27826
8 27517 27518 27523 27522 27822 27823 27828 27827
8 27518 9019 9018 27523 27823 8958 8957 27828
8 3074 27519 27524 3075 3013 27824 27829 3014
8 27519 27520 27525 27524 27824 27825 27830 27829
8 27520 27521 27526 27525 27825 27826 27831 27830
8 27521 27522 27527 27526 27826 27827 27832 27831
8 27522 27523 27528 27527 27827 27828 27833 27832
8 27523 9018 9017 27528 27828 8957 8956 27833
8 27524 27525 27530 27529 27829 27830 27835 27834
8 27525 27526 27531 27530 27830 27831 27836 27835
8 27526 27527 27532 27531 27831 27832 27837 27836
8 27527 27528 27533 27532 27832 27833 27838 27837
8 27528 9017 9016 27533 27833 8956 8955 27838
8 27529 27530 27535 27534 27834 27835 27840 27839
8 27530 27531 27536 27535 27835 27836 27841 27840
8 27531 27532 27537 27536 27836 27837 27842 27841
8 27532 27533 27538 27537 27837 27838 27843 27842
8 27533 9016 9015 27538 27838 8955 8954 27843
8 27534 27535 27540 27539 27839 27840 27845 27844
8 27535 27536 27541 27540 27840 27841 27846 27845
8 27536 27537 27542 27541 27841 27842 27847 27846
8 27537 27538 27543 27542 27842 27843 27848 27847
8 27538 9015 9014 27543 27843 8954 8953 27848
8 27539 27540 27545 27544 27844 27845 27850 27849
8 27540 27541 27546 27545 27845 27846 27851 27850
8 27541 27542 27547 27546 27846 27847 27852 27851
8 27542 27543 27548 27547 27847 27848 27853 27852
8 27543 9014 9013 27548 27848 8953 8952 27853
8 27544 27545 27550 27549 27849 27850 27855 27854
8 27545 27546 27551 27550 27850 27851 27856 27855
8 27546 27547 27552 27551 27851 27852 27857 27856
8 27547 27548 27553 27552 27852 27853 27858 27857
8 27548 9013 9012 27553 27853 8952 8951 27858
8 27549 27550 27555 27554 27854 27855 27860 27859
8 27550 27551 27556 27555 27855 27856 27861 27860
8 27551 27552 27557 27556 27856 27857 27862 27861
8 27552 27553 27558 27557 27857 27858 27863 27862
8 27553 9012 9011 27558 27858 8951 8950 27863
8 27554 27555 27560 27559 27859 27860 27865 27864
8 27555 27556 27561 27560 27860 27861 27866 27865
8 27556 27557 27562 27561 27861 27862 27867 27866
8 27557 27558 27563 27562 27862 27863 27868 27867
8 27558 9011 9010 27563 27863 8950 8949 27868
8 27559 27560 27565 27564 27864 27865 27870 27869
8 27560 27561 27566 27565 27865 27866 27871 27870
8 27561 27562 27567 27566 27866 27867 27872 27871
8 27562 27563 27568 27567 27867 27868 27873 27872
8 27563 9010 9009 27568 27868 8949 8948 27873
8 3083 27564 27569 3084 3022 27869 27874 3023
8 27564 27565 27570 27569 27869 27870 27875 27874
8 27565 27566 27571 27570 27870 27871 27876 27875
8 27566 27567 27572 27571 27871 27872 27877 27876
8 27567 27568 27573 27572 27872 27873 27878 27877
8 27568 9009 9008 27573 27873 8948 8947 27878
8 3084 27569 27574 3085 3023 27874 27879 3024
8 27569 27570 27575 27574 27874 27875 27880 27879
8 27570 27571 27576 27575 27875 27876 27881 27880
8 27571 27572 27577 27576 27876 27877 27882 27881
8 27572 27573 27578 27577 27877 27878 27883 27882
8 27573 9008 9007 27578 27878 8947 8946 27883
8 3085 27574 27579 3086 3024 27879 27884 3025
8 27574 27575 27580 27579 27879 27880 27885 27884
8 27575 27576 27581 27580 27880 27881 27886 27885
8 27576 27577 27582 27581 27881 27882 27887 27886
8 27577 27578 27583 27582 27882 27883 27888 27887
8 27578 9007 9006 27583 27883 8946 8945 27888
8 3086 27579 27584 3087 3025 27884 27889 3026
8 27579 27580 27585 27584 27884 27885 27890 27889
8 27580 27581 27586 27585 27885 27886 27891 27890
8 27581 27582 27587 27586 27886 27887 27892 27891
8 27582 27583 27588 27587 27887 27888 27893 27892
8 27583 9006 9005 27588 27888 8945 8944 27893
8 3087 27584 27589 3088 3026 27889 27894 3027
8 27584 27585 27590 27589 27889 27890 27895 27894
8 27585 27586 27591 27590 27890 27891 27896 27895
8 27586 27587 27592 27591 27891 27892 27897 27896
8 27587 27588 27593 27592 27892 27893 27898 27897
8 27588 9005 9004 27593 27893 8944 8943 27898
8 3088 27589 27594 3089 3027 27894 27899 3028
8 27589 27590 27595 27594 27894 27895 27900 27899
8 27590 27591 27596 27595 27895 27896 27901 27900
8 27591 27592 27597 27596 27896 27897 27902 27901
8 27592 27593 27598 27597 27897 27898 27903 27902
8 27593 9004 9003 27598 27898 8943 8942 27903
8 3089 27594 27599 3090 3028 27899 27904 3029
8 27594 27595 27600 27599 27899 27900 27905 27904
8 27595 27596 27601 27600 27900 27901 27906 27905
8 27596 27597 27602 27601 27901 27902 27907 27906
8 27597 27598 27603 27602 27902 27903 27908 27907
8 27598 9003 9002 27603 27903 8942 8941 27908
8 3090 27599 27604 3091 3029 27904 27909 3030
8 27599 27600 27605 27604 27904 27905 27910 27909
8 27600 27601 27606 27605 27905 27906 27911 27910
8 27601 27602 27607 27606 27906 27907 27912 27911
8 27602 27603 27608 27607 27907 27908 27913 27912
8 27603 9002 9001 27608 27908 8941 8940 27913
8 3091 27604 27609 3092 3030 27909 27914 3031
8 27604 27605 27610 27609 27909 27910 27915 27914
8 27605 27606 27611 27610 27910 27911 27916 27915
8 27606 27607 27612 27611 27911 27912 27917 27916
8 27607 27608 27613 27612 27912 27913 27918 27917
8 27608 9001 9000 27613 27913 8940 8939 27918
8 3092 27609 27614 3093 3031 27914 27919 3032
8 27609 27610 27615 27614 27914 27915 27920 27919
8 27610 27611 27616 27615 27915 27916 27921 27920
8 27611 27612 27617 27616 27916 27917 27922 27921
8 27612 27613 27618 27617 27917 27918 27923 27922
8 27613 9000 8999 27618 27918 8939 8938 27923
8 27614 27615 27620 27619 27919 27920 27925 27924
8 27615 27616 27621 27620 27920 27921 27926 27925
8 27616 27617 27622 27621 27921 27922 27927 27926
8 27617 27618 27623 27622 27922 27923 27928 27927
8 27618 8999 8998 27623 27923 8938 8937 27928
8 27619 27620 27625 27624 27924 27925 27930 27929
8 27620 27621 27626 27625 27925 27926 27931 27930
8 27621 27622 27627 27626 27926 27927 27932 27931
8 27622 27623 27628 27627 27927 27928 27933 27932
8 27623 8998 8997 27628 27928 8937 8936 27933
8 27624 27625 27630 27629 27929 27930 27935 27934
8 27625 27626 27631 27630 27930 27931 27936 27935
8 27626 27627 27632 27631 27931 27932 27937 27936
8 27627 27628 27633 27632 27932 27933 27938 27937
8 27628 8997 8996 27633 27933 8936 8935 27938
8 27629 27630 27635 27634 27934 27935 27940 27939
8 27630 27631 27636 27635 27935 27936 27941 27940
8 27631 27632 27637 27636 27936 27937 27942 27941
8 27632 27633 27638 27637 27937 27938 27943 27942
8 27633 8996 8995 27638 27938 8935 8934 27943
8 27634 27635 27640 27639 27939 27940 27945 27944
8 27635 27636 27641 27640 27940 27941 27946 27945
8 27636 27637 27642 27641 27941 27942 27947 27946
8 27637 27638 27643 27642 27942 27943 27948 27947
8 27638 8995 8994 27643 27943 8934 8933 27948
8 27639 27640 27645 27644 27944 27945 27950 27949
8 27640 27641 27646 27645 27945 27946 27951 27950
8 27641 27642 27647 27646 27946 27947 27952 27951
8 27642 27643 27648 27647 27947 27948 27953 27952
8 27643 8994 8993 27648 27948 8933 8932 27953
8 27644 27645 27650 27649 27949 27950 27955 27954
8 27645 27646 27651 27650 27950 27951 27956 27955
8 27646 27647 27652 27651 27951 27952 27957 27956
8 27647 27648 27653 27652 27952 27953 27958 27957
8 27648 8993 8992 27653 27953 8932 8931 27958
8 27649 27650 27655 27654 27954 27955 27960 27959
8 27650 27651 27656 27655 27955 27956 27961 27960
8 27651 27652 27657 27656 27956 27957 27962 27961
8 27652 27653 27658 27657 27957 27958 27963 27962
8 27653 8992 8991 27658 27958 8931 8930 27963
8 27654 27655 27660 27659 27959 27960 27965 27964
8 27655 27656 27661 27660 27960 27961 27966 27965
8 27656 27657 27662 27661 27961 27962 27967 27966
8 27657 27658 27663 27662 27962 27963 27968 27967
8 27658 8991 8990 27663 27963 8930 8929 27968
8 27659 27660 27665 27664 27964 27965 27970 27969
8 27660 27661 27666 27665 27965 27966 27971 27970
8 27661 27662 27667 27666 27966 27967 27972 27971
8 27662 27663 27668 27667 27967 27968 27973 27972
8 27663 8990 8989 27668 27968 8929 8928 27973
8 27664 27665 27670 27669 27969 27970 27975 27974
8 27665 27666 27671 27670 27970 27971 27976 27975
8 27666 27667 27672 27671 27971 27972 27977 27976
8 27667 27668 27673 27672 27972 27973 27978 27977
8 27668 8989 8988 27673 27973 8928 8927 27978
8 27669 27670 27675 27674 27974 27975 27980 27979
8 27670 27671 27676 27675 27975 27976 27981 27980
8 27671 27672 27677 27676 27976 27977 27982 27981
8 27672 27673 27678 27677 27977 27978 27983 27982
8 27673 8988 8987 27678 27978 8927 8926 27983
8 27674 27675 27680 27679 27979 27980 27985 27984
8 27675 27676 27681 27680 27980 27981 27986 27985
8 27676 27677 27682 27681 27981 27982 27987 27986
8 27677 27678 27683 27682 27982 27983 27988 27987
8 27678 8987 8986 27683 27983 8926 8925 27988
8 3106 27679 27684 3107 3045 27984 27989 3046
8 27679 27680 27685 27684 27984 27985 27990 27989
8 27680 27681 27686 27685 27985 27986 27991 27990
8 27681 27682 27687 27686 27986 27987 27992 27991
8 27682 27683 27688 27687 27987 27988 27993 27992
8 27683 8986 8985 27688 27988 8925 8924 27993
8 3107 27684 27689 3108 3046 27989 27994 3047
8 27684 27685 27690 27689 27989 27990 27995 27994
8 27685 27686 27691 27690 27990 27991 27996 27995
8 27686 27687 27692 27691 27991 27992 27997 27996
8 27687 27688 27693 27692 27992 27993 27998 27997
8 27688 8985 8984 27693 27993 8924 8923 27998
8 3108 27689 27694 3109 3047 27994 27999 3048
8 27689 27690 27695 27694 27994 27995 28000 27999
8 27690 27691 27696 27695 27995 27996 28001 28000
8 27691 27692 27697 27696 27996 27997 28002 28001
8 27692 27693 27698 27697 27997 27998 28003 28002
8 27693 8984 8983 27698 27998 8923 8922 28003
8 3109 27694 27699 3110 3048 27999 28004 3049
8 27694 27695 27700 27699 27999 28000 28005 28004
8 27695 27696 27701 27700 28000 28001 28006 28005
8 27696 27697 27702 27701 28001 28002 28007 28006
8 27697 27698 27703 27702 28002 28003 28008 28007
8 27698 8983 8982 27703 28003 8922 8921 28008
8 3110 27699 27704 3111 3049 28004 28009 3050
8 27699 27700 27705 27704 28004 28005 28010 28009
8 27700 27701 27706 27705 28005 28006 28011 28010
8 27701 27702 27707 27706 28006 28007 28012 28011
8 27702 27703 27708 27707 28007 28008 28013 28012
8 27703 8982 8981 27708 28008 8921 8920 28013
8 3111 27704 27709 3112 3050 28009 28014 3051
8 27704 27705 27710 27709 28009 28010 28015 28014
8 27705 27706 27711 27710 28010 28011 28016 28015
8 27706 27707 27712 27711 28011 28012 28017 28016
8 27707 27708 27713 27712 28012 28013 28018 28017
8 27708 8981 8980 27713 28013 8920 8919 28018
8 3112 27709 27714 3113 3051 28014 28019 3052
8 27709 27710 27715 27714 28014 28015 28020 28019
8 27710 27711 27716 27715 28015 28016 28021 28020
8 27711 27712 27717 27716 28016 28017 28022 28021
8 27712 27713 27718 27717 28017 28018 28023 28022
8 27713 8980 8979 27718 28018 8919 8918 28023
8 3113 27714 27719 3114 3052 28019 28024 3053
8 27714 27715 27720 27719 28019 28020 28025 28024
8 27715 27716 27721 27720 28020 28021 28026 28025
8 27716 27717 27722 27721 28021 28022 28027 28026
8 27717 27718 27723 27722 28022 28023 28028 28027
8 27718 8979 8978 27723 28023 8918 8917 28028
8 3114 27719 27724 3115 3053 28024 28029 3054
8 27719 27720 27725 27724 28024 28025 28030 28029
8 27720 27721 27726 27725 28025 28026 28031 28030
8 27721 27722 27727 27726 28026 28027 28032 28031
8 27722 27723 27728 27727 28027 28028 28033 28032
8 27723 8978 8977 27728 28028 8917 8916 28033
8 3115 27724 12854 109 3054 28029 12849 108
8 27724 27725 12855 12854 28029 28030 12850 12849
8 27725 27726 12856 12855 28030 28031 12851 12850
8 27726 27727 12857 12856 28031 28032 12852 12851
8 27727 27728 12858 12857 28032 28033 12853 12852
8 27728 8977 6186 12858 28033 8916 6187 12853
8 265 12089 27729 2994 266 12094 28034 2933
8 12089 12090 27730 27729 12094 12095 28035 28034
8 12090 12091 27731 27730 12095 12096 28036 28035
8 12091 12092 27732 27731 12096 12097 28037 28036
8 12092 12093 27733 27732 12097 12098 28038 28037
8 12093 6030 8976 27733 12098 6029 8915 28038
8 2994 27729 27734 2995 2933 28034 28039 2934
8 27729 27730 27735 27734 28034 28035 28040 28039
8 27730 27731 27736 27735 28035 28036 28041 28040
8 27731 27732 27737 27736 28036 28037 28042 28041
8 27732 27733 27738 27737 28037 28038 28043 28042
8 27733 8976 8975 27738 28038 8915 8914 28043
8 2995 27734 27739 2996 2934 28039 28044 2935
8 27734 27735 27740 27739 28039 28040 28045 28044
8 27735 27736 27741 27740 28040 28041 28046 28045
8 27736 27737 27742 27741 28041 28042 28047 28046
8 27737 27738 27743 27742 28042 28043 28048 28047
8 27738 8975 8974 27743 28043 8914 8913 28048
8 2996 27739 27744 2997 2935 28044 28049 2936
8 27739 27740 27745 27744 28044 28045 28050 28049
8 27740 27741 27746 27745 28045 28046 28051 28050
8 27741 27742 27747 27746 28046 28047 28052 28051
8 27742 27743 27748 27747 28047 28048 28053 28052
8 27743 8974 8973 27748 28048 8913 8912 28053
8 2997 27744 27749 2998 2936 28049 28054 2937
8 27744 27745 27750 27749 28049 28050 28055 28054
8 27745 27746 27751 27750 28050 28051 28056 28055
8 27746 27747 27752 27751 28051 28052 28057 28056
8 27747 27748 27753 27752 28052 28053 28058 28057
8 27748 8973 8972 27753 28053 8912 8911 28058
8 2998 27749 27754 2999 2937 28054 28059 2938
8 27749 27750 27755 27754 28054 28055 28060 28059
8 27750 27751 27756 27755 28055 28056 28061 28060
8 27751 27752 27757 27756 28056 28057 28062 28061
8 27752 27753 27758 27757 28057 28058 28063 28062
8 27753 8972 8971 27758 28058 8911 8910 28063
8 2999 27754 27759 3000 2938 28059 28064 2939
8 27754 27755 27760 27759 28059 28060 28065 28064
8 27755 27756 27761 27760 28060 28061 28066 28065
8 27756 27757 27762 27761 28061 28062 28067 28066
8 27757 27758 27763 27762 28062 28063 28068 28067
8 27758 8971 8970 27763 28063 8910 8909 28068
8 3000 27759 27764 3001 2939 28064 28069 2940
8 27759 27760 27765 27764 28064 28065 28070 28069
8 27760 27761 27766 27765 28065 28066 28071 28070
8 27761 27762 27767 27766 28066 28067 28072 28071
8 27762 27763 27768 27767 28067 28068 28073 28072
8 27763 8970 8969 27768 28068 8909 8908 28073
8 3001 27764 27769 3002 2940 28069 28074 2941
8 27764 27765 27770 27769 28069 28070 28075 28074
8 27765 27766 27771 27770 28070 28071 28076 28075
8 27766 27767 27772 27771 28071 28072 28077 28076
8 27767 27768 27773 27772 28072 28073 28078 28077
8 27768 8969 8968 27773 28073 8908 8907 28078
8 3002 27769 27774 3003 2941 28074 28079 2942
8 27769 27770 27775 27774 28074 28075 28080 28079
8 27770 27771 27776 27775 28075 28076 28081 28080
8 27771 27772 27777 27776 28076 28077 28082 28081
8 27772 27773 27778 27777 28077 28078 28083 28082
8 27773 8968 8967 27778 28078 8907 8906 28083
8 3003 27774 27779 3004 2942 28079 28084 2943
8 27774 27775 27780 27779 28079 28080 28085 28084
8 27775 27776 27781 27780 28080 28081 28086 28085
8 27776 27777 27782 27781 28081 28082 28087 28086
8 27777 27778 27783 27782 28082 28083 28088 28087
8 27778 8967 8966 27783 28083 8906 8905 28088
8 3004 27779 27784 3005 2943 28084 28089 2944
8 27779 27780 27785 27784 28084 28085 28090 28089
8 27780 27781 27786 27785 28085 28086 28091 28090
8 27781 27782 27787 27786 28086 28087 28092 28091
8 27782 27783 27788 27787 28087 28088 28093 28092
8 27783 8966 8965 27788 28088 8905 8904 28093
8 3005 27784 27789 3006 2944 28089 28094 2945
8 27784 27785 27790 27789 28089 28090 28095 28094
8 27785 27786 27791 27790 28090 28091 28096 28095
8 27786 27787 27792 27791 28091 28092 28097 28096
8 27787 27788 27793 27792 28092 28093 28098 28097
8 27788 8965 8964 27793 28093 8904 8903 28098
8 3006 27789 27794 3007 2945 28094 28099 2946
8 27789 27790 27795 27794 28094 28095 28100 28099
8 27790 27791 27796 27795 28095 28096 28101 28100
8 27791 27792 27797 27796 28096 28097 28102 28101
8 27792 27793 27798 27797 28097 28098 28103 28102
8 27793 8964 8963 27798 28098 8903 8902 28103
8 3007 27794 27799 3008 2946 28099 28104 2947
8 27794 27795 27800 27799 28099 28100 28105 28104
8 27795 27796 27801 27800 28100 28101 28106 28105
8 27796 27797 27802 27801 28101 28102 28107 28106
8 27797 27798 27803 27802 28102 28103 28108 28107
8 27798 8963 8962 27803 28103 8902 8901 28108
8 3008 27799 27804 3009 2947 28104 28109 2948
8 27799 27800 27805 27804 28104 28105 28110 28109
8 27800 27801 27806 27805 28105 28106 28111 28110
8 27801 27802 27807 27806 28106 28107 28112 28111
8 27802 27803 27808 27807 28107 28108 28113 28112
8 27803 8962 8961 27808 28108 8901 8900 28113
8 3009 27804 27809 3010 2948 28109 28114 2949
8 27804 27805 27810 27809 28109 28110 28115 28114
8 27805 27806 27811 27810 28110 28111 28116 28115
8 27806 27807 27812 27811 28111 28112 28117 28116
8 27807 27808 27813 27812 28112 28113 28118 28117
8 27808 8961 8960 27813 28113 8900 8899 28118
8 3010 27809 27814 3011 2949 28114 28119 2950
8 27809 27810 27815 27814 28114 28115 28120 28119
8 27810 27811 27816 27815 28115 28116 28121 28120
8 27811 27812 27817 27816 28116 28117 28122 28121
8 27812 27813 27818 27817 28117 28118 28123 28122
8 27813 8960 8959 27818 28118 8899 8898 28123
8 3011 27814 27819 3012 2950 28119 28124 2951
8 27814 27815 27820 27819 28119 28120 28125 28124
8 27815 27816 27821 27820 28120 28121 28126 28125
8 27816 27817 27822 27821 28121 28122 28127 28126
8 27817 27818 27823 27822 28122 28123 28128 28127
8 27818 8959 8958 27823 28123 8898 8897 28128
8 3012 27819 27824 3013 2951 28124 28129 2952
8 27819 27820 27825 27824 28124 28125 28130 28129
8 27820 27821 27826 27825 28125 28126 28131 28130
8 27821 27822 27827 27826 28126 28127 28132 28131
8 27822 27823 27828 27827 28127 28128 28133 28132
8 27823 8958 8957 27828 28128 8897 8896 28133
8 3013 27824 27829 3014 2952 28129 28134 2953
8 27824 27825 27830 27829 28129 28130 28135 28134
8 27825 27826 27831 27830 28130 28131 28136 28135
8 27826 27827 27832 27831 28131 28132 28137 28136
8 27827 27828 27833 27832 28132 28133 28138 28137
8 27828 8957 8956 27833 28133 8896 8895 28138
8 27829 27830 27835 27834 28134 28135 28140 28139
8 27830 27831 27836 27835 28135 28136 28141 28140
8 27831 27832 27837 27836 28136 28137 28142 28141
8 27832 27833 27838 27837 28137 28138 28143 28142
8 27833 8956 8955 27838 28138 8895 8894 28143
8 27834 27835 27840 27839 28139 28140 28145 28144
8 27835 27836 27841 27840 28140 28141 28146 28145
8 27836 27837 27842 27841 28141 28142 28147 28146
8 27837 27838 27843 27842 28142 28143 28148 28147
8 27838 8955 8954 27843 28143 8894 8893 28148
8 27839 27840 27845 27844 28144 28145 28150 28149
8 27840 27841 27846 27845 28145 28146 28151 28150
8 27841 27842 27847 27846 28146 28147 28152 28151
8 27842 27843 27848 27847 28147 28148 28153 28152
8 27843 8954 8953 27848 28148 8893 8892 28153
8 27844 27845 27850 27849 28149 28150 28155 28154
8 27845 27846 27851 27850 28150 28151 28156 28155
8 27846 27847 27852 27851 28151 28152 28157 28156
8 27847 27848 27853 27852 28152 28153 28158 28157
8 27848 8953 8952 27853 28153 8892 8891 28158
8 27849 27850 27855 27854 28154 28155 28160 28159
8 27850 27851 27856 27855 28155 28156 28161 28160
8 27851 27852 27857 27856 28156 28157 28162 28161
8 27852 27853 27858 27857 28157 28158 28163 28162
8 27853 8952 8951 27858 28158 8891 8890 28163
8 27854 27855 27860 27859 28159 28160 28165 28164
8 27855 27856 27861 27860 28160 28161 28166 28165
8 27856 27857 27862 27861 28161 28162 28167 28166
8 27857 27858 27863 27862 28162 28163 28168 28167
8 27858 8951 8950 27863 28163 8890 8889 28168
8 27859 27860 27865 27864 28164 28165 28170 28169
8 27860 27861 27866 27865 28165 28166 28171 28170
8 27861 27862 27867 27866 28166 28167 28172 28171
8 27862 27863 27868 27867 28167 28168 28173 28172
8 27863 8950 8949 27868 28168 8889 8888 28173
8 27864 27865 27870 27869 28169 28170 28175 28174
8 27865 27866 27871 27870 28170 28171 28176 28175
8 27866 27867 27872 27871 28171 28172 28177 28176
8 27867 27868 27873 27872 28172 28173 28178 28177
8 27868 8949 8948 27873 28173 8888 8887 28178
8 3022 27869 27874 3023 2961 28174 28179 2962
8 27869 27870 27875 27874 28174 28175 28180 28179
8 27870 27871 27876 27875 28175 28176 28181 28180
8 27871 27872 27877 27876 28176 28177 28182 28181
8 27872 27873 27878 27877 28177 28178 28183 28182
8 27873 8948 8947 27878 28178 8887 8886 28183
8 3023 27874 27879 3024 2962 28179 28184 2963
8 27874 27875 27880 27879 28179 28180 28185 28184
8 27875 27876 27881 27880 28180 28181 28186 28185
8 27876 27877 27882 27881 28181 28182 28187 28186
8 27877 27878 27883 27882 28182 28183 28188 28187
8 27878 8947 8946 27883 28183 8886 8885 28188
8 3024 27879 27884 3025 2963 28184 28189 2964
8 27879 27880 27885 27884 28184 28185 28190 28189
8 27880 27881 27886 27885 28185 28186 28191 28190
8 27881 27882 27887 27886 28186 28187 28192 28191
8 27882 27883 27888 27887 28187 28188 28193 28192
8 27883 8946 8945 27888 28188 8885 8884 28193
8 3025 27884 27889 3026 2964 28189 28194 2965
8 27884 27885 27890 27889 28189 28190 28195 28194
8 27885 27886 27891 27890 28190 28191 28196 28195
8 27886 27887 27892 27891 28191 28192 28197 28196
8 27887 27888 27893 27892 28192 28193 28198 28197
8 27888 8945 8944 27893 28193 8884 8883 28198
8 3026 27889 27894 3027 2965 28194 28199 2966
8 27889 27890 27895 27894 28194 28195 28200 28199
8 27890 27891 27896 27895 28195 28196 28201 28200
8 27891 27892 27897 27896 28196 28197 28202 28201
8 27892 27893 27898 27897 28197 28198 28203 28202
8 27893 8944 8943 27898 28198 8883 8882 28203
8 3027 27894 27899 3028 2966 28199 28204 2967
8 27894 27895 27900 27899 28199 28200 28205 28204
8 27895 27896 27901 27900 28200 28201 28206 28205
8 27896 27897 27902 27901 28201 28202 28207 28206
8 27897 27898 27903 27902 28202 28203 28208 28207
8 27898 8943 8942 27903 28203 8882 8881 28208
8 3028 27899 27904 3029 2967 28204 28209 2968
8 27899 27900 27905 27904 28204 28205 28210 28209
8 27900 27901 27906 27905 28205 28206 28211 28210
8 27901 27902 27907 27906 28206 28207 28212 28211
8 27902 27903 27908 27907 28207 28208 28213 28212
8 27903 8942 8941 27908 28208 8881 8880 28213
8 3029 27904 27909 3030 2968 28209 28214 2969
8 27904 27905 27910 27909 28209 28210 28215 28214
8 27905 27906 27911 27910 28210 28211 28216 28215
8 27906 27907 27912 27911 28211 28212 28217 28216
8 27907 27908 27913 27912 28212 28213 28218 28217
8 27908 8941 8940 27913 28213 8880 8879 28218
8 3030 27909 27914 3031 2969 28214 28219 2970
8 27909 27910 27915 27914 28214 28215 28220 28219
8 27910 27911 27916 27915 28215 28216 28221 28220
8 27911 27912 27917 27916 28216 28217 28222 28221
8 27912 27913 27918 27917 28217 28218 28223 28222
8 27913 8940 8939 27918 28218 8879 8878 28223
8 3031 27914 27919 3032 2970 28219 28224 2971
8 27914 27915 27920 27919 28219 28220 28225 28224
8 27915 27916 27921 27920 28220 28221 28226 28225
8 27916 27917 27922 27921 28221 28222 28227 28226
8 27917 27918 27923 27922 28222 28223 28228 28227
8 27918 8939 8938 27923 28223 8878 8877 28228
8 3032 27919 27924 3033 2971 28224 28229 2972
8 27919 27920 27925 27924 28224 28225 28230 28229
8 27920 27921 27926 27925 28225 28226 28231 28230
8 27921 27922 27927 27926 28226 28227 28232 28231
8 27922 27923 27928 27927 28227 28228 28233 28232
8 27923 8938 8937 27928 28228 8877 8876 28233
8 3033 27924 27929 3034 2972 28229 28234 2973
8 27924 27925 27930 27929 28229 28230 28235 28234
8 27925 27926 27931 27930 28230 28231 28236 28235
8 27926 27927 27932 27931 28231 28232 28237 28236
8 27927 27928 27933 27932 28232 28233 28238 28237
8 27928 8937 8936 27933 28233 8876 8875 28238
8 3034 27929 27934 3035 2973 28234 28239 2974
8 27929 27930 27935 27934 28234 28235 28240 28239
8 27930 27931 27936 27935 28235 28236 28241 28240
8 27931 27932 27937 27936 28236 28237 28242 28241
8 27932 27933 27938 27937 28237 28238 28243 28242
8 27933 8936 8935 27938 28238 8875 8874 28243
8 27934 27935 27940 27939 28239 28240 28245 28244
8 27935 27936 27941 27940 28240 28241 28246 28245
8 27936 27937 27942 27941 28241 28242 28247 28246
8 27937 27938 27943 27942 28242 28243 28248 28247
8 27938 8935 8934 27943 28243 8874 8873 28248
8 27939 27940 27945 27944 28244 28245 28250 28249
8 27940 27941 27946 27945 28245 28246 28251 28250
8 27941 27942 27947 27946 28246 28247 28252 28251
8 27942 27943 27948 27947 28247 28248 28253 28252
8 27943 8934 8933 27948 28248 8873 8872 28253
8 27944 27945 27950 27949 28249 28250 28255 28254
8 27945 27946 27951 27950 28250 28251 28256 28255
8 27946 27947 27952 27951 28251 28252 28257 28256
8 27947 27948 27953 27952 28252 28253 28258 28257
8 27948 8933 8932 27953 28253 8872 8871 28258
8 27949 27950 27955 27954 28254 28255 28260 28259
8 27950 27951 27956 27955 28255 28256 28261 28260
8 27951 27952 27957 27956 28256 28257 28262 28261
8 27952 27953 27958 27957 28257 28258 28263 28262
8 27953 8932 8931 27958 28258 8871 8870 28263
8 27954 27955 27960 27959 28259 28260 28265 28264
8 27955 27956 27961 27960 28260 28261 28266 28265
8 27956 27957 27962 27961 28261 28262 28267 28266
8 27957 27958 27963 27962 28262 28263 28268 28267
8 27958 8931 8930 27963 28263 8870 8869 28268
8 27959 27960 27965 27964 28264 28265 28270 28269
8 27960 27961 27966 27965 28265 28266 28271 28270
8 27961 27962 27967 27966 28266 28267 28272 28271
8 27962 27963 27968 27967 28267 28268 28273 28272
8 27963 8930 8929 27968 28268 8869 8868 28273
8 27964 27965 27970 27969 28269 28270 28275 28274
8 27965 27966 27971 27970 28270 28271 28276 28275
8 27966 27967 27972 27971 28271 28272 28277 28276
8 27967 27968 27973 27972 28272 28273 28278 28277
8 27968 8929 8928 27973 28273 8868 8867 28278
8 27969 27970 27975 27974 28274 28275 28280 28279
8 27970 27971 27976 27975 28275 28276 28281 28280
8 27971 27972 27977 27976 28276 28277 28282 28281
8 27972 27973 27978 27977 28277 28278 28283 28282
8 27973 8928 8927 27978 28278 8867 8866 28283
8 27974 27975 27980 27979 28279 28280 28285 28284
8 27975 27976 27981 27980 28280 28281 28286 28285
8 27976 27977 27982 27981 28281 28282 28287 28286
8 27977 27978 27983 27982 28282 28283 28288 28287
8 27978 8927 8926 27983 28283 8866 8865 28288
8 27979 27980 27985 27984 28284 28285 28290 28289
8 27980 27981 27986 27985 28285 28286 28291 28290
8 27981 27982 27987 27986 28286 28287 28292 28291
8 27982 27983 27988 27987 28287 28288 28293 28292
8 27983 8926 8925 27988 28288 8865 8864 28293
8 3045 27984 27989 3046 2984 28289 28294 2985
8 27984 27985 27990 27989 28289 28290 28295 28294
8 27985 27986 27991 27990 28290 28291 28296 28295
8 27986 27987 27992 27991 28291 28292 28297 28296
8 27987 27988 27993 27992 28292 28293 28298 28297
8 27988 8925 8924 27993 28293 8864 8863 28298
8 3046 27989 27994 3047 2985 28294 28299 2986
8 27989 27990 27995 27994 28294 28295 28300 28299
8 27990 27991 27996 27995 28295 28296 28301 28300
8 27991 27992 27997 27996 28296 28297 28302 28301
8 27992 27993 27998 27997 28297 28298 28303 28302
8 27993 8924 8923 27998 28298 8863 8862 28303
8 3047 27994 27999 3048 2986 28299 28304 2987
8 27994 27995 28000 27999 28299 28300 28305 28304
8 27995 27996 28001 28000 28300 28301 28306 28305
8 27996 27997 28002 28001 28301 28302 28307 28306
8 27997 27998 28003 28002 28302 28303 28308 28307
8 27998 8923 8922 28003 28303 8862 8861 28308
8 3048 27999 28004 3049 2987 28304 28309 2988
8 27999 28000 28005 28004 28304 28305 28310 28309
8 28000 28001 28006 28005 28305 28306 28311 28310
8 28001 28002 28007 28006 28306 28307 28312 28311
8 28002 28003 28008 28007 28307 28308 28313 28312
8 28003 8922 8921 28008 28308 8861 8860 28313
8 3049 28004 28009 3050 2988 28309 28314 2989
8 28004 28005 28010 28009 28309 28310 28315 28314
8 28005 28006 28011 28010 28310 28311 28316 28315
8 28006 28007 28012 28011 28311 28312 28317 28316
8 28007 28008 28013 28012 28312 28313 28318 28317
8 28008 8921 8920 28013 28313 8860 8859 28318
8 3050 28009 28014 3051 2989 28314 28319 2990
8 28009 28010 28015 28014 28314 28315 28320 28319
8 28010 28011 28016 28015 28315 28316 28321 28320
8 28011 28012 28017 28016 28316 28317 28322 28321
8 28012 28013 28018 28017 28317 28318 28323 28322
8 28013 8920 8919 28018 28318 8859 8858 28323
8 3051 28014 28019 3052 2990 28319 28324 2991
8 28014 28015 28020 28019 28319 28320 28325 28324
8 28015 28016 28021 28020 28320 28321 28326 28325
8 28016 28017 28022 28021 28321 28322 28327 28326
8 28017 28018 28023 28022 28322 28323 28328 28327
8 28018 8919 8918 28023 28323 8858 8857 28328
8 3052 28019 28024 3053 2991 28324 28329 2992
8 28019 28020 28025 28024 28324 28325 28330 28329
8 28020 28021 28026 28025 28325 28326 28331 28330
8 28021 28022 28027 28026 28326 28327 28332 28331
8 28022 28023 28028 28027 28327 28328 28333 28332
8 28023 8918 8917 28028 28328 8857 8856 28333
8 3053 28024 28029 3054 2992 28329 28334 2993
8 28024 28025 28030 28029 28329 28330 28335 28334
8 28025 28026 28031 28030 28330 28331 28336 28335
8 28026 28027 28032 28031 28331 28332 28337 28336
8 28027 28028 28033 28032 28332 28333 28338 28337
8 28028 8917 8916 28033 28333 8856 8855 28338
8 3054 28029 12849 108 2993 28334 12844 107
8 28029 28030 12850 12849 28334 28335 12845 12844
8 28030 28031 12851 12850 28335 28336 12846 12845
8 28031 28032 12852 12851 28336 28337 12847 12846
8 28032 28033 12853 12852 28337 28338 12848 12847
8 28033 8916 6187 12853 28338 8855 6188 12848
8 266 12094 28034 2933 267 12099 28339 2872
8 12094 12095 28035 28034 12099 12100 28340 28339
8 12095 12096 28036 28035 12100 12101 28341 28340
8 12096 12097 28037 28036 12101 12102 28342 28341
8 12097 12098 28038 28037 12102 12103 28343 28342
8 12098 6029 8915 28038 12103 6028 8854 28343
8 2933 28034 28039 2934 2872 28339 28344 2873
8 28034 28035 28040 28039 28339 28340 28345 28344
8 28035 28036 28041 28040 28340 28341 28346 28345
8 28036 28037 28042 28041 28341 28342 28347 28346
8 28037 28038 28043 28042 28342 28343 28348 28347
8 28038 8915 8914 28043 28343 8854 8853 28348
8 2934 28039 28044 2935 2873 28344 28349 2874
8 28039 28040 28045 28044 28344 28345 28350 28349
8 28040 28041 28046 28045 28345 28346 28351 28350
8 28041 28042 28047 28046 28346 28347 28352 28351
8 28042 28043 28048 28047 28347 28348 28353 28352
8 28043 8914 8913 28048 28348 8853 8852 28353
8 2935 28044 28049 2936 2874 28349 28354 2875
8 28044 28045 28050 28049 28349 28350 28355 28354
8 28045 28046 28051 28050 28350 28351 28356 28355
8 28046 28047 28052 28051 28351 28352 28357 28356
8 28047 28048 28053 28052 28352 28353 28358 28357
8 28048 8913 8912 28053 28353 8852 8851 28358
8 2936 28049 28054 2937 2875 28354 28359 2876
8 28049 28050 28055 28054 28354 28355 28360 28359
8 28050 28051 28056 28055 28355 28356 28361 28360
8 28051 28052 28057 28056 28356 28357 28362 28361
8 28052 28053 28058 28057 28357 28358 28363 28362
8 28053 8912 8911 28058 28358 8851 8850 28363
8 2937 28054 28059 2938 2876 28359 28364 2877
8 28054 28055 28060 28059 28359 28360 28365 28364
8 28055 28056 28061 28060 28360 28361 28366 28365
8 28056 28057 28062 28061 28361 28362 28367 28366
8 28057 28058 28063 28062 28362 28363 28368 28367
8 28058 8911 8910 28063 28363 8850 8849 28368
8 2938 28059 28064 2939 2877 28364 28369 2878
8 28059 28060 28065 28064 28364 28365 28370 28369
8 28060 28061 28066 28065 28365 28366 28371 28370
8 28061 28062 28067 28066 28366 28367 28372 28371
8 28062 28063 28068 28067 28367 28368 28373 28372
8 28063 8910 8909 28068 28368 8849 8848 28373
8 2939 28064 28069 2940 2878 28369 28374 2879
8 28064 28065 28070 28069 28369 28370 28375 28374
8 28065 28066 28071 28070 28370 28371 28376 28375
8 28066 28067 28072 28071 28371 28372 28377 28376
8 28067 28068 28073 28072 28372 28373 28378 28377
8 28068 8909 8908 28073 28373 8848 8847 28378
8 2940 28069 28074 2941 2879 28374 28379 2880
8 28069 28070 28075 28074 28374 28375 28380 28379
8 28070 28071 28076 28075 28375 28376 28381 28380
8 28071 28072 28077 28076 28376 28377 28382 28381
8 28072 28073 28078 28077 28377 28378 28383 28382
8 28073 8908 8907 28078 28378 8847 8846 28383
8 2941 28074 28079 2942 2880 28379 28384 2881
8 28074 28075 28080 28079 28379 28380 28385 28384
8 28075 28076 28081 28080 28380 28381 28386 28385
8 28076 28077 28082 28081 28381 28382 28387 28386
8 28077 28078 28083 28082 28382 28383 28388 28387
8 28078 8907 8906 28083 28383 8846 8845 28388
8 2942 28079 28084 2943 2881 28384 28389 2882
8 28079 28080 28085 28084 28384 28385 28390 28389
8 28080 28081 28086 28085 28385 28386 28391 28390
8 28081 28082 28087 28086 28386 28387 28392 28391
8 28082 28083 28088 28087 28387 28388 28393 28392
8 28083 8906 8905 28088 28388 8845 8844 28393
8 2943 28084 28089 2944 2882 28389 28394 2883
8 28084 28085 28090 28089 28389 28390 28395 28394
8 28085 28086 28091 28090 28390 28391 28396 28395
8 28086 28087 28092 28091 28391 28392 28397 28396
8 28087 28088 28093 28092 28392 28393 28398 28397
8 28088 8905 8904 28093 28393 8844 8843 28398
8 2944 28089 28094 2945 2883 28394 28399 2884
8 28089 28090 28095 28094 28394 28395 28400 28399
8 28090 28091 28096 28095 28395 28396 28401 28400
8 28091 28092 28097 28096 28396 28397 28402 28401
8 28092 28093 28098 28097 28397 28398 28403 28402
8 28093 8904 8903 28098 28398 8843 8842 28403
8 2945 28094 28099 2946 2884 28399 28404 2885
8 28094 28095 28100 28099 28399 28400 28405 28404
8 28095 28096 28101 28100 28400 28401 28406 28405
8 28096 28097 28102 28101 28401 28402 28407 28406
8 28097 28098 28103 28102 28402 28403 28408 28407
8 28098 8903 8902 28103 28403 8842 8841 28408
8 2946 28099 28104 2947 2885 28404 28409 2886
8 28099 28100 28105 28104 28404 28405 28410 28409
8 28100 28101 28106 28105 28405 28406 28411 28410
8 28101 28102 28107 28106 28406 28407 28412 28411
8 28102 28103 28108 28107 28407 28408 28413 28412
8 28103 8902 8901 28108 28408 8841 8840 28413
8 2947 28104 28109 2948 2886 28409 28414 2887
8 28104 28105 28110 28109 28409 28410 28415 28414
8 28105 28106 28111 28110 28410 28411 28416 28415
8 28106 28107 28112 28111 28411 28412 28417 28416
8 28107 28108 28113 28112 28412 28413 28418 28417
8 28108 8901 8900 28113 28413 8840 8839 28418
8 2948 28109 28114 2949 2887 28414 28419 2888
8 28109 28110 28115 28114 28414 28415 28420 28419
8 28110 28111 28116 28115 28415 28416 28421 28420
8 28111 28112 28117 28116 28416 28417 28422 28421
8 28112 28113 28118 28117 28417 28418 28423 28422
8 28113 8900 8899 28118 28418 8839 8838 28423
8 2949 28114 28119 2950 2888 28419 28424 2889
8 28114 28115 28120 28119 28419 28420 28425 28424
8 28115 28116 28121 28120 28420 28421 28426 28425
8 28116 28117 28122 28121 28421 28422 28427 28426
8 28117 28118 28123 28122 28422 28423 28428 28427
8 28118 8899 8898 28123 28423 8838 8837 28428
8 2950 28119 28124 2951 2889 28424 28429 2890
8 28119 28120 28125 28124 28424 28425 28430 28429
8 28120 28121 28126 28125 28425 28426 28431 28430
8 28121 28122 28127 28126 28426 28427 28432 28431
8 28122 28123 28128 28127 28427 28428 28433 28432
8 28123 8898 8897 28128 28428 8837 8836 28433
8 2951 28124 28129 2952 2890 28429 28434 2891
8 28124 28125 28130 28129 28429 28430 28435 28434
8 28125 28126 28131 28130 28430 28431 28436 28435
8 28126 28127 28132 28131 28431 28432 28437 28436
8 28127 28128 28133 28132 28432 28433 28438 28437
8 28128 8897 8896 28133 28433 8836 8835 28438
8 2952 28129 28134 2953 2891 28434 28439 2892
8 28129 28130 28135 28134 28434 28435 28440 28439
8 28130 28131 28136 28135 28435 28436 28441 28440
8 28131 28132 28137 28136 28436 28437 28442 28441
8 28132 28133 28138 28137 28437 28438 28443 28442
8 28133 8896 8895 28138 28438 8835 8834 28443
8 2953 28134 28139 2954 2892 28439 28444 2893
8 28134 28135 28140 28139 28439 28440 28445 28444
8 28135 28136 28141 28140 28440 28441 28446 28445
8 28136 28137 28142 28141 28441 28442 28447 28446
8 28137 28138 28143 28142 28442 28443 28448 28447
8 28138 8895 8894 28143 28443 8834 8833 28448
8 2954 28139 28144 2955 2893 28444 28449 2894
8 28139 28140 28145 28144 28444 28445 28450 28449
8 28140 28141 28146 28145 28445 28446 28451 28450
8 28141 28142 28147 28146 28446 28447 28452 28451
8 28142 28143 28148 28147 28447 28448 28453 28452
8 28143 8894 8893 28148 28448 8833 8832 28453
8 2955 28144 28149 2956 2894 28449 28454 2895
8 28144 28145 28150 28149 28449 28450 28455 28454
8 28145 28146 28151 28150 28450 28451 28456 28455
8 28146 28147 28152 28151 28451 28452 28457 28456
8 28147 28148 28153 28152 28452 28453 28458 28457
8 28148 8893 8892 28153 28453 8832 8831 28458
8 2956 28149 28154 2957 2895 28454 28459 2896
8 28149 28150 28155 28154 28454 28455 28460 28459
8 28150 28151 28156 28155 28455 28456 28461 28460
8 28151 28152 28157 28156 28456 28457 28462 28461
8 28152 28153 28158 28157 28457 28458 28463 28462
8 28153 8892 8891 28158 28458 8831 8830 28463
8 2957 28154 28159 2958 2896 28459 28464 2897
8 28154 28155 28160 28159 28459 28460 28465 28464
8 28155 28156 28161 28160 28460 28461 28466 28465
8 28156 28157 28162 28161 28461 28462 28467 28466
8 28157 28158 28163 28162 28462 28463 28468 28467
8 28158 8891 8890 28163 28463 8830 8829 28468
8 2958 28159 28164 2959 2897 28464 28469 2898
8 28159 28160 28165 28164 28464 28465 28470 28469
8 28160 28161 28166 28165 28465 28466 28471 28470
8 28161 28162 28167 28166 28466 28467 28472 28471
8 28162 28163 28168 28167 28467 28468 28473 28472
8 28163 8890 8889 28168 28468 8829 8828 28473
8 2959 28164 28169 2960 2898 28469 28474 2899
8 28164 28165 28170 28169 28469 28470 28475 28474
8 28165 28166 28171 28170 28470 28471 28476 28475
8 28166 28167 28172 28171 28471 28472 28477 28476
8 28167 28168 28173 28172 28472 28473 28478 28477
8 28168 8889 8888 28173 28473 8828 8827 28478
8 2960 28169 28174 2961 2899 28474 28479 2900
8 28169 28170 28175 28174 28474 28475 28480 28479
8 28170 28171 28176 28175 28475 28476 28481 28480
8 28171 28172 28177 28176 28476 28477 28482 28481
8 28172 28173 28178 28177 28477 28478 28483 28482
8 28173 8888 8887 28178 28478 8827 8826 28483
8 2961 28174 28179 2962 2900 28479 28484 2901
8 28174 28175 28180 28179 28479 28480 28485 28484
8 28175 28176 28181 28180 28480 28481 28486 28485
8 28176 28177 28182 28181 28481 28482 28487 28486
8 28177 28178 28183 28182 28482 28483 28488 28487
8 28178 8887 8886 28183 28483 8826 8825 28488
8 2962 28179 28184 2963 2901 28484 28489 2902
8 28179 28180 28185 28184 28484 28485 28490 28489
8 28180 28181 28186 28185 28485 28486 28491 28490
8 28181 28182 28187 28186 28486 28487 28492 28491
8 28182 28183 28188 28187 28487 28488 28493 28492
8 28183 8886 8885 28188 28488 8825 8824 28493
8 2963 28184 28189 2964 2902 28489 28494 2903
8 28184 28185 28190 28189 28489 28490 28495 28494
8 28185 28186 28191 28190 28490 28491 28496 28495
8 28186 28187 28192 28191 28491 28492 28497 28496
8 28187 28188 28193 28192 28492 28493 28498 28497
8 28188 8885 8884 28193 28493 8824 8823 28498
8 2964 28189 28194 2965 2903 28494 28499 2904
8 28189 28190 28195 28194 28494 28495 28500 28499
8 28190 28191 28196 28195 28495 28496 28501 28500
8 28191 28192 28197 28196 28496 28497 28502 28501
8 28192 28193 28198 28197 28497 28498 28503 28502
8 28193 8884 8883 28198 28498 8823 8822 28503
8 2965 28194 28199 2966 2904 28499 28504 2905
8 28194 28195 28200 28199 28499 28500 28505 28504
8 28195 28196 28201 28200 28500 28501 28506 28505
8 28196 28197 28202 28201 28501 28502 28507 28506
8 28197 28198 28203 28202 28502 28503 28508 28507
8 28198 8883 8882 28203 28503 8822 8821 28508
8 2966 28199 28204 2967 2905 28504 28509 2906
8 28199 28200 28205 28204 28504 28505 28510 28509
8 28200 28201 28206 28205 28505 28506 28511 28510
8 28201 28202 28207 28206 28506 28507 28512 28511
8 28202 28203 28208 28207 28507 28508 28513 28512
8 28203 8882 8881 28208 28508 8821 8820 28513
8 2967 28204 28209 2968 2906 28509 28514 2907
8 28204 28205 28210 28209 28509 28510 28515 28514
8 28205 28206 28211 28210 28510 28511 28516 28515
8 28206 28207 28212 28211 28511 28512 28517 28516
8 28207 28208 28213 28212 28512 28513 28518 28517
8 28208 8881 8880 28213 28513 8820 8819 28518
8 2968 28209 28214 2969 2907 28514 28519 2908
8 28209 28210 28215 28214 28514 28515 28520 28519
8 28210 28211 28216 28215 28515 28516 28521 28520
8 28211 28212 28217 28216 28516 28517 28522 28521
8 28212 28213 28218 28217 28517 28518 28523 28522
8 28213 8880 8879 28218 28518 8819 8818 28523
8 2969 28214 28219 2970 2908 28519 28524 2909
8 28214 28215 28220 28219 28519 28520 28525 28524
8 28215 28216 28221 28220 28520 28521 28526 28525
8 28216 28217 28222 28221 28521 28522 28527 28526
8 28217 28218 28223 28222 28522 28523 28528 28527
8 28218 8879 8878 28223 28523 8818 8817 28528
8 2970 28219 28224 2971 2909 28524 28529 2910
8 28219 28220 28225 28224 28524 28525 28530 28529
8 28220 28221 28226 28225 28525 28526 28531 28530
8 28221 28222 28227 28226 28526 28527 28532 28531
8 28222 28223 28228 28227 28527 28528 28533 28532
8 28223 8878 8877 28228 28528 8817 8816 28533
8 2971 28224 28229 2972 2910 28529 28534 2911
8 28224 28225 28230 28229 28529 28530 28535 28534
8 28225 28226 28231 28230 28530 28531 28536 28535
8 28226 28227 28232 28231 28531 28532 28537 28536
8 28227 28228 28233 28232 28532 28533 28538 28537
8 28228 8877 8876 28233 28533 8816 8815 28538
8 2972 28229 28234 2973 2911 28534 28539 2912
8 28229 28230 28235 28234 28534 28535 28540 28539
8 28230 28231 28236 28235 28535 28536 28541 28540
8 28231 28232 28237 28236 28536 28537 28542 28541
8 28232 28233 28238 28237 28537 28538 28543 28542
8 28233 8876 8875 28238 28538 8815 8814 28543
8 2973 28234 28239 2974 2912 28539 28544 2913
8 28234 28235 28240 28239 28539 28540 28545 28544
8 28235 28236 28241 28240 28540 28541 28546 28545
8 28236 28237 28242 28241 28541 28542 28547 28546
8 28237 28238 28243 28242 28542 28543 28548 28547
8 28238 8875 8874 28243 28543 8814 8813 28548
8 2974 28239 28244 2975 2913 28544 28549 2914
8 28239 28240 28245 28244 28544 28545 28550 28549
8 28240 28241 28246 28245 28545 28546 28551 28550
8 28241 28242 28247 28246 28546 28547 28552 28551
8 28242 28243 28248 28247 28547 28548 28553 28552
8 28243 8874 8873 28248 28548 8813 8812 28553
8 2975 28244 28249 2976 2914 28549 28554 2915
8 28244 28245 28250 28249 28549 28550 28555 28554
8 28245 28246 28251 28250 28550 28551 28556 28555
8 28246 28247 28252 28251 28551 28552 28557 28556
8 28247 28248 28253 28252 28552 28553 28558 28557
8 28248 8873 8872 28253 28553 8812 8811 28558
8 2976 28249 28254 2977 2915 28554 28559 2916
8 28249 28250 28255 28254 28554 28555 28560 28559
8 28250 28251 28256 28255 28555 28556 28561 28560
8 28251 28252 28257 28256 28556 28557 28562 28561
8 28252 28253 28258 28257 28557 28558 28563 28562
8 28253 8872 8871 28258 28558 8811 8810 28563
8 2977 28254 28259 2978 2916 28559 28564 2917
8 28254 28255 28260 28259 28559 28560 28565 28564
8 28255 28256 28261 28260 28560 28561 28566 28565
8 28256 28257 28262 28261 28561 28562 28567 28566
8 28257 28258 28263 28262 28562 28563 28568 28567
8 28258 8871 8870 28263 28563 8810 8809 28568
8 2978 28259 28264 2979 2917 28564 28569 2918
8 28259 28260 28265 28264 28564 28565 28570 28569
8 28260 28261 28266 28265 28565 28566 28571 28570
8 28261 28262 28267 28266 28566 28567 28572 28571
8 28262 28263 28268 28267 28567 28568 28573 28572
8 28263 8870 8869 28268 28568 8809 8808 28573
8 2979 28264 28269 2980 2918 28569 28574 2919
8 28264 28265 28270 28269 28569 28570 28575 28574
8 28265 28266 28271 28270 28570 28571 28576 28575
8 28266 28267 28272 28271 28571 28572 28577 28576
8 28267 28268 28273 28272 28572 28573 28578 28577
8 28268 8869 8868 28273 28573 8808 8807 28578
8 2980 28269 28274 2981 2919 28574 28579 2920
8 28269 28270 28275 28274 28574 28575 28580 28579
8 28270 28271 28276 28275 28575 28576 28581 28580
8 28271 28272 28277 28276 28576 28577 28582 28581
8 28272 28273 28278 28277 28577 28578 28583 28582
8 28273 8868 8867 28278 28578 8807 8806 28583
8 2981 28274 28279 2982 2920 28579 28584 2921
8 28274 28275 28280 28279 28579 28580 28585 28584
8 28275 28276 28281 28280 28580 28581 28586 28585
8 28276 28277 28282 28281 28581 28582 28587 28586
8 28277 28278 28283 28282 28582 28583 28588 28587
8 28278 8867 8866 28283 28583 8806 8805 28588
8 2982 28279 28284 2983 2921 28584 28589 2922
8 28279 28280 28285 28284 28584 28585 28590 28589
8 28280 28281 28286 28285 28585 28586 28591 28590
8 28281 28282 28287 28286 28586 28587 28592 28591
8 28282 28283 28288 28287 28587 28588 28593 28592
8 28283 8866 8865 28288 28588 8805 8804 28593
8 2983 28284 28289 2984 2922 28589 28594 2923
8 28284 28285 28290 28289 28589 28590 28595 28594
8 28285 28286 28291 28290 28590 28591 28596 28595
8 28286 28287 28292 28291 28591 28592 28597 28596
8 28287 28288 28293 28292 28592 28593 28598 28597
8 28288 8865 8864 28293 28593 8804 8803 28598
8 2984 28289 28294 2985 2923 28594 28599 2924
8 28289 28290 28295 28294 28594 28595 28600 28599
8 28290 28291 28296 28295 28595 28596 28601 28600
8 28291 28292 28297 28296 28596 28597 28602 28601
8 28292 28293 28298 28297 28597 28598 28603 28602
8 28293 8864 8863 28298 28598 8803 8802 28603
8 2985 28294 28299 2986 2924 28599 28604 2925
8 28294 28295 28300 28299 28599 28600 28605 28604
8 28295 28296 28301 28300 28600 28601 28606 28605
8 28296 28297 28302 28301 28601 28602 28607 28606
8 28297 28298 28303 28302 28602 28603 28608 28607
8 28298 8863 8862 28303 28603 8802 8801 28608
8 2986 28299 28304 2987 2925 28604 28609 2926
8 28299 28300 28305 28304 28604 28605 28610 28609
8 28300 28301 28306 28305 28605 28606 28611 28610
8 28301 28302 28307 28306 28606 28607 28612 28611
8 28302 28303 28308 28307 28607 28608 28613 28612
8 28303 8862 8861 28308 28608 8801 8800 28613
8 2987 28304 28309 2988 2926 28609 28614 2927
8 28304 28305 28310 28309 28609 28610 28615 28614
8 28305 28306 28311 28310 28610 28611 28616 28615
8 28306 28307 28312 28311 28611 28612 28617 28616
8 28307 28308 28313 28312 28612 28613 28618 28617
8 28308 8861 8860 28313 28613 8800 8799 28618
8 2988 28309 28314 2989 2927 28614 28619 2928
8 28309 28310 28315 28314 28614 28615 28620 28619
8 28310 28311 28316 28315 28615 28616 28621 28620
8 28311 28312 28317 28316 28616 28617 28622 28621
8 28312 28313 28318 28317 28617 28618 28623 28622
8 28313 8860 8859 28318 28618 8799 8798 28623
8 2989 28314 28319 2990 2928 28619 28624 2929
8 28314 28315 28320 28319 28619 28620 28625 28624
8 28315 28316 28321 28320 28620 28621 28626 28625
8 28316 28317 28322 28321 28621 28622 28627 28626
8 28317 28318 28323 28322 28622 28623 28628 28627
8 28318 8859 8858 28323 28623 8798 8797 28628
8 2990 28319 28324 2991 2929 28624 28629 2930
8 28319 28320 28325 28324 28624 28625 28630 28629
8 28320 28321 28326 28325 28625 28626 28631 28630
8 28321 28322 28327 28326 28626 28627 28632 28631
8 28322 28323 28328 28327 28627 28628 28633 28632
8 28323 8858 8857 28328 28628 8797 8796 28633
8 2991 28324 28329 2992 2930 28629 28634 2931
8 28324 28325 28330 28329 28629 28630 28635 28634
8 28325 28326 28331 28330 28630 28631 28636 28635
8 28326 28327 28332 28331 28631 28632 28637 28636
8 28327 28328 28333 28332 28632 28633 28638 28637
8 28328 8857 8856 28333 28633 8796 8795 28638
8 2992 28329 28334 2993 2931 28634 28639 2932
8 28329 28330 28335 28334 28634 28635 28640 28639
8 28330 28331 28336 28335 28635 28636 28641 28640
8 28331 28332 28337 28336 28636 28637 28642 28641
8 28332 28333 28338 28337 28637 28638 28643 28642
8 28333 8856 8855 28338 28638 8795 8794 28643
8 2993 28334 12844 107 2932 28639 12839 106
8 28334 28335 12845 12844 28639 28640 12840 12839
8 28335 28336 12846 12845 28640 28641 12841 12840
8 28336 28337 12847 12846 28641 28642 12842 12841
8 28337 28338 12848 12847 28642 28643 12843 12842
8 28338 8855 6188 12848 28643 8794 6189 12843
8 267 12099 28339 2872 268 12104 28644 2811
8 12099 12100 28340 28339 12104 12105 28645 28644
8 12100 12101 28341 28340 12105 12106 28646 28645
8 12101 12102 28342 28341 12106 12107 28647 28646
8 12102 12103 28343 28342 12107 12108 28648 28647
8 12103 6028 8854 28343 12108 6027 8793 28648
8 2872 28339 28344 2873 2811 28644 28649 2812
8 28339 28340 28345 28344 28644 28645 28650 28649
8 28340 28341 28346 28345 28645 28646 28651 28650
8 28341 28342 28347 28346 28646 28647 28652 28651
8 28342 28343 28348 28347 28647 28648 28653 28652
8 28343 8854 8853 28348 28648 8793 8792 28653
8 2873 28344 28349 2874 2812 28649 28654 2813
8 28344 28345 28350 28349 28649 28650 28655 28654
8 28345 28346 28351 28350 28650 28651 28656 28655
8 28346 28347 28352 28351 28651 28652 28657 28656
8 28347 28348 28353 28352 28652 28653 28658 28657
8 28348 8853 8852 28353 28653 8792 8791 28658
8 2874 28349 28354 2875 2813 28654 28659 2814
8 28349 28350 28355 28354 28654 28655 28660 28659
8 28350 28351 28356 28355 28655 28656 28661 28660
8 28351 28352 28357 28356 28656 28657 28662 28661
8 28352 28353 28358 28357 28657 28658 28663 28662
8 28353 8852 8851 28358 28658 8791 8790 28663
8 2875 28354 28359 2876 2814 28659 28664 2815
8 28354 28355 28360 28359 28659 28660 28665 28664
8 28355 28356 28361 28360 28660 28661 28666 28665
8 28356 28357 28362 28361 28661 28662 28667 28666
8 28357 28358 28363 28362 28662 28663 28668 28667
8 28358 8851 8850 28363 28663 8790 8789 28668
8 2876 28359 28364 2877 2815 28664 28669 2816
8 28359 28360 28365 28364 28664 28665 28670 28669
8 28360 28361 28366 28365 28665 28666 28671 28670
8 28361 28362 28367 28366 28666 28667 28672 28671
8 28362 28363 28368 28367 28667 28668 28673 28672
8 28363 8850 8849 28368 28668 8789 8788 28673
8 2877 28364 28369 2878 2816 28669 28674 2817
8 28364 28365 28370 28369 28669 28670 28675 28674
8 28365 28366 28371 28370 28670 28671 28676 28675
8 28366 28367 28372 28371 28671 28672 28677 28676
8 28367 28368 28373 28372 28672 28673 28678 28677
8 28368 8849 8848 28373 28673 8788 8787 28678
8 2878 28369 28374 2879 2817 28674 28679 2818
8 28369 28370 28375 28374 28674 28675 28680 28679
8 28370 28371 28376 28375 28675 28676 28681 28680
8 28371 28372 28377 28376 28676 28677 28682 28681
8 28372 28373 28378 28377 28677 28678 28683 28682
8 28373 8848 8847 28378 28678 8787 8786 28683
8 2879 28374 28379 2880 2818 28679 28684 2819
8 28374 28375 28380 28379 28679 28680 28685 28684
8 28375 28376 28381 28380 28680 28681 28686 28685
8 28376 28377 28382 28381 28681 28682 28687 28686
8 28377 28378 28383 28382 28682 28683 28688 28687
8 28378 8847 8846 28383 28683 8786 8785 28688
8 2880 28379 28384 2881 2819 28684 28689 2820
8 28379 28380 28385 28384 28684 28685 28690 28689
8 28380 28381 28386 28385 28685 28686 28691 28690
8 28381 28382 28387 28386 28686 28687 28692 28691
8 28382 28383 28388 28387 28687 28688 28693 28692
8 28383 8846 8845 28388 28688 8785 8784 28693
8 2881 28384 28389 2882 2820 28689 28694 2821
8 28384 28385 28390 28389 28689 28690 28695 28694
8 28385 28386 28391 28390 28690 28691 28696 28695
8 28386 28387 28392 28391 28691 28692 28697 28696
8 28387 28388 28393 28392 28692 28693 28698 28697
8 28388 8845 8844 28393 28693 8784 8783 28698
8 2882 28389 28394 2883 2821 28694 28699 2822
8 28389 28390 28395 28394 28694 28695 28700 28699
8 28390 28391 28396 28395 28695 28696 28701 28700
8 28391 28392 28397 28396 28696 28697 28702 28701
8 28392 28393 28398 28397 28697 28698 28703 28702
8 28393 8844 8843 28398 28698 8783 8782 28703
8 2883 28394 28399 2884 2822 28699 28704 2823
8 28394 28395 28400 28399 28699 28700 28705 28704
8 28395 28396 28401 28400 28700 28701 28706 28705
8 28396 28397 28402 28401 28701 28702 28707 28706
8 28397 28398 28403 28402 28702 28703 28708 28707
8 28398 8843 8842 28403 28703 8782 8781 28708
8 2884 28399 28404 2885 2823 28704 28709 2824
8 28399 28400 28405 28404 28704 28705 28710 28709
8 28400 28401 28406 28405 28705 28706 28711 28710
8 28401 28402 28407 28406 28706 28707 28712 28711
8 28402 28403 28408 28407 28707 28708 28713 28712
8 28403 8842 8841 28408 28708 8781 8780 28713
8 2885 28404 28409 2886 2824 28709 28714 2825
8 28404 28405 28410 28409 28709 28710 28715 28714
8 28405 28406 28411 28410 28710 28711 28716 28715
8 28406 28407 28412 28411 28711 28712 28717 28716
8 28407 28408 28413 28412 28712 28713 28718 28717
8 28408 8841 8840 28413 28713 8780 8779 28718
8 2886 28409 28414 2887 2825 28714 28719 2826
8 28409 28410 28415 28414 28714 28715 28720 28719
8 28410 28411 28416 28415 28715 28716 28721 28720
8 28411 28412 28417 28416 28716 28717 28722 28721
8 28412 28413 28418 28417 28717 28718 28723 28722
8 28413 8840 8839 28418 28718 8779 8778 28723
8 2887 28414 28419 2888 2826 28719 28724 2827
8 28414 28415 28420 28419 28719 28720 28725 28724
8 28415 28416 28421 28420 28720 28721 28726 28725
8 28416 28417 28422 28421 28721 28722 28727 28726
8 28417 28418 28423 28422 28722 28723 28728 28727
8 28418 8839 8838 28423 28723 8778 8777 28728
8 2888 28419 28424 2889 2827 28724 28729 2828
8 28419 28420 28425 28424 28724 28725 28730 28729
8 28420 28421 28426 28425 28725 28726 28731 28730
8 28421 28422 28427 28426 28726 28727 28732 28731
8 28422 28423 28428 28427 28727 28728 28733 28732
8 28423 8838 8837 28428 28728 8777 8776 28733
8 2889 28424 28429 2890 2828 28729 28734 2829
8 28424 28425 28430 28429 28729 28730 28735 28734
8 28425 28426 28431 28430 28730 28731 28736 28735
8 28426 28427 28432 28431 28731 28732 28737 28736
8 28427 28428 28433 28432 28732 28733 28738 28737
8 28428 8837 8836 28433 28733 8776 8775 28738
8 2890 28429 28434 2891 2829 28734 28739 2830
8 28429 28430 28435 28434 28734 28735 28740 28739
8 28430 28431 28436 28435 28735 28736 28741 28740
8 28431 28432 28437 28436 28736 28737 28742 28741
8 28432 28433 28438 28437 28737 28738 28743 28742
8 28433 8836 8835 28438 28738 8775 8774 28743
8 2891 28434 28439 2892 2830 28739 28744 2831
8 28434 28435 28440 28439 28739 28740 28745 28744
8 28435 28436 28441 28440 28740 28741 28746 28745
8 28436 28437 28442 28441 28741 28742 28747 28746
8 28437 28438 28443 28442 28742 28743 28748 28747
8 28438 8835 8834 28443 28743 8774 8773 28748
8 2892 28439 28444 2893 2831 28744 28749 2832
8 28439 28440 28445 28444 28744 28745 28750 28749
8 28440 28441 28446 28445 28745 28746 28751 28750
8 28441 28442 28447 28446 28746 28747 28752 28751
8 28442 28443 28448 28447 28747 28748 28753 28752
8 28443 8834 8833 28448 28748 8773 8772 28753
8 2893 28444 28449 2894 2832 28749 28754 2833
8 28444 28445 28450 28449 28749 28750 28755 28754
8 28445 28446 28451 28450 28750 28751 28756 28755
8 28446 28447 28452 28451 28751 28752 28757 28756
8 28447 28448 28453 28452 28752 28753 28758 28757
8 28448 8833 8832 28453 28753 8772 8771 28758
8 2894 28449 28454 2895 2833 28754 28759 2834
8 28449 28450 28455 28454 28754 28755 28760 28759
8 28450 28451 28456 28455 28755 28756 28761 28760
8 28451 28452 28457 28456 28756 28757 28762 28761
8 28452 28453 28458 28457 28757 28758 28763 28762
8 28453 8832 8831 28458 28758 8771 8770 28763
8 2895 28454 28459 2896 2834 28759 28764 2835
8 28454 28455 28460 28459 28759 28760 28765 28764
8 28455 28456 28461 28460 28760 28761 28766 28765
8 28456 28457 28462 28461 28761 28762 28767 28766
8 28457 28458 28463 28462 28762 28763 28768 28767
8 28458 8831 8830 28463 28763 8770 8769 28768
8 2896 28459 28464 2897 2835 28764 28769 2836
8 28459 28460 28465 28464 28764 28765 28770 28769
8 28460 28461 28466 28465 28765 28766 28771 28770
8 28461 28462 28467 28466 28766 28767 28772 28771
8 28462 28463 28468 28467 28767 28768 28773 28772
8 28463 8830 8829 28468 28768 8769 8768 28773
8 2897 28464 28469 2898 2836 28769 28774 2837
8 28464 28465 28470 28469 28769 28770 28775 28774
8 28465 28466 28471 28470 28770 28771 28776 28775
8 28466 28467 28472 28471 28771 28772 28777 28776
8 28467 28468 28473 28472 28772 28773 28778 28777
8 28468 8829 8828 28473 28773 8768 8767 28778
8 2898 28469 28474 2899 2837 28774 28779 2838
8 28469 28470 28475 28474 28774 28775 28780 28779
8 28470 28471 28476 28475 28775 28776 28781 28780
8 28471 28472 28477 28476 28776 28777 28782 28781
8 28472 28473 28478 28477 28777 28778 28783 28782
8 28473 8828 8827 28478 28778 8767 8766 28783
8 2899 28474 28479 2900 2838 28779 28784 2839
8 28474 28475 28480 28479 28779 28780 28785 28784
8 28475 28476 28481 28480 28780 28781 28786 28785
8 28476 28477 28482 28481 28781 28782 28787 28786
8 28477 28478 28483 28482 28782 28783 28788 28787
8 28478 8827 8826 28483 28783 8766 8765 28788
8 2900 28479 28484 2901 2839 28784 28789 2840
8 28479 28480 28485 28484 28784 28785 28790 28789
8 28480 28481 28486 28485 28785 28786 28791 28790
8 28481 28482 28487 28486 28786 28787 28792 28791
8 28482 28483 28488 28487 28787 28788 28793 28792
8 28483 8826 8825 28488 28788 8765 8764 28793
8 2901 28484 28489 2902 2840 28789 28794 2841
8 28484 28485 28490 28489 28789 28790 28795 28794
8 28485 28486 28491 28490 28790 28791 28796 28795
8 28486 28487 28492 28491 28791 28792 28797 28796
8 28487 28488 28493 28492 28792 28793 28798 28797
8 28488 8825 8824 28493 28793 8764 8763 28798
8 2902 28489 28494 2903 2841 28794 28799 2842
8 28489 28490 28495 28494 28794 28795 28800 28799
8 28490 28491 28496 28495 28795 28796 28801 28800
8 28491 28492 28497 28496 28796 28797 28802 28801
8 28492 28493 28498 28497 28797 28798 28803 28802
8 28493 8824 8823 28498 28798 8763 8762 28803
8 2903 28494 28499 2904 2842 28799 28804 2843
8 28494 28495 28500 28499 28799 28800 28805 28804
8 28495 28496 28501 28500 28800 28801 28806 28805
8 28496 28497 28502 28501 28801 28802 28807 28806
8 28497 28498 28503 28502 28802 28803 28808 28807
8 28498 8823 8822 28503 28803 8762 8761 28808
8 2904 28499 28504 2905 2843 28804 28809 2844
8 28499 28500 28505 28504 28804 28805 28810 28809
8 28500 28501 28506 28505 28805 28806 28811 28810
8 28501 28502 28507 28506 28806 28807 28812 28811
8 28502 28503 28508 28507 28807 28808 28813 28812
8 28503 8822 8821 28508 28808 8761 8760 28813
8 2905 28504 28509 2906 2844 28809 28814 2845
8 28504 28505 28510 28509 28809 28810 28815 28814
8 28505 28506 28511 28510 28810 28811 28816 28815
8 28506 28507 28512 28511 28811 28812 28817 28816
8 28507 28508 28513 28512 28812 28813 28818 28817
8 28508 8821 8820 28513 28813 8760 8759 28818
8 2906 28509 28514 2907 2845 28814 28819 2846
8 28509 28510 28515 28514 28814 28815 28820 28819
8 28510 28511 28516 28515 28815 28816 28821 28820
8 28511 28512 28517 28516 28816 28817 28822 28821
8 28512 28513 28518 28517 28817 28818 28823 28822
8 28513 8820 8819 28518 28818 8759 8758 28823
8 2907 28514 28519 2908 2846 28819 28824 2847
8 28514 28515 28520 28519 28819 28820 28825 28824
8 28515 28516 28521 28520 28820 28821 28826 28825
8 28516 28517 28522 28521 28821 28822 28827 28826
8 28517 28518 28523 28522 28822 28823 28828 28827
8 28518 8819 8818 28523 28823 8758 8757 28828
8 2908 28519 28524 2909 2847 28824 28829 2848
8 28519 28520 28525 28524 28824 28825 28830 28829
8 28520 28521 28526 28525 28825 28826 28831 28830
8 28521 28522 28527 28526 28826 28827 28832 28831
8 28522 28523 28528 28527 28827 28828 28833 28832
8 28523 8818 8817 28528 28828 8757 8756 28833
8 2909 28524 28529 2910 2848 28829 28834 2849
8 28524 28525 28530 28529 28829 28830 28835 28834
8 28525 28526 28531 28530 28830 28831 28836 28835
8 28526 28527 28532 28531 28831 28832 28837 28836
8 28527 28528 28533 28532 28832 28833 28838 28837
8 28528 8817 8816 28533 28833 8756 8755 28838
8 2910 28529 28534 2911 2849 28834 28839 2850
8 28529 28530 28535 28534 28834 28835 28840 28839
8 28530 28531 28536 28535 28835 28836 28841 28840
8 28531 28532 28537 28536 28836 28837 28842 28841
8 28532 28533 28538 28537 28837 28838 28843 28842
8 28533 8816 8815 28538 28838 8755 8754 28843
8 2911 28534 28539 2912 2850 28839 28844 2851
8 28534 28535 28540 28539 28839 28840 28845 28844
8 28535 28536 28541 28540 28840 28841 28846 28845
8 28536 28537 28542 28541 28841 28842 28847 28846
8 28537 28538 28543 28542 28842 28843 28848 28847
8 28538 8815 8814 28543 28843 8754 8753 28848
8 2912 28539 28544 2913 2851 28844 28849 2852
8 28539 28540 28545 28544 28844 28845 28850 28849
8 28540 28541 28546 28545 28845 28846 28851 28850
8 28541 28542 28547 28546 28846 28847 28852 28851
8 28542 28543 28548 28547 28847 28848 28853 28852
8 28543 8814 8813 28548 28848 8753 8752 28853
8 2913 28544 28549 2914 2852 28849 28854 2853
8 28544 28545 28550 28549 28849 28850 28855 28854
8 28545 28546 28551 28550 28850 28851 28856 28855
8 28546 28547 28552 28551 28851 28852 28857 28856
8 28547 28548 28553 28552 28852 28853 28858 28857
8 28548 8813 8812 28553 28853 8752 8751 28858
8 2914 28549 28554 2915 2853 28854 28859 2854
8 28549 28550 28555 28554 28854 28855 28860 28859
8 28550 28551 28556 28555 28855 28856 28861 28860
8 28551 28552 28557 28556 28856 28857 28862 28861
8 28552 28553 28558 28557 28857 28858 28863 28862
8 28553 8812 8811 28558 28858 8751 8750 28863
8 2915 28554 28559 2916 2854 28859 28864 2855
8 28554 28555 28560 28559 28859 28860 28865 28864
8 28555 28556 28561 28560 28860 28861 28866 28865
8 28556 28557 28562 28561 28861 28862 28867 28866
8 28557 28558 28563 28562 28862 28863 28868 28867
8 28558 8811 8810 28563 28863 8750 8749 28868
8 2916 28559 28564 2917 2855 28864 28869 2856
8 28559 28560 28565 28564 28864 28865 28870 28869
8 28560 28561 28566 28565 28865 28866 28871 28870
8 28561 28562 28567 28566 28866 28867 28872 28871
8 28562 28563 28568 28567 28867 28868 28873 28872
8 28563 8810 8809 28568 28868 8749 8748 28873
8 2917 28564 28569 2918 2856 28869 28874 2857
8 28564 28565 28570 28569 28869 28870 28875 28874
8 28565 28566 28571 28570 28870 28871 28876 28875
8 28566 28567 28572 28571 28871 28872 28877 28876
8 28567 28568 28573 28572 28872 28873 28878 28877
8 28568 8809 8808 28573 28873 8748 8747 28878
8 2918 28569 28574 2919 2857 28874 28879 2858
8 28569 28570 28575 28574 28874 28875 28880 28879
8 28570 28571 28576 28575 28875 28876 28881 28880
8 28571 28572 28577 28576 28876 28877 28882 28881
8 28572 28573 28578 28577 28877 28878 28883 28882
8 28573 8808 8807 28578 28878 8747 8746 28883
8 2919 28574 28579 2920 2858 28879 28884 2859
8 28574 28575 28580 28579 28879 28880 28885 28884
8 28575 28576 28581 28580 28880 28881 28886 28885
8 28576 28577 28582 28581 28881 28882 28887 28886
8 28577 28578 28583 28582 28882 28883 28888 28887
8 28578 8807 8806 28583 28883 8746 8745 28888
8 2920 28579 28584 2921 2859 28884 28889 2860
8 28579 28580 28585 28584 28884 28885 28890 28889
8 28580 28581 28586 28585 28885 28886 28891 28890
8 28581 28582 28587 28586 28886 28887 28892 28891
8 28582 28583 28588 28587 28887 28888 28893 28892
8 28583 8806 8805 28588 28888 8745 8744 28893
8 2921 28584 28589 2922 2860 28889 28894 2861
8 28584 28585 28590 28589 28889 28890 28895 28894
8 28585 28586 28591 28590 28890 28891 28896 28895
8 28586 28587 28592 28591 28891 28892 28897 28896
8 28587 28588 28593 28592 28892 28893 28898 28897
8 28588 8805 8804 28593 28893 8744 8743 28898
8 2922 28589 28594 2923 2861 28894 28899 2862
8 28589 28590 28595 28594 28894 28895 28900 28899
8 28590 28591 28596 28595 28895 28896 28901 28900
8 28591 28592 28597 28596 28896 28897 28902 28901
8 28592 28593 28598 28597 28897 28898 28903 28902
8 28593 8804 8803 28598 28898 8743 8742 28903
8 2923 28594 28599 2924 2862 28899 28904 2863
8 28594 28595 28600 28599 28899 28900 28905 28904
8 28595 28596 28601 28600 28900 28901 28906 28905
8 28596 28597 28602 28601 28901 28902 28907 28906
8 28597 28598 28603 28602 28902 28903 28908 28907
8 28598 8803 8802 28603 28903 8742 8741 28908
8 2924 28599 28604 2925 2863 28904 28909 2864
8 28599 28600 28605 28604 28904 28905 28910 28909
8 28600 28601 28606 28605 28905 28906 28911 28910
8 28601 28602 28607 28606 28906 28907 28912 28911
8 28602 28603 28608 28607 28907 28908 28913 28912
8 28603 8802 8801 28608 28908 8741 8740 28913
8 2925 28604 28609 2926 2864 28909 28914 2865
8 28604 28605 28610 28609 28909 28910 28915 28914
8 28605 28606 28611 28610 28910 28911 28916 28915
8 28606 28607 28612 28611 28911 28912 28917 28916
8 28607 28608 28613 28612 28912 28913 28918 28917
8 28608 8801 8800 28613 28913 8740 8739 28918
8 2926 28609 28614 2927 2865 28914 28919 2866
8 28609 28610 28615 28614 28914 28915 28920 28919
8 28610 28611 28616 28615 28915 28916 28921 28920
8 28611 28612 28617 28616 28916 28917 28922 28921
8 28612 28613 28618 28617 28917 28918 28923 28922
8 28613 8800 8799 28618 28918 8739 8738 28923
8 2927 28614 28619 2928 2866 28919 28924 2867
8 28614 28615 28620 28619 28919 28920 28925 28924
8 28615 28616 28621 28620 28920 28921 28926 28925
8 28616 28617 28622 28621 28921 28922 28927 28926
8 28617 28618 28623 28622 28922 28923 28928 28927
8 28618 8799 8798 28623 28923 8738 8737 28928
8 2928 28619 28624 2929 2867 28924 28929 2868
8 28619 28620 28625 28624 28924 28925 28930 28929
8 28620 28621 28626 28625 28925 28926 28931 28930
8 28621 28622 28627 28626 28926 28927 28932 28931
8 28622 28623 28628 28627 28927 28928 28933 28932
8 28623 8798 8797 28628 28928 8737 8736 28933
8 2929 28624 28629 2930 2868 28929 28934 2869
8 28624 28625 28630 28629 28929 28930 28935 28934
8 28625 28626 28631 28630 28930 28931 28936 28935
8 28626 28627 28632 28631 28931 28932 28937 28936
8 28627 28628 28633 28632 28932 28933 28938 28937
8 28628 8797 8796 28633 28933 8736 8735 28938
8 2930 28629 28634 2931 2869 28934 28939 2870
8 28629 28630 28635 28634 28934 28935 28940 28939
8 28630 28631 28636 28635 28935 28936 28941 28940
8 28631 28632 28637 28636 28936 28937 28942 28941
8 28632 28633 28638 28637 28937 28938 28943 28942
8 28633 8796 8795 28638 28938 8735 8734 28943
8 2931 28634 28639 2932 2870 28939 28944 2871
8 28634 28635 28640 28639 28939 28940 28945 28944
8 28635 28636 28641 28640 28940 28941 28946 28945
8 28636 28637 28642 28641 28941 28942 28947 28946
8 28637 28638 28643 28642 28942 28943 28948 28947
8 28638 8795 8794 28643 28943 8734 8733 28948
8 2932 28639 12839 106 2871 28944 12834 105
8 28639 28640 12840 12839 28944 28945 12835 12834
8 28640 28641 12841 12840 28945 28946 12836 12835
8 28641 28642 12842 12841 28946 28947 12837 12836
8 28642 28643 12843 12842 28947 28948 12838 12837
8 28643 8794 6189 12843 28948 8733 6190 12838
8 268 12104 28644 2811 269 12109 28949 2750
8 12104 12105 28645 28644 12109 12110 28950 28949
8 12105 12106 28646 28645 12110 12111 28951 28950
8 12106 12107 28647 28646 12111 12112 28952 28951
8 12107 12108 28648 28647 12112 12113 28953 28952
8 12108 6027 8793 28648 12113 6026 8732 28953
8 2811 28644 28649 2812 2750 28949 28954 2751
8 28644 28645 28650 28649 28949 28950 28955 28954
8 28645 28646 28651 28650 28950 28951 28956 28955
8 28646 28647 28652 28651 28951 28952 28957 28956
8 28647 28648 28653 28652 28952 28953 28958 28957
8 28648 8793 8792 28653 28953 8732 8731 28958
8 2812 28649 28654 2813 2751 28954 28959 2752
8 28649 28650 28655 28654 28954 28955 28960 28959
8 28650 28651 28656 28655 28955 28956 28961 28960
8 28651 28652 28657 28656 28956 28957 28962 28961
8 28652 28653 28658 28657 28957 28958 28963 28962
8 28653 8792 8791 28658 28958 8731 8730 28963
8 2813 28654 28659 2814 2752 28959 28964 2753
8 28654 28655 28660 28659 28959 28960 28965 28964
8 28655 28656 28661 28660 28960 28961 28966 28965
8 28656 28657 28662 28661 28961 28962 28967 28966
8 28657 28658 28663 28662 28962 28963 28968 28967
8 28658 8791 8790 28663 28963 8730 8729 28968
8 2814 28659 28664 2815 2753 28964 28969 2754
8 28659 28660 28665 28664 28964 28965 28970 28969
8 28660 28661 28666 28665 28965 28966 28971 28970
8 28661 28662 28667 28666 28966 28967 28972 28971
8 28662 28663 28668 28667 28967 28968 28973 28972
8 28663 8790 8789 28668 28968 8729 8728 28973
8 2815 28664 28669 2816 2754 28969 28974 2755
8 28664 28665 28670 28669 28969 28970 28975 28974
8 28665 28666 28671 28670 28970 28971 28976 28975
8 28666 28667 28672 28671 28971 28972 28977 28976
8 28667 28668 28673 28672 28972 28973 28978 28977
8 28668 8789 8788 28673 28973 8728 8727 28978
8 2816 28669 28674 2817 2755 28974 28979 2756
8 28669 28670 28675 28674 28974 28975 28980 28979
8 28670 28671 28676 28675 28975 28976 28981 28980
8 28671 28672 28677 28676 28976 28977 28982 28981
8 28672 28673 28678 28677 28977 28978 28983 28982
8 28673 8788 8787 28678 28978 8727 8726 28983
8 2817 28674 28679 2818 2756 28979 28984 2757
8 28674 28675 28680 28679 28979 28980 28985 28984
8 28675 28676 28681 28680 28980 28981 28986 28985
8 28676 28677 28682 28681 28981 28982 28987 28986
8 28677 28678 28683 28682 28982 28983 28988 28987
8 28678 8787 8786 28683 28983 8726 8725 28988
8 2818 28679 28684 2819 2757 28984 28989 2758
8 28679 28680 28685 28684 28984 28985 28990 28989
8 28680 28681 28686 28685 28985 28986 28991 28990
8 28681 28682 28687 28686 28986 28987 28992 28991
8 28682 28683 28688 28687 28987 28988 28993 28992
8 28683 8786 8785 28688 28988 8725 8724 28993
8 2819 28684 28689 2820 2758 28989 28994 2759
8 28684 28685 28690 28689 28989 28990 28995 28994
8 28685 28686 28691 28690 28990 28991 28996 28995
8 28686 28687 28692 28691 28991 28992 28997 28996
8 28687 28688 28693 28692 28992 28993 28998 28997
8 28688 8785 8784 28693 28993 8724 8723 28998
8 2820 28689 28694 2821 2759 28994 28999 2760
8 28689 28690 28695 28694 28994 28995 29000 28999
8 28690 28691 28696 28695 28995 28996 29001 29000
8 28691 28692 28697 28696 28996 28997 29002 29001
8 28692 28693 28698 28697 28997 28998 29003 29002
8 28693 8784 8783 28698 28998 8723 8722 29003
8 2821 28694 28699 2822 2760 28999 29004 2761
8 28694 28695 28700 28699 28999 29000 29005 29004
8 28695 28696 28701 28700 29000 29001 29006 29005
8 28696 28697 28702 28701 29001 29002 29007 29006
8 28697 28698 28703 28702 29002 29003 29008 29007
8 28698 8783 8782 28703 29003 8722 8721 29008
8 2822 28699 28704 2823 2761 29004 29009 2762
8 28699 28700 28705 28704 29004 29005 29010 29009
8 28700 28701 28706 28705 29005 29006 29011 29010
8 28701 28702 28707 28706 29006 29007 29012 29011
8 28702 28703 28708 28707 29007 29008 29013 29012
8 28703 8782 8781 28708 29008 8721 8720 29013
8 2823 28704 28709 2824 2762 29009 29014 2763
8 28704 28705 28710 28709 29009 29010 29015 29014
8 28705 28706 28711 28710 29010 29011 29016 29015
8 28706 28707 28712 28711 29011 29012 29017 29016
8 28707 28708 28713 28712 29012 29013 29018 29017
8 28708 8781 8780 28713 29013 8720 8719 29018
8 2824 28709 28714 2825 2763 29014 29019 2764
8 28709 28710 28715 28714 29014 29015 29020 29019
8 28710 28711 28716 28715 29015 29016 29021 29020
8 28711 28712 28717 28716 29016 29017 29022 29021
8 28712 28713 28718 28717 29017 29018 29023 29022
8 28713 8780 8779 28718 29018 8719 8718 29023
8 2825 28714 28719 2826 2764 29019 29024 2765
8 28714 28715 28720 28719 29019 29020 29025 29024
8 28715 28716 28721 28720 29020 29021 29026 29025
8 28716 28717 28722 28721 29021 29022 29027 29026
8 28717 28718 28723 28722 29022 29023 29028 29027
8 28718 8779 8778 28723 29023 8718 8717 29028
8 2826 28719 28724 2827 2765 29024 29029 2766
8 28719 28720 28725 28724 29024 29025 29030 29029
8 28720 28721 28726 28725 29025 29026 29031 29030
8 28721 28722 28727 28726 29026 29027 29032 29031
8 28722 28723 28728 28727 29027 29028 29033 29032
8 28723 8778 8777 28728 29028 8717 8716 29033
8 2827 28724 28729 2828 2766 29029 29034 2767
8 28724 28725 28730 28729 29029 29030 29035 29034
8 28725 28726 28731 28730 29030 29031 29036 29035
8 28726 28727 28732 28731 29031 29032 29037 29036
8 28727 28728 28733 28732 29032 29033 29038 29037
8 28728 8777 8776 28733 29033 8716 8715 29038
8 2828 28729 28734 2829 2767 29034 29039 2768
8 28729 28730 28735 28734 29034 29035 29040 29039
8 28730 28731 28736 28735 29035 29036 29041 29040
8 28731 28732 28737 28736 29036 29037 29042 29041
8 28732 28733 28738 28737 29037 29038 29043 29042
8 28733 8776 8775 28738 29038 8715 8714 29043
8 2829 28734 28739 2830 2768 29039 29044 2769
8 28734 28735 28740 28739 29039 29040 29045 29044
8 28735 28736 28741 28740 29040 29041 29046 29045
8 28736 28737 28742 28741 29041 29042 29047 29046
8 28737 28738 28743 28742 29042 29043 29048 29047
8 28738 8775 8774 28743 29043 8714 8713 29048
8 2830 28739 28744 2831 2769 29044 29049 2770
8 28739 28740 28745 28744 29044 29045 29050 29049
8 28740 28741 28746 28745 29045 29046 29051 29050
8 28741 28742 28747 28746 29046 29047 29052 29051
8 28742 28743 28748 28747 29047 29048 29053 29052
8 28743 8774 8773 28748 29048 8713 8712 29053
8 2831 28744 28749 2832 2770 29049 29054 2771
8 28744 28745 28750 28749 29049 29050 29055 29054
8 28745 28746 28751 28750 29050 29051 29056 29055
8 28746 28747 28752 28751 29051 29052 29057 29056
8 28747 28748 28753 28752 29052 29053 29058 29057
8 28748 8773 8772 28753 29053 8712 8711 29058
8 2832 28749 28754 2833 2771 29054 29059 2772
8 28749 28750 28755 28754 29054 29055 29060 29059
8 28750 28751 28756 28755 29055 29056 29061 29060
8 28751 28752 28757 28756 29056 29057 29062 29061
8 28752 28753 28758 28757 29057 29058 29063 29062
8 28753 8772 8771 28758 29058 8711 8710 29063
8 2833 28754 28759 2834 2772 29059 29064 2773
8 28754 28755 28760 28759 29059 29060 29065 29064
8 28755 28756 28761 28760 29060 29061 29066 29065
8 28756 28757 28762 28761 29061 29062 29067 29066
8 28757 28758 28763 28762 29062 29063 29068 29067
8 28758 8771 8770 28763 29063 8710 8709 29068
8 2834 28759 28764 2835 2773 29064 29069 2774
8 28759 28760 28765 28764 29064 29065 29070 29069
8 28760 28761 28766 28765 29065 29066 29071 29070
8 28761 28762 28767 28766 29066 29067 29072 29071
8 28762 28763 28768 28767 29067 29068 29073 29072
8 28763 8770 8769 28768 29068 8709 8708 29073
8 2835 28764 28769 2836 2774 29069 29074 2775
8 28764 28765 28770 28769 29069 29070 29075 29074
8 28765 28766 28771 28770 29070 29071 29076 29075
8 28766 28767 28772 28771 29071 29072 29077 29076
8 28767 28768 28773 28772 29072 29073 29078 29077
8 28768 8769 8768 28773 29073 8708 8707 29078
8 2836 28769 28774 2837 2775 29074 29079 2776
8 28769 28770 28775 28774 29074 29075 29080 29079
8 28770 28771 28776 28775 29075 29076 29081 29080
8 28771 28772 28777 28776 29076 29077 29082 29081
8 28772 28773 28778 28777 29077 29078 29083 29082
8 28773 8768 8767 28778 29078 8707 8706 29083
8 2837 28774 28779 2838 2776 29079 29084 2777
8 28774 28775 28780 28779 29079 29080 29085 29084
8 28775 28776 28781 28780 29080 29081 29086 29085
8 28776 28777 28782 28781 29081 29082 29087 29086
8 28777 28778 28783 28782 29082 29083 29088 29087
8 28778 8767 8766 28783 29083 8706 8705 29088
8 2838 28779 28784 2839 2777 29084 29089 2778
8 28779 28780 28785 28784 29084 29085 29090 29089
8 28780 28781 28786 28785 29085 29086 29091 29090
8 28781 28782 28787 28786 29086 29087 29092 29091
8 28782 28783 28788 28787 29087 29088 29093 29092
8 28783 8766 8765 28788 29088 8705 8704 29093
8 2839 28784 28789 2840 2778 29089 29094 2779
8 28784 28785 28790 28789 29089 29090 29095 29094
8 28785 28786 28791 28790 29090 29091 29096 29095
8 28786 28787 28792 28791 29091 29092 29097 29096
8 28787 28788 28793 28792 29092 29093 29098 29097
8 28788 8765 8764 28793 29093 8704 8703 29098
8 2840 28789 28794 2841 2779 29094 29099 2780
8 28789 28790 28795 28794 29094 29095 29100 29099
8 28790 28791 28796 28795 29095 29096 29101 29100
8 28791 28792 28797 28796 29096 29097 29102 29101
8 28792 28793 28798 28797 29097 29098 29103 29102
8 28793 8764 8763 28798 29098 8703 8702 29103
8 2841 28794 28799 2842 2780 29099 29104 2781
8 28794 28795 28800 28799 29099 29100 29105 29104
8 28795 28796 28801 28800 29100 29101 29106 29105
8 28796 28797 28802 28801 29101 29102 29107 29106
8 28797 28798 28803 28802 29102 29103 29108 29107
8 28798 8763 8762 28803 29103 8702 8701 29108
8 2842 28799 28804 2843 2781 29104 29109 2782
8 28799 28800 28805 28804 29104 29105 29110 29109
8 28800 28801 28806 28805 29105 29106 29111 29110
8 28801 28802 28807 28806 29106 29107 29112 29111
8 28802 28803 28808 28807 29107 29108 29113 29112
8 28803 8762 8761 28808 29108 8701 8700 29113
8 2843 28804 28809 2844 2782 29109 29114 2783
8 28804 28805 28810 28809 29109 29110 29115 29114
8 28805 28806 28811 28810 29110 29111 29116 29115
8 28806 28807 28812 28811 29111 29112 29117 29116
8 28807 28808 28813 28812 29112 29113 29118 29117
8 28808 8761 8760 28813 29113 8700 8699 29118
8 2844 28809 28814 2845 2783 29114 29119 2784
8 28809 28810 28815 28814 29114 29115 29120 29119
8 28810 28811 28816 28815 29115 29116 29121 29120
8 28811 28812 28817 28816 29116 29117 29122 29121
8 28812 28813 28818 28817 29117 29118 29123 29122
8 28813 8760 8759 28818 29118 8699 8698 29123
8 2845 28814 28819 2846 2784 29119 29124 2785
8 28814 28815 28820 28819 29119 29120 29125 29124
8 28815 28816 28821 28820 29120 29121 29126 29125
8 28816 28817 28822 28821 29121 29122 29127 29126
8 28817 28818 28823 28822 29122 29123 29128 29127
8 28818 8759 8758 28823 29123 8698 8697 29128
8 2846 28819 28824 2847 2785 29124 29129 2786
8 28819 28820 28825 28824 29124 29125 29130 29129
8 28820 28821 28826 28825 29125 29126 29131 29130
8 28821 28822 28827 28826 29126 29127 29132 29131
8 28822 28823 28828 28827 29127 29128 29133 29132
8 28823 8758 8757 28828 29128 8697 8696 29133
8 2847 28824 28829 2848 2786 29129 29134 2787
8 28824 28825 28830 28829 29129 29130 29135 29134
8 28825 28826 28831 28830 29130 29131 29136 29135
8 28826 28827 28832 28831 29131 29132 29137 29136
8 28827 28828 28833 28832 29132 29133 29138 29137
8 28828 8757 8756 28833 29133 8696 8695 29138
8 2848 28829 28834 2849 2787 29134 29139 2788
8 28829 28830 28835 28834 29134 29135 29140 29139
8 28830 28831 28836 28835 29135 29136 29141 29140
8 28831 28832 28837 28836 29136 29137 29142 29141
8 28832 28833 28838 28837 29137 29138 29143 29142
8 28833 8756 8755 28838 29138 8695 8694 29143
8 2849 28834 28839 2850 2788 29139 29144 2789
8 28834 28835 28840 28839 29139 29140 29145 29144
8 28835 28836 28841 28840 29140 29141 29146 29145
8 28836 28837 28842 28841 29141 29142 29147 29146
8 28837 28838 28843 28842 29142 29143 29148 29147
8 28838 8755 8754 28843 29143 8694 8693 29148
8 2850 28839 28844 2851 2789 29144 29149 2790
8 28839 28840 28845 28844 29144 29145 29150 29149
8 28840 28841 28846 28845 29145 29146 29151 29150
8 28841 28842 28847 28846 29146 29147 29152 29151
8 28842 28843 28848 28847 29147 29148 29153 29152
8 28843 8754 8753 28848 29148 8693 8692 29153
8 2851 28844 28849 2852 2790 29149 29154 2791
8 28844 28845 28850 28849 29149 29150 29155 29154
8 28845 28846 28851 28850 29150 29151 29156 29155
8 28846 28847 28852 28851 29151 29152 29157 29156
8 28847 28848 28853 28852 29152 29153 29158 29157
8 28848 8753 8752 28853 29153 8692 8691 29158
8 2852 28849 28854 2853 2791 29154 29159 2792
8 28849 28850 28855 28854 29154 29155 29160 29159
8 28850 28851 28856 28855 29155 29156 29161 29160
8 28851 28852 28857 28856 29156 29157 29162 29161
8 28852 28853 28858 28857 29157 29158 29163 29162
8 28853 8752 8751 28858 29158 8691 8690 29163
8 2853 28854 28859 2854 2792 29159 29164 2793
8 28854 28855 28860 28859 29159 29160 29165 29164
8 28855 28856 28861 28860 29160 29161 29166 29165
8 28856 28857 28862 28861 29161 29162 29167 29166
8 28857 28858 28863 28862 29162 29163 29168 29167
8 28858 8751 8750 28863 29163 8690 8689 29168
8 2854 28859 28864 2855 2793 29164 29169 2794
8 28859 28860 28865 28864 29164 29165 29170 29169
8 28860 28861 28866 28865 29165 29166 29171 29170
8 28861 28862 28867 28866 29166 29167 29172 29171
8 28862 28863 28868 28867 29167 29168 29173 29172
8 28863 8750 8749 28868 29168 8689 8688 29173
8 28864 28865 28870 28869 29169 29170 29175 29174
8 28865 28866 28871 28870 29170 29171 29176 29175
8 28866 28867 28872 28871 29171 29172 29177 29176
8 28867 28868 28873 28872 29172 29173 29178 29177
8 28868 8749 8748 28873 29173 8688 8687 29178
8 28869 28870 28875 28874 29174 29175 29180 29179
8 28870 28871 28876 28875 29175 29176 29181 29180
8 28871 28872 28877 28876 29176 29177 29182 29181
8 28872 28873 28878 28877 29177 29178 29183 29182
8 28873 8748 8747 28878 29178 8687 8686 29183
8 28874 28875 28880 28879 29179 29180 29185 29184
8 28875 28876 28881 28880 29180 29181 29186 29185
8 28876 28877 28882 28881 29181 29182 29187 29186
8 28877 28878 28883 28882 29182 29183 29188 29187
8 28878 8747 8746 28883 29183 8686 8685 29188
8 2858 28879 28884 2859 2797 29184 29189 2798
8 28879 28880 28885 28884 29184 29185 29190 29189
8 28880 28881 28886 28885 29185 29186 29191 29190
8 28881 28882 28887 28886 29186 29187 29192 29191
8 28882 28883 28888 28887 29187 29188 29193 29192
8 28883 8746 8745 28888 29188 8685 8684 29193
8 2859 28884 28889 2860 2798 29189 29194 2799
8 28884 28885 28890 28889 29189 29190 29195 29194
8 28885 28886 28891 28890 29190 29191 29196 29195
8 28886 28887 28892 28891 29191 29192 29197 29196
8 28887 28888 28893 28892 29192 29193 29198 29197
8 28888 8745 8744 28893 29193 8684 8683 29198
8 2860 28889 28894 2861 2799 29194 29199 2800
8 28889 28890 28895 28894 29194 29195 29200 29199
8 28890 28891 28896 28895 29195 29196 29201 29200
8 28891 28892 28897 28896 29196 29197 29202 29201
8 28892 28893 28898 28897 29197 29198 29203 29202
8 28893 8744 8743 28898 29198 8683 8682 29203
8 28894 28895 28900 28899 29199 29200 29205 29204
8 28895 28896 28901 28900 29200 29201 29206 29205
8 28896 28897 28902 28901 29201 29202 29207 29206
8 28897 28898 28903 28902 29202 29203 29208 29207
8 28898 8743 8742 28903 29203 8682 8681 29208
8 28899 28900 28905 28904 29204 29205 29210 29209
8 28900 28901 28906 28905 29205 29206 29211 29210
8 28901 28902 28907 28906 29206 29207 29212 29211
8 28902 28903 28908 28907 29207 29208 29213 29212
8 28903 8742 8741 28908 29208 8681 8680 29213
8 28904 28905 28910 28909 29209 29210 29215 29214
8 28905 28906 28911 28910 29210 29211 29216 29215
8 28906 28907 28912 28911 29211 29212 29217 29216
8 28907 28908 28913 28912 29212 29213 29218 29217
8 28908 8741 8740 28913 29213 8680 8679 29218
8 2864 28909 28914 2865 2803 29214 29219 2804
8 28909 28910 28915 28914 29214 29215 29220 29219
8 28910 28911 28916 28915 29215 29216 29221 29220
8 28911 28912 28917 28916 29216 29217 29222 29221
8 28912 28913 28918 28917 29217 29218 29223 29222
8 28913 8740 8739 28918 29218 8679 8678 29223
8 2865 28914 28919 2866 2804 29219 29224 2805
8 28914 28915 28920 28919 29219 29220 29225 29224
8 28915 28916 28921 28920 29220 29221 29226 29225
8 28916 28917 28922 28921 29221 29222 29227 29226
8 28917 28918 28923 28922 29222 29223 29228 29227
8 28918 8739 8738 28923 29223 8678 8677 29228
8 2866 28919 28924 2867 2805 29224 29229 2806
8 28919 28920 28925 28924 29224 29225 29230 29229
8 28920 28921 28926 28925 29225 29226 29231 29230
8 28921 28922 28927 28926 29226 29227 29232 29231
8 28922 28923 28928 28927 29227 29228 29233 29232
8 28923 8738 8737 28928 29228 8677 8676 29233
8 28924 28925 28930 28929 29229 29230 29235 29234
8 28925 28926 28931 28930 29230 29231 29236 29235
8 28926 28927 28932 28931 29231 29232 29237 29236
8 28927 28928 28933 28932 29232 29233 29238 29237
8 28928 8737 8736 28933 29233 8676 8675 29238
8 28929 28930 28935 28934 29234 29235 29240 29239
8 28930 28931 28936 28935 29235 29236 29241 29240
8 28931 28932 28937 28936 29236 29237 29242 29241
8 28932 28933 28938 28937 29237 29238 29243 29242
8 28933 8736 8735 28938 29238 8675 8674 29243
8 28934 28935 28940 28939 29239 29240 29245 29244
8 28935 28936 28941 28940 29240 29241 29246 29245
8 28936 28937 28942 28941 29241 29242 29247 29246
8 28937 28938 28943 28942 29242 29243 29248 29247
8 28938 8735 8734 28943 29243 8674 8673 29248
8 2870 28939 28944 2871 2809 29244 29249 2810
8 28939 28940 28945 28944 29244 29245 29250 29249
8 28940 28941 28946 28945 29245 29246 29251 29250
8 28941 28942 28947 28946 29246 29247 29252 29251
8 28942 28943 28948 28947 29247 29248 29253 29252
8 28943 8734 8733 28948 29248 8673 8672 29253
8 2871 28944 12834 105 2810 29249 12829 104
8 28944 28945 12835 12834 29249 29250 12830 12829
8 28945 28946 12836 12835 29250 29251 12831 12830
8 28946 28947 12837 12836 29251 29252 12832 12831
8 28947 28948 12838 12837 29252 29253 12833 12832
8 28948 8733 6190 12838 29253 8672 6191 12833
8 269 12109 28949 2750 270 12114 29254 2689
8 12109 12110 28950 28949 12114 12115 29255 29254
8 12110 12111 28951 28950 12115 12116 29256 29255
8 12111 12112 28952 28951 12116 12117 29257 29256
8 12112 12113 28953 28952 12117 12118 29258 29257
8 12113 6026 8732 28953 12118 6025 8671 29258
8 2750 28949 28954 2751 2689 29254 29259 2690
8 28949 28950 28955 28954 29254 29255 29260 29259
8 28950 28951 28956 28955 29255 29256 29261 29260
8 28951 28952 28957 28956 29256 29257 29262 29261
8 28952 28953 28958 28957 29257 29258 29263 29262
8 28953 8732 8731 28958 29258 8671 8670 29263
8 2751 28954 28959 2752 2690 29259 29264 2691
8 28954 28955 28960 28959 29259 29260 29265 29264
8 28955 28956 28961 28960 29260 29261 29266 29265
8 28956 28957 28962 28961 29261 29262 29267 29266
8 28957 28958 28963 28962 29262 29263 29268 29267
8 28958 8731 8730 28963 29263 8670 8669 29268
8 2752 28959 28964 2753 2691 29264 29269 2692
8 28959 28960 28965 28964 29264 29265 29270 29269
8 28960 28961 28966 28965 29265 29266 29271 29270
8 28961 28962 28967 28966 29266 29267 29272 29271
8 28962 28963 28968 28967 29267 29268 29273 29272
8 28963 8730 8729 28968 29268 8669 8668 29273
8 2753 28964 28969 2754 2692 29269 29274 2693
8 28964 28965 28970 28969 29269 29270 29275 29274
8 28965 28966 28971 28970 29270 29271 29276 29275
8 28966 28967 28972 28971 29271 29272 29277 29276
8 28967 28968 28973 28972 29272 29273 29278 29277
8 28968 8729 8728 28973 29273 8668 8667 29278
8 2754 28969 28974 2755 2693 29274 29279 2694
8 28969 28970 28975 28974 29274 29275 29280 29279
8 28970 28971 28976 28975 29275 29276 29281 29280
8 28971 28972 28977 28976 29276 29277 29282 29281
8 28972 28973 28978 28977 29277 29278 29283 29282
8 28973 8728 8727 28978 29278 8667 8666 29283
8 2755 28974 28979 2756 2694 29279 29284 2695
8 28974 28975 28980 28979 29279 29280 29285 29284
8 28975 28976 28981 28980 29280 29281 29286 29285
8 28976 28977 28982 28981 29281 29282 29287 29286
8 28977 28978 28983 28982 29282 29283 29288 29287
8 28978 8727 8726 28983 29283 8666 8665 29288
8 2756 28979 28984 2757 2695 29284 29289 2696
8 28979 28980 28985 28984 29284 29285 29290 29289
8 28980 28981 28986 28985 29285 29286 29291 29290
8 28981 28982 28987 28986 29286 29287 29292 29291
8 28982 28983 28988 28987 29287 29288 29293 29292
8 28983 8726 8725 28988 29288 8665 8664 29293
8 2757 28984 28989 2758 2696 29289 29294 2697
8 28984 28985 28990 28989 29289 29290 29295 29294
8 28985 28986 28991 28990 29290 29291 29296 29295
8 28986 28987 28992 28991 29291 29292 29297 29296
8 28987 28988 28993 28992 29292 29293 29298 29297
8 28988 8725 8724 28993 29293 8664 8663 29298
8 2758 28989 28994 2759 2697 29294 29299 2698
8 28989 28990 28995 28994 29294 29295 29300 29299
8 28990 28991 28996 28995 29295 29296 29301 29300
8 28991 28992 28997 28996 29296 29297 29302 29301
8 28992 28993 28998 28997 29297 29298 29303 29302
8 28993 8724 8723 28998 29298 8663 8662 29303
8 2759 28994 28999 2760 2698 29299 29304 2699
8 28994 28995 29000 28999 29299 29300 29305 29304
8 28995 28996 29001 29000 29300 29301 29306 29305
8 28996 28997 29002 29001 29301 29302 29307 29306
8 28997 28998 29003 29002 29302 29303 29308 29307
8 28998 8723 8722 29003 29303 8662 8661 29308
8 2760 28999 29004 2761 2699 29304 29309 2700
8 28999 29000 29005 29004 29304 29305 29310 29309
8 29000 29001 29006 29005 29305 29306 29311 29310
8 29001 29002 29007 29006 29306 29307 29312 29311
8 29002 29003 29008 29007 29307 29308 29313 29312
8 29003 8722 8721 29008 29308 8661 8660 29313
8 2761 29004 29009 2762 2700 29309 29314 2701
8 29004 29005 29010 29009 29309 29310 29315 29314
8 29005 29006 29011 29010 29310 29311 29316 29315
8 29006 29007 29012 29011 29311 29312 29317 29316
8 29007 29008 29013 29012 29312 29313 29318 29317
8 29008 8721 8720 29013 29313 8660 8659 29318
8 2762 29009 29014 2763 2701 29314 29319 2702
8 29009 29010 29015 29014 29314 29315 29320 29319
8 29010 29011 29016 29015 29315 29316 29321 29320
8 29011 29012 29017 29016 29316 29317 29322 29321
8 29012 29013 29018 29017 29317 29318 29323 29322
8 29013 8720 8719 29018 29318 8659 8658 29323
8 2763 29014 29019 2764 2702 29319 29324 2703
8 29014 29015 29020 29019 29319 29320 29325 29324
8 29015 29016 29021 29020 29320 29321 29326 29325
8 29016 29017 29022 29021 29321 29322 29327 29326
8 29017 29018 29023 29022 29322 29323 29328 29327
8 29018 8719 8718 29023 29323 8658 8657 29328
8 2764 29019 29024 2765 2703 29324 29329 2704
8 29019 29020 29025 29024 29324 29325 29330 29329
8 29020 29021 29026 29025 29325 29326 29331 29330
8 29021 29022 29027 29026 29326 29327 29332 29331
8 29022 29023 29028 29027 29327 29328 29333 29332
8 29023 8718 8717 29028 29328 8657 8656 29333
8 2765 29024 29029 2766 2704 29329 29334 2705
8 29024 29025 29030 29029 29329 29330 29335 29334
8 29025 29026 29031 29030 29330 29331 29336 29335
8 29026 29027 29032 29031 29331 29332 29337 29336
8 29027 29028 29033 29032 29332 29333 29338 29337
8 29028 8717 8716 29033 29333 8656 8655 29338
8 2766 29029 29034 2767 2705 29334 29339 2706
8 29029 29030 29035 29034 29334 29335 29340 29339
8 29030 29031 29036 29035 29335 29336 29341 29340
8 29031 29032 29037 29036 29336 29337 29342 29341
8 29032 29033 29038 29037 29337 29338 29343 29342
8 29033 8716 8715 29038 29338 8655 8654 29343
8 2767 29034 29039 2768 2706 29339 29344 2707
8 29034 29035 29040 29039 29339 29340 29345 29344
8 29035 29036 29041 29040 29340 29341 29346 29345
8 29036 29037 29042 29041 29341 29342 29347 29346
8 29037 29038 29043 29042 29342 29343 29348 29347
8 29038 8715 8714 29043 29343 8654 8653 29348
8 2768 29039 29044 2769 2707 29344 29349 2708
8 29039 29040 29045 29044 29344 29345 29350 29349
8 29040 29041 29046 29045 29345 29346 29351 29350
8 29041 29042 29047 29046 29346 29347 29352 29351
8 29042 29043 29048 29047 29347 29348 29353 29352
8 29043 8714 8713 29048 29348 8653 8652 29353
8 2769 29044 29049 2770 2708 29349 29354 2709
8 29044 29045 29050 29049 29349 29350 29355 29354
8 29045 29046 29051 29050 29350 29351 29356 29355
8 29046 29047 29052 29051 29351 29352 29357 29356
8 29047 29048 29053 29052 29352 29353 29358 29357
8 29048 8713 8712 29053 29353 8652 8651 29358
8 2770 29049 29054 2771 2709 29354 29359 2710
8 29049 29050 29055 29054 29354 29355 29360 29359
8 29050 29051 29056 29055 29355 29356 29361 29360
8 29051 29052 29057 29056 29356 29357 29362 29361
8 29052 29053 29058 29057 29357 29358 29363 29362
8 29053 8712 8711 29058 29358 8651 8650 29363
8 2771 29054 29059 2772 2710 29359 29364 2711
8 29054 29055 29060 29059 29359 29360 29365 29364
8 29055 29056 29061 29060 29360 29361 29366 29365
8 29056 29057 29062 29061 29361 29362 29367 29366
8 29057 29058 29063 29062 29362 29363 29368 29367
8 29058 8711 8710 29063 29363 8650 8649 29368
8 2772 29059 29064 2773 2711 29364 29369 2712
8 29059 29060 29065 29064 29364 29365 29370 29369
8 29060 29061 29066 29065 29365 29366 29371 29370
8 29061 29062 29067 29066 29366 29367 29372 29371
8 29062 29063 29068 29067 29367 29368 29373 29372
8 29063 8710 8709 29068 29368 8649 8648 29373
8 2773 29064 29069 2774 2712 29369 29374 2713
8 29064 29065 29070 29069 29369 29370 29375 29374
8 29065 29066 29071 29070 29370 29371 29376 29375
8 29066 29067 29072 29071 29371 29372 29377 29376
8 29067 29068 29073 29072 29372 29373 29378 29377
8 29068 8709 8708 29073 29373 8648 8647 29378
8 2774 29069 29074 2775 2713 29374 29379 2714
8 29069 29070 29075 29074 29374 29375 29380 29379
8 29070 29071 29076 29075 29375 29376 29381 29380
8 29071 29072 29077 29076 29376 29377 29382 29381
8 29072 29073 29078 29077 29377 29378 29383 29382
8 29073 8708 8707 29078 29378 8647 8646 29383
8 2775 29074 29079 2776 2714 29379 29384 2715
8 29074 29075 29080 29079 29379 29380 29385 29384
8 29075 29076 29081 29080 29380 29381 29386 29385
8 29076 29077 29082 29081 29381 29382 29387 29386
8 29077 29078 29083 29082 29382 29383 29388 29387
8 29078 8707 8706 29083 29383 8646 8645 29388
8 2776 29079 29084 2777 2715 29384 29389 2716
8 29079 29080 29085 29084 29384 29385 29390 29389
8 29080 29081 29086 29085 29385 29386 29391 29390
8 29081 29082 29087 29086 29386 29387 29392 29391
8 29082 29083 29088 29087 29387 29388 29393 29392
8 29083 8706 8705 29088 29388 8645 8644 29393
8 2777 29084 29089 2778 2716 29389 29394 2717
8 29084 29085 29090 29089 29389 29390 29395 29394
8 29085 29086 29091 29090 29390 29391 29396 29395
8 29086 29087 29092 29091 29391 29392 29397 29396
8 29087 29088 29093 29092 29392 29393 29398 29397
8 29088 8705 8704 29093 29393 8644 8643 29398
8 2778 29089 29094 2779 2717 29394 29399 2718
8 29089 29090 29095 29094 29394 29395 29400 29399
8 29090 29091 29096 29095 29395 29396 29401 29400
8 29091 29092 29097 29096 29396 29397 29402 29401
8 29092 29093 29098 29097 29397 29398 29403 29402
8 29093 8704 8703 29098 29398 8643 8642 29403
8 2779 29094 29099 2780 2718 29399 29404 2719
8 29094 29095 29100 29099 29399 29400 29405 29404
8 29095 29096 29101 29100 29400 29401 29406 29405
8 29096 29097 29102 29101 29401 29402 29407 29406
8 29097 29098 29103 29102 29402 29403 29408 29407
8 29098 8703 8702 29103 29403 8642 8641 29408
8 2780 29099 29104 2781 2719 29404 29409 2720
8 29099 29100 29105 29104 29404 29405 29410 29409
8 29100 29101 29106 29105 29405 29406 29411 29410
8 29101 29102 29107 29106 29406 29407 29412 29411
8 29102 29103 29108 29107 29407 29408 29413 29412
8 29103 8702 8701 29108 29408 8641 8640 29413
8 2781 29104 29109 2782 2720 29409 29414 2721
8 29104 29105 29110 29109 29409 29410 29415 29414
8 29105 29106 29111 29110 29410 29411 29416 29415
8 29106 29107 29112 29111 29411 29412 29417 29416
8 29107 29108 29113 29112 29412 29413 29418 29417
8 29108 8701 8700 29113 29413 8640 8639 29418
8 2782 29109 29114 2783 2721 29414 29419 2722
8 29109 29110 29115 29114 29414 29415 29420 29419
8 29110 29111 29116 29115 29415 29416 29421 29420
8 29111 29112 29117 29116 29416 29417 29422 29421
8 29112 29113 29118 29117 29417 29418 29423 29422
8 29113 8700 8699 29118 29418 8639 8638 29423
8 2783 29114 29119 2784 2722 29419 29424 2723
8 29114 29115 29120 29119 29419 29420 29425 29424
8 29115 29116 29121 29120 29420 29421 29426 29425
8 29116 29117 29122 29121 29421 29422 29427 29426
8 29117 29118 29123 29122 29422 29423 29428 29427
8 29118 8699 8698 29123 29423 8638 8637 29428
8 2784 29119 29124 2785 2723 29424 29429 2724
8 29119 29120 29125 29124 29424 29425 29430 29429
8 29120 29121 29126 29125 29425 29426 29431 29430
8 29121 29122 29127 29126 29426 29427 29432 29431
8 29122 29123 29128 29127 29427 29428 29433 29432
8 29123 8698 8697 29128 29428 8637 8636 29433
8 2785 29124 29129 2786 2724 29429 29434 2725
8 29124 29125 29130 29129 29429 29430 29435 29434
8 29125 29126 29131 29130 29430 29431 29436 29435
8 29126 29127 29132 29131 29431 29432 29437 29436
8 29127 29128 29133 29132 29432 29433 29438 29437
8 29128 8697 8696 29133 29433 8636 8635 29438
8 2786 29129 29134 2787 2725 29434 29439 2726
8 29129 29130 29135 29134 29434 29435 29440 29439
8 29130 29131 29136 29135 29435 29436 29441 29440
8 29131 29132 29137 29136 29436 29437 29442 29441
8 29132 29133 29138 29137 29437 29438 29443 29442
8 29133 8696 8695 29138 29438 8635 8634 29443
8 2787 29134 29139 2788 2726 29439 29444 2727
8 29134 29135 29140 29139 29439 29440 29445 29444
8 29135 29136 29141 29140 29440 29441 29446 29445
8 29136 29137 29142 29141 29441 29442 29447 29446
8 29137 29138 29143 29142 29442 29443 29448 29447
8 29138 8695 8694 29143 29443 8634 8633 29448
8 2788 29139 29144 2789 2727 29444 29449 2728
8 29139 29140 29145 29144 29444 29445 29450 29449
8 29140 29141 29146 29145 29445 29446 29451 29450
8 29141 29142 29147 29146 29446 29447 29452 29451
8 29142 29143 29148 29147 29447 29448 29453 29452
8 29143 8694 8693 29148 29448 8633 8632 29453
8 2789 29144 29149 2790 2728 29449 29454 2729
8 29144 29145 29150 29149 29449 29450 29455 29454
8 29145 29146 29151 29150 29450 29451 29456 29455
8 29146 29147 29152 29151 29451 29452 29457 29456
8 29147 29148 29153 29152 29452 29453 29458 29457
8 29148 8693 8692 29153 29453 8632 8631 29458
8 2790 29149 29154 2791 2729 29454 29459 2730
8 29149 29150 29155 29154 29454 29455 29460 29459
8 29150 29151 29156 29155 29455 29456 29461 29460
8 29151 29152 29157 29156 29456 29457 29462 29461
8 29152 29153 29158 29157 29457 29458 29463 29462
8 29153 8692 8691 29158 29458 8631 8630 29463
8 2791 29154 29159 2792 2730 29459 29464 2731
8 29154 29155 29160 29159 29459 29460 29465 29464
8 29155 29156 29161 29160 29460 29461 29466 29465
8 29156 29157 29162 29161 29461 29462 29467 29466
8 29157 29158 29163 29162 29462 29463 29468 29467
8 29158 8691 8690 29163 29463 8630 8629 29468
8 2792 29159 29164 2793 2731 29464 29469 2732
8 29159 29160 29165 29164 29464 29465 29470 29469
8 29160 29161 29166 29165 29465 29466 29471 29470
8 29161 29162 29167 29166 29466 29467 29472 29471
8 29162 29163 29168 29167 29467 29468 29473 29472
8 29163 8690 8689 29168 29468 8629 8628 29473
8 2793 29164 29169 2794 2732 29469 29474 2733
8 29164 29165 29170 29169 29469 29470 29475 29474
8 29165 29166 29171 29170 29470 29471 29476 29475
8 29166 29167 29172 29171 29471 29472 29477 29476
8 29167 29168 29173 29172 29472 29473 29478 29477
8 29168 8689 8688 29173 29473 8628 8627 29478
8 29169 29170 29175 29174 29474 29475 29480 29479
8 29170 29171 29176 29175 29475 29476 29481 29480
8 29171 29172 29177 29176 29476 29477 29482 29481
8 29172 29173 29178 29177 29477 29478 29483 29482
8 29173 8688 8687 29178 29478 8627 8626 29483
8 29174 29175 29180 29179 29479 29480 29485 29484
8 29175 29176 29181 29180 29480 29481 29486 29485
8 29176 29177 29182 29181 29481 29482 29487 29486
8 29177 29178 29183 29182 29482 29483 29488 29487
8 29178 8687 8686 29183 29483 8626 8625 29488
8 29179 29180 29185 29184 29484 29485 29490 29489
8 29180 29181 29186 29185 29485 29486 29491 29490
8 29181 29182 29187 29186 29486 29487 29492 29491
8 29182 29183 29188 29187 29487 29488 29493 29492
8 29183 8686 8685 29188 29488 8625 8624 29493
8 2797 29184 29189 2798 2736 29489 29494 2737
8 29184 29185 29190 29189 29489 29490 29495 29494
8 29185 29186 29191 29190 29490 29491 29496 29495
8 29186 29187 29192 29191 29491 29492 29497 29496
8 29187 29188 29193 29192 29492 29493 29498 29497
8 29188 8685 8684 29193 29493 8624 8623 29498
8 2798 29189 29194 2799 2737 29494 29499 2738
8 29189 29190 29195 29194 29494 29495 29500 29499
8 29190 29191 29196 29195 29495 29496 29501 29500
8 29191 29192 29197 29196 29496 29497 29502 29501
8 29192 29193 29198 29197 29497 29498 29503 29502
8 29193 8684 8683 29198 29498 8623 8622 29503
8 2799 29194 29199 2800 2738 29499 29504 2739
8 29194 29195 29200 29199 29499 29500 29505 29504
8 29195 29196 29201 29200 29500 29501 29506 29505
8 29196 29197 29202 29201 29501 29502 29507 29506
8 29197 29198 29203 29202 29502 29503 29508 29507
8 29198 8683 8682 29203 29503 8622 8621 29508
8 29199 29200 29205 29204 29504 29505 29510 29509
8 29200 29201 29206 29205 29505 29506 29511 29510
8 29201 29202 29207 29206 29506 29507 29512 29511
8 29202 29203 29208 29207 29507 29508 29513 29512
8 29203 8682 8681 29208 29508 8621 8620 29513
8 29204 29205 29210 29209 29509 29510 29515 29514
8 29205 29206 29211 29210 29510 29511 29516 29515
8 29206 29207 29212 29211 29511 29512 29517 29516
8 29207 29208 29213 29212 29512 29513 29518 29517
8 29208 8681 8680 29213 29513 8620 8619 29518
8 29209 29210 29215 29214 29514 29515 29520 29519
8 29210 29211 29216 29215 29515 29516 29521 29520
8 29211 29212 29217 29216 29516 29517 29522 29521
8 29212 29213 29218 29217 29517 29518 29523 29522
8 29213 8680 8679 29218 29518 8619 8618 29523
8 2803 29214 29219 2804 2742 29519 29524 2743
8 29214 29215 29220 29219 29519 29520 29525 29524
8 29215 29216 29221 29220 29520 29521 29526 29525
8 29216 29217 29222 29221 29521 29522 29527 29526
8 29217 29218 29223 29222 29522 29523 29528 29527
8 29218 8679 8678 29223 29523 8618 8617 29528
8 2804 29219 29224 2805 2743 29524 29529 2744
8 29219 29220 29225 29224 29524 29525 29530 29529
8 29220 29221 29226 29225 29525 29526 29531 29530
8 29221 29222 29227 29226 29526 29527 29532 29531
8 29222 29223 29228 29227 29527 29528 29533 29532
8 29223 8678 8677 29228 29528 8617 8616 29533
8 2805 29224 29229 2806 2744 29529 29534 2745
8 29224 29225 29230 29229 29529 29530 29535 29534
8 29225 29226 29231 29230 29530 29531 29536 29535
8 29226 29227 29232 29231 29531 29532 29537 29536
8 29227 29228 29233 29232 29532 29533 29538 29537
8 29228 8677 8676 29233 29533 8616 8615 29538
8 29229 29230 29235 29234 29534 29535 29540 29539
8 29230 29231 29236 29235 29535 29536 29541 29540
8 29231 29232 29237 29236 29536 29537 29542 29541
8 29232 29233 29238 29237 29537 29538 29543 29542
8 29233 8676 8675 29238 29538 8615 8614 29543
8 29234 29235 29240 29239 29539 29540 29545 29544
8 29235 29236 29241 29240 29540 29541 29546 29545
8 29236 29237 29242 29241 29541 29542 29547 29546
8 29237 29238 29243 29242 29542 29543 29548 29547
8 29238 8675 8674 29243 29543 8614 8613 29548
8 29239 29240 29245 29244 29544 29545 29550 29549
8 29240 29241 29246 29245 29545 29546 29551 29550
8 29241 29242 29247 29246 29546 29547 29552 29551
8 29242 29243 29248 29247 29547 29548 29553 29552
8 29243 8674 8673 29248 29548 8613 8612 29553
8 2809 29244 29249 2810 2748 29549 29554 2749
8 29244 29245 29250 29249 29549 29550 29555 29554
8 29245 29246 29251 29250 29550 29551 29556 29555
8 29246 29247 29252 29251 29551 29552 29557 29556
8 29247 29248 29253 29252 29552 29553 29558 29557
8 29248 8673 8672 29253 29553 8612 8611 29558
8 2810 29249 12829 104 2749 29554 12824 103
8 29249 29250 12830 12829 29554 29555 12825 12824
8 29250 29251 12831 12830 29555 29556 12826 12825
8 29251 29252 12832 12831 29556 29557 12827 12826
8 29252 29253 12833 12832 29557 29558 12828 12827
8 29253 8672 6191 12833 29558 8611 6192 12828
8 270 12114 29254 2689 271 12119 29559 2628
8 12114 12115 29255 29254 12119 12120 29560 29559
8 12115 12116 29256 29255 12120 12121 29561 29560
8 12116 12117 29257 29256 12121 12122 29562 29561
8 12117 12118 29258 29257 12122 12123 29563 29562
8 12118 6025 8671 29258 12123 6024 8610 29563
8 2689 29254 29259 2690 2628 29559 29564 2629
8 29254 29255 29260 29259 29559 29560 29565 29564
8 29255 29256 29261 29260 29560 29561 29566 29565
8 29256 29257 29262 29261 29561 29562 29567 29566
8 29257 29258 29263 29262 29562 29563 29568 29567
8 29258 8671 8670 29263 29563 8610 8609 29568
8 2690 29259 29264 2691 2629 29564 29569 2630
8 29259 29260 29265 29264 29564 29565 29570 29569
8 29260 29261 29266 29265 29565 29566 29571 29570
8 29261 29262 29267 29266 29566 29567 29572 29571
8 29262 29263 29268 29267 29567 29568 29573 29572
8 29263 8670 8669 29268 29568 8609 8608 29573
8 2691 29264 29269 2692 2630 29569 29574 2631
8 29264 29265 29270 29269 29569 29570 29575 29574
8 29265 29266 29271 29270 29570 29571 29576 29575
8 29266 29267 29272 29271 29571 29572 29577 29576
8 29267 29268 29273 29272 29572 29573 29578 29577
8 29268 8669 8668 29273 29573 8608 8607 29578
8 2692 29269 29274 2693 2631 29574 29579 2632
8 29269 29270 29275 29274 29574 29575 29580 29579
8 29270 29271 29276 29275 29575 29576 29581 29580
8 29271 29272 29277 29276 29576 29577 29582 29581
8 29272 29273 29278 29277 29577 29578 29583 29582
8 29273 8668 8667 29278 29578 8607 8606 29583
8 2693 29274 29279 2694 2632 29579 29584 2633
8 29274 29275 29280 29279 29579 29580 29585 29584
8 29275 29276 29281 29280 29580 29581 29586 29585
8 29276 29277 29282 29281 29581 29582 29587 29586
8 29277 29278 29283 29282 29582 29583 29588 29587
8 29278 8667 8666 29283 29583 8606 8605 29588
8 2694 29279 29284 2695 2633 29584 29589 2634
8 29279 29280 29285 29284 29584 29585 29590 29589
8 29280 29281 29286 29285 29585 29586 29591 29590
8 29281 29282 29287 29286 29586 29587 29592 29591
8 29282 29283 29288 29287 29587 29588 29593 29592
8 29283 8666 8665 29288 29588 8605 8604 29593
8 2695 29284 29289 2696 2634 29589 29594 2635
8 29284 29285 29290 29289 29589 29590 29595 29594
8 29285 29286 29291 29290 29590 29591 29596 29595
8 29286 29287 29292 29291 29591 29592 29597 29596
8 29287 29288 29293 29292 29592 29593 29598 29597
8 29288 8665 8664 29293 29593 8604 8603 29598
8 2696 29289 29294 2697 2635 29594 29599 2636
8 29289 29290 29295 29294 29594 29595 29600 29599
8 29290 29291 29296 29295 29595 29596 29601 29600
8 29291 29292 29297 29296 29596 29597 29602 29601
8 29292 29293 29298 29297 29597 29598 29603 29602
8 29293 8664 8663 29298 29598 8603 8602 29603
8 2697 29294 29299 2698 2636 29599 29604 2637
8 29294 29295 29300 29299 29599 29600 29605 29604
8 29295 29296 29301 29300 29600 29601 29606 29605
8 29296 29297 29302 29301 29601 29602 29607 29606
8 29297 29298 29303 29302 29602 29603 29608 29607
8 29298 8663 8662 29303 29603 8602 8601 29608
8 2698 29299 29304 2699 2637 29604 29609 2638
8 29299 29300 29305 29304 29604 29605 29610 29609
8 29300 29301 29306 29305 29605 29606 29611 29610
8 29301 29302 29307 29306 29606 29607 29612 29611
8 29302 29303 29308 29307 29607 29608 29613 29612
8 29303 8662 8661 29308 29608 8601 8600 29613
8 2699 29304 29309 2700 2638 29609 29614 2639
8 29304 29305 29310 29309 29609 29610 29615 29614
8 29305 29306 29311 29310 29610 29611 29616 29615
8 29306 29307 29312 29311 29611 29612 29617 29616
8 29307 29308 29313 29312 29612 29613 29618 29617
8 29308 8661 8660 29313 29613 8600 8599 29618
8 2700 29309 29314 2701 2639 29614 29619 2640
8 29309 29310 29315 29314 29614 29615 29620 29619
8 29310 29311 29316 29315 29615 29616 29621 29620
8 29311 29312 29317 29316 29616 29617 29622 29621
8 29312 29313 29318 29317 29617 29618 29623 29622
8 29313 8660 8659 29318 29618 8599 8598 29623
8 2701 29314 29319 2702 2640 29619 29624 2641
8 29314 29315 29320 29319 29619 29620 29625 29624
8 29315 29316 29321 29320 29620 29621 29626 29625
8 29316 29317 29322 29321 29621 29622 29627 29626
8 29317 29318 29323 29322 29622 29623 29628 29627
8 29318 8659 8658 29323 29623 8598 8597 29628
8 2702 29319 29324 2703 2641 29624 29629 2642
8 29319 29320 29325 29324 29624 29625 29630 29629
8 29320 29321 29326 29325 29625 29626 29631 29630
8 29321 29322 29327 29326 29626 29627 29632 29631
8 29322 29323 29328 29327 29627 29628 29633 29632
8 29323 8658 8657 29328 29628 8597 8596 29633
8 2703 29324 29329 2704 2642 29629 29634 2643
8 29324 29325 29330 29329 29629 29630 29635 29634
8 29325 29326 29331 29330 29630 29631 29636 29635
8 29326 29327 29332 29331 29631 29632 29637 29636
8 29327 29328 29333 29332 29632 29633 29638 29637
8 29328 8657 8656 29333 29633 8596 8595 29638
8 2704 29329 29334 2705 2643 29634 29639 2644
8 29329 29330 29335 29334 29634 29635 29640 29639
8 29330 29331 29336 29335 29635 29636 29641 29640
8 29331 29332 29337 29336 29636 29637 29642 29641
8 29332 29333 29338 29337 29637 29638 29643 29642
8 29333 8656 8655 29338 29638 8595 8594 29643
8 2705 29334 29339 2706 2644 29639 29644 2645
8 29334 29335 29340 29339 29639 29640 29645 29644
8 29335 29336 29341 29340 29640 29641 29646 29645
8 29336 29337 29342 29341 29641 29642 29647 29646
8 29337 29338 29343 29342 29642 29643 29648 29647
8 29338 8655 8654 29343 29643 8594 8593 29648
8 2706 29339 29344 2707 2645 29644 29649 2646
8 29339 29340 29345 29344 29644 29645 29650 29649
8 29340 29341 29346 29345 29645 29646 29651 29650
8 29341 29342 29347 29346 29646 29647 29652 29651
8 29342 29343 29348 29347 29647 29648 29653 29652
8 29343 8654 8653 29348 29648 8593 8592 29653
8 2707 29344 29349 2708 2646 29649 29654 2647
8 29344 29345 29350 29349 29649 29650 29655 29654
8 29345 29346 29351 29350 29650 29651 29656 29655
8 29346 29347 29352 29351 29651 29652 29657 29656
8 29347 29348 29353 29352 29652 29653 29658 29657
8 29348 8653 8652 29353 29653 8592 8591 29658
8 2708 29349 29354 2709 2647 29654 29659 2648
8 29349 29350 29355 29354 29654 29655 29660 29659
8 29350 29351 29356 29355 29655 29656 29661 29660
8 29351 29352 29357 29356 29656 29657 29662 29661
8 29352 29353 29358 29357 29657 29658 29663 29662
8 29353 8652 8651 29358 29658 8591 8590 29663
8 2709 29354 29359 2710 2648 29659 29664 2649
8 29354 29355 29360 29359 29659 29660 29665 29664
8 29355 29356 29361 29360 29660 29661 29666 29665
8 29356 29357 29362 29361 29661 29662 29667 29666
8 29357 29358 29363 29362 29662 29663 29668 29667
8 29358 8651 8650 29363 29663 8590 8589 29668
8 2710 29359 29364 2711 2649 29664 29669 2650
8 29359 29360 29365 29364 29664 29665 29670 29669
8 29360 29361 29366 29365 29665 29666 29671 29670
8 29361 29362 29367 29366 29666 29667 29672 29671
8 29362 29363 29368 29367 29667 29668 29673 29672
8 29363 8650 8649 29368 29668 8589 8588 29673
8 2711 29364 29369 2712 2650 29669 29674 2651
8 29364 29365 29370 29369 29669 29670 29675 29674
8 29365 29366 29371 29370 29670 29671 29676 29675
8 29366 29367 29372 29371 29671 29672 29677 29676
8 29367 29368 29373 29372 29672 29673 29678 29677
8 29368 8649 8648 29373 29673 8588 8587 29678
8 2712 29369 29374 2713 2651 29674 29679 2652
8 29369 29370 29375 29374 29674 29675 29680 29679
8 29370 29371 29376 29375 29675 29676 29681 29680
8 29371 29372 29377 29376 29676 29677 29682 29681
8 29372 29373 29378 29377 29677 29678 29683 29682
8 29373 8648 8647 29378 29678 8587 8586 29683
8 2713 29374 29379 2714 2652 29679 29684 2653
8 29374 29375 29380 29379 29679 29680 29685 29684
8 29375 29376 29381 29380 29680 29681 29686 29685
8 29376 29377 29382 29381 29681 29682 29687 29686
8 29377 29378 29383 29382 29682 29683 29688 29687
8 29378 8647 8646 29383 29683 8586 8585 29688
8 2714 29379 29384 2715 2653 29684 29689 2654
8 29379 29380 29385 29384 29684 29685 29690 29689
8 29380 29381 29386 29385 29685 29686 29691 29690
8 29381 29382 29387 29386 29686 29687 29692 29691
8 29382 29383 29388 29387 29687 29688 29693 29692
8 29383 8646 8645 29388 29688 8585 8584 29693
8 2715 29384 29389 2716 2654 29689 29694 2655
8 29384 29385 29390 29389 29689 29690 29695 29694
8 29385 29386 29391 29390 29690 29691 29696 29695
8 29386 29387 29392 29391 29691 29692 29697 29696
8 29387 29388 29393 29392 29692 29693 29698 29697
8 29388 8645 8644 29393 29693 8584 8583 29698
8 2716 29389 29394 2717 2655 29694 29699 2656
8 29389 29390 29395 29394 29694 29695 29700 29699
8 29390 29391 29396 29395 29695 29696 29701 29700
8 29391 29392 29397 29396 29696 29697 29702 29701
8 29392 29393 29398 29397 29697 29698 29703 29702
8 29393 8644 8643 29398 29698 8583 8582 29703
8 2717 29394 29399 2718 2656 29699 29704 2657
8 29394 29395 29400 29399 29699 29700 29705 29704
8 29395 29396 29401 29400 29700 29701 29706 29705
8 29396 29397 29402 29401 29701 29702 29707 29706
8 29397 29398 29403 29402 29702 29703 29708 29707
8 29398 8643 8642 29403 29703 8582 8581 29708
8 2718 29399 29404 2719 2657 29704 29709 2658
8 29399 29400 29405 29404 29704 29705 29710 29709
8 29400 29401 29406 29405 29705 29706 29711 29710
8 29401 29402 29407 29406 29706 29707 29712 29711
8 29402 29403 29408 29407 29707 29708 29713 29712
8 29403 8642 8641 29408 29708 8581 8580 29713
8 2719 29404 29409 2720 2658 29709 29714 2659
8 29404 29405 29410 29409 29709 29710 29715 29714
8 29405 29406 29411 29410 29710 29711 29716 29715
8 29406 29407 29412 29411 29711 29712 29717 29716
8 29407 29408 29413 29412 29712 29713 29718 29717
8 29408 8641 8640 29413 29713 8580 8579 29718
8 2720 29409 29414 2721 2659 29714 29719 2660
8 29409 29410 29415 29414 29714 29715 29720 29719
8 29410 29411 29416 29415 29715 29716 29721 29720
8 29411 29412 29417 29416 29716 29717 29722 29721
8 29412 29413 29418 29417 29717 29718 29723 29722
8 29413 8640 8639 29418 29718 8579 8578 29723
8 2721 29414 29419 2722 2660 29719 29724 2661
8 29414 29415 29420 29419 29719 29720 29725 29724
8 29415 29416 29421 29420 29720 29721 29726 29725
8 29416 29417 29422 29421 29721 29722 29727 29726
8 29417 29418 29423 29422 29722 29723 29728 29727
8 29418 8639 8638 29423 29723 8578 8577 29728
8 2722 29419 29424 2723 2661 29724 29729 2662
8 29419 29420 29425 29424 29724 29725 29730 29729
8 29420 29421 29426 29425 29725 29726 29731 29730
8 29421 29422 29427 29426 29726 29727 29732 29731
8 29422 29423 29428 29427 29727 29728 29733 29732
8 29423 8638 8637 29428 29728 8577 8576 29733
8 2723 29424 29429 2724 2662 29729 29734 2663
8 29424 29425 29430 29429 29729 29730 29735 29734
8 29425 29426 29431 29430 29730 29731 29736 29735
8 29426 29427 29432 29431 29731 29732 29737 29736
8 29427 29428 29433 29432 29732 29733 29738 29737
8 29428 8637 8636 29433 29733 8576 8575 29738
8 2724 29429 29434 2725 2663 29734 29739 2664
8 29429 29430 29435 29434 29734 29735 29740 29739
8 29430 29431 29436 29435 29735 29736 29741 29740
8 29431 29432 29437 29436 29736 29737 29742 29741
8 29432 29433 29438 29437 29737 29738 29743 29742
8 29433 8636 8635 29438 29738 8575 8574 29743
8 2725 29434 29439 2726 2664 29739 29744 2665
8 29434 29435 29440 29439 29739 29740 29745 29744
8 29435 29436 29441 29440 29740 29741 29746 29745
8 29436 29437 29442 29441 29741 29742 29747 29746
8 29437 29438 29443 29442 29742 29743 29748 29747
8 29438 8635 8634 29443 29743 8574 8573 29748
8 2726 29439 29444 2727 2665 29744 29749 2666
8 29439 29440 29445 29444 29744 29745 29750 29749
8 29440 29441 29446 29445 29745 29746 29751 29750
8 29441 29442 29447 29446 29746 29747 29752 29751
8 29442 29443 29448 29447 29747 29748 29753 29752
8 29443 8634 8633 29448 29748 8573 8572 29753
8 2727 29444 29449 2728 2666 29749 29754 2667
8 29444 29445 29450 29449 29749 29750 29755 29754
8 29445 29446 29451 29450 29750 29751 29756 29755
8 29446 29447 29452 29451 29751 29752 29757 29756
8 29447 29448 29453 29452 29752 29753 29758 29757
8 29448 8633 8632 29453 29753 8572 8571 29758
8 2728 29449 29454 2729 2667 29754 29759 2668
8 29449 29450 29455 29454 29754 29755 29760 29759
8 29450 29451 29456 29455 29755 29756 29761 29760
8 29451 29452 29457 29456 29756 29757 29762 29761
8 29452 29453 29458 29457 29757 29758 29763 29762
8 29453 8632 8631 29458 29758 8571 8570 29763
8 2729 29454 29459 2730 2668 29759 29764 2669
8 29454 29455 29460 29459 29759 29760 29765 29764
8 29455 29456 29461 29460 29760 29761 29766 29765
8 29456 29457 29462 29461 29761 29762 29767 29766
8 29457 29458 29463 29462 29762 29763 29768 29767
8 29458 8631 8630 29463 29763 8570 8569 29768
8 2730 29459 29464 2731 2669 29764 29769 2670
8 29459 29460 29465 29464 29764 29765 29770 29769
8 29460 29461 29466 29465 29765 29766 29771 29770
8 29461 29462 29467 29466 29766 29767 29772 29771
8 29462 29463 29468 29467 29767 29768 29773 29772
8 29463 8630 8629 29468 29768 8569 8568 29773
8 2731 29464 29469 2732 2670 29769 29774 2671
8 29464 29465 29470 29469 29769 29770 29775 29774
8 29465 29466 29471 29470 29770 29771 29776 29775
8 29466 29467 29472 29471 29771 29772 29777 29776
8 29467 29468 29473 29472 29772 29773 29778 29777
8 29468 8629 8628 29473 29773 8568 8567 29778
8 2732 29469 29474 2733 2671 29774 29779 2672
8 29469 29470 29475 29474 29774 29775 29780 29779
8 29470 29471 29476 29475 29775 29776 29781 29780
8 29471 29472 29477 29476 29776 29777 29782 29781
8 29472 29473 29478 29477 29777 29778 29783 29782
8 29473 8628 8627 29478 29778 8567 8566 29783
8 29474 29475 29480 29479 29779 29780 29785 29784
8 29475 29476 29481 29480 29780 29781 29786 29785
8 29476 29477 29482 29481 29781 29782 29787 29786
8 29477 29478 29483 29482 29782 29783 29788 29787
8 29478 8627 8626 29483 29783 8566 8565 29788
8 29479 29480 29485 29484 29784 29785 29790 29789
8 29480 29481 29486 29485 29785 29786 29791 29790
8 29481 29482 29487 29486 29786 29787 29792 29791
8 29482 29483 29488 29487 29787 29788 29793 29792
8 29483 8626 8625 29488 29788 8565 8564 29793
8 29484 29485 29490 29489 29789 29790 29795 29794
8 29485 29486 29491 29490 29790 29791 29796 29795
8 29486 29487 29492 29491 29791 29792 29797 29796
8 29487 29488 29493 29492 29792 29793 29798 29797
8 29488 8625 8624 29493 29793 8564 8563 29798
8 2736 29489 29494 2737 2675 29794 29799 2676
8 29489 29490 29495 29494 29794 29795 29800 29799
8 29490 29491 29496 29495 29795 29796 29801 29800
8 29491 29492 29497 29496 29796 29797 29802 29801
8 29492 29493 29498 29497 29797 29798 29803 29802
8 29493 8624 8623 29498 29798 8563 8562 29803
8 2737 29494 29499 2738 2676 29799 29804 2677
8 29494 29495 29500 29499 29799 29800 29805 29804
8 29495 29496 29501 29500 29800 29801 29806 29805
8 29496 29497 29502 29501 29801 29802 29807 29806
8 29497 29498 29503 29502 29802 29803 29808 29807
8 29498 8623 8622 29503 29803 8562 8561 29808
8 2738 29499 29504 2739 2677 29804 29809 2678
8 29499 29500 29505 29504 29804 29805 29810 29809
8 29500 29501 29506 29505 29805 29806 29811 29810
8 29501 29502 29507 29506 29806 29807 29812 29811
8 29502 29503 29508 29507 29807 29808 29813 29812
8 29503 8622 8621 29508 29808 8561 8560 29813
8 29504 29505 29510 29509 29809 29810 29815 29814
8 29505 29506 29511 29510 29810 29811 29816 29815
8 29506 29507 29512 29511 29811 29812 29817 29816
8 29507 29508 29513 29512 29812 29813 29818 29817
8 29508 8621 8620 29513 29813 8560 8559 29818
8 29509 29510 29515 29514 29814 29815 29820 29819
8 29510 29511 29516 29515 29815 29816 29821 29820
8 29511 29512 29517 29516 29816 29817 29822 29821
8 29512 29513 29518 29517 29817 29818 29823 29822
8 29513 8620 8619 29518 29818 8559 8558 29823
8 29514 29515 29520 29519 29819 29820 29825 29824
8 29515 29516 29521 29520 29820 29821 29826 29825
8 29516 29517 29522 29521 29821 29822 29827 29826
8 29517 29518 29523 29522 29822 29823 29828 29827
8 29518 8619 8618 29523 29823 8558 8557 29828
8 2742 29519 29524 2743 2681 29824 29829 2682
8 29519 29520 29525 29524 29824 29825 29830 29829
8 29520 29521 29526 29525 29825 29826 29831 29830
8 29521 29522 29527 29526 29826 29827 29832 29831
8 29522 29523 29528 29527 29827 29828 29833 29832
8 29523 8618 8617 29528 29828 8557 8556 29833
8 2743 29524 29529 2744 2682 29829 29834 2683
8 29524 29525 29530 29529 29829 29830 29835 29834
8 29525 29526 29531 29530 29830 29831 29836 29835
8 29526 29527 29532 29531 29831 29832 29837 29836
8 29527 29528 29533 29532 29832 29833 29838 29837
8 29528 8617 8616 29533 29833 8556 8555 29838
8 2744 29529 29534 2745 2683 29834 29839 2684
8 29529 29530 29535 29534 29834 29835 29840 29839
8 29530 29531 29536 29535 29835 29836 29841 29840
8 29531 29532 29537 29536 29836 29837 29842 29841
8 29532 29533 29538 29537 29837 29838 29843 29842
8 29533 8616 8615 29538 29838 8555 8554 29843
8 29534 29535 29540 29539 29839 29840 29845 29844
8 29535 29536 29541 29540 29840 29841 29846 29845
8 29536 29537 29542 29541 29841 29842 29847 29846
8 29537 29538 29543 29542 29842 29843 29848 29847
8 29538 8615 8614 29543 29843 8554 8553 29848
8 29539 29540 29545 29544 29844 29845 29850 29849
8 29540 29541 29546 29545 29845 29846 29851 29850
8 29541 29542 29547 29546 29846 29847 29852 29851
8 29542 29543 29548 29547 29847 29848 29853 29852
8 29543 8614 8613 29548 29848 8553 8552 29853
8 29544 29545 29550 29549 29849 29850 29855 29854
8 29545 29546 29551 29550 29850 29851 29856 29855
8 29546 29547 29552 29551 29851 29852 29857 29856
8 29547 29548 29553 29552 29852 29853 29858 29857
8 29548 8613 8612 29553 29853 8552 8551 29858
8 2748 29549 29554 2749 2687 29854 29859 2688
8 29549 29550 29555 29554 29854 29855 29860 29859
8 29550 29551 29556 29555 29855 29856 29861 29860
8 29551 29552 29557 29556 29856 29857 29862 29861
8 29552 29553 29558 29557 29857 29858 29863 29862
8 29553 8612 8611 29558 29858 8551 8550 29863
8 2749 29554 12824 103 2688 29859 12819 102
8 29554 29555 12825 12824 29859 29860 12820 12819
8 29555 29556 12826 12825 29860 29861 12821 12820
8 29556 29557 12827 12826 29861 29862 12822 12821
8 29557 29558 12828 12827 29862 29863 12823 12822
8 29558 8611 6192 12828 29863 8550 6193 12823
8 271 12119 29559 2628 272 12124 29864 2567
8 12119 12120 29560 29559 12124 12125 29865 29864
8 12120 12121 29561 29560 12125 12126 29866 29865
8 12121 12122 29562 29561 12126 12127 29867 29866
8 12122 12123 29563 29562 12127 12128 29868 29867
8 12123 6024 8610 29563 12128 6023 8549 29868
8 2628 29559 29564 2629 2567 29864 29869 2568
8 29559 29560 29565 29564 29864 29865 29870 29869
8 29560 29561 29566 29565 29865 29866 29871 29870
8 29561 29562 29567 29566 29866 29867 29872 29871
8 29562 29563 29568 29567 29867 29868 29873 29872
8 29563 8610 8609 29568 29868 8549 8548 29873
8 2629 29564 29569 2630 2568 29869 29874 2569
8 29564 29565 29570 29569 29869 29870 29875 29874
8 29565 29566 29571 29570 29870 29871 29876 29875
8 29566 29567 29572 29571 29871 29872 29877 29876
8 29567 29568 29573 29572 29872 29873 29878 29877
8 29568 8609 8608 29573 29873 8548 8547 29878
8 2630 29569 29574 2631 2569 29874 29879 2570
8 29569 29570 29575 29574 29874 29875 29880 29879
8 29570 29571 29576 29575 29875 29876 29881 29880
8 29571 29572 29577 29576 29876 29877 29882 29881
8 29572 29573 29578 29577 29877 29878 29883 29882
8 29573 8608 8607 29578 29878 8547 8546 29883
8 2631 29574 29579 2632 2570 29879 29884 2571
8 29574 29575 29580 29579 29879 29880 29885 29884
8 29575 29576 29581 29580 29880 29881 29886 29885
8 29576 29577 29582 29581 29881 29882 29887 29886
8 29577 29578 29583 29582 29882 29883 29888 29887
8 29578 8607 8606 29583 29883 8546 8545 29888
8 2632 29579 29584 2633 2571 29884 29889 2572
8 29579 29580 29585 29584 29884 29885 29890 29889
8 29580 29581 29586 29585 29885 29886 29891 29890
8 29581 29582 29587 29586 29886 29887 29892 29891
8 29582 29583 29588 29587 29887 29888 29893 29892
8 29583 8606 8605 29588 29888 8545 8544 29893
8 2633 29584 29589 2634 2572 29889 29894 2573
8 29584 29585 29590 29589 29889 29890 29895 29894
8 29585 29586 29591 29590 29890 29891 29896 29895
8 29586 29587 29592 29591 29891 29892 29897 29896
8 29587 29588 29593 29592 29892 29893 29898 29897
8 29588 8605 8604 29593 29893 8544 8543 29898
8 2634 29589 29594 2635 2573 29894 29899 2574
8 29589 29590 29595 29594 29894 29895 29900 29899
8 29590 29591 29596 29595 29895 29896 29901 29900
8 29591 29592 29597 29596 29896 29897 29902 29901
8 29592 29593 29598 29597 29897 29898 29903 29902
8 29593 8604 8603 29598 29898 8543 8542 29903
8 2635 29594 29599 2636 2574 29899 29904 2575
8 29594 29595 29600 29599 29899 29900 29905 29904
8 29595 29596 29601 29600 29900 29901 29906 29905
8 29596 29597 29602 29601 29901 29902 29907 29906
8 29597 29598 29603 29602 29902 29903 29908 29907
8 29598 8603 8602 29603 29903 8542 8541 29908
8 2636 29599 29604 2637 2575 29904 29909 2576
8 29599 29600 29605 29604 29904 29905 29910 29909
8 29600 29601 29606 29605 29905 29906 29911 29910
8 29601 29602 29607 29606 29906 29907 29912 29911
8 29602 29603 29608 29607 29907 29908 29913 29912
8 29603 8602 8601 29608 29908 8541 8540 29913
8 2637 29604 29609 2638 2576 29909 29914 2577
8 29604 29605 29610 29609 29909 29910 29915 29914
8 29605 29606 29611 29610 29910 29911 29916 29915
8 29606 29607 29612 29611 29911 29912 29917 29916
8 29607 29608 29613 29612 29912 29913 29918 29917
8 29608 8601 8600 29613 29913 8540 8539 29918
8 2638 29609 29614 2639 2577 29914 29919 2578
8 29609 29610 29615 29614 29914 29915 29920 29919
8 29610 29611 29616 29615 29915 29916 29921 29920
8 29611 29612 29617 29616 29916 29917 29922 29921
8 29612 29613 29618 29617 29917 29918 29923 29922
8 29613 8600 8599 29618 29918 8539 8538 29923
8 2639 29614 29619 2640 2578 29919 29924 2579
8 29614 29615 29620 29619 29919 29920 29925 29924
8 29615 29616 29621 29620 29920 29921 29926 29925
8 29616 29617 29622 29621 29921 29922 29927 29926
8 29617 29618 29623 29622 29922 29923 29928 29927
8 29618 8599 8598 29623 29923 8538 8537 29928
8 2640 29619 29624 2641 2579 29924 29929 2580
8 29619 29620 29625 29624 29924 29925 29930 29929
8 29620 29621 29626 29625 29925 29926 29931 29930
8 29621 29622 29627 29626 29926 29927 29932 29931
8 29622 29623 29628 29627 29927 29928 29933 29932
8 29623 8598 8597 29628 29928 8537 8536 29933
8 2641 29624 29629 2642 2580 29929 29934 2581
8 29624 29625 29630 29629 29929 29930 29935 29934
8 29625 29626 29631 29630 29930 29931 29936 29935
8 29626 29627 29632 29631 29931 29932 29937 29936
8 29627 29628 29633 29632 29932 29933 29938 29937
8 29628 8597 8596 29633 29933 8536 8535 29938
8 2642 29629 29634 2643 2581 29934 29939 2582
8 29629 29630 29635 29634 29934 29935 29940 29939
8 29630 29631 29636 29635 29935 29936 29941 29940
8 29631 29632 29637 29636 29936 29937 29942 29941
8 29632 29633 29638 29637 29937 29938 29943 29942
8 29633 8596 8595 29638 29938 8535 8534 29943
8 2643 29634 29639 2644 2582 29939 29944 2583
8 29634 29635 29640 29639 29939 29940 29945 29944
8 29635 29636 29641 29640 29940 29941 29946 29945
8 29636 29637 29642 29641 29941 29942 29947 29946
8 29637 29638 29643 29642 29942 29943 29948 29947
8 29638 8595 8594 29643 29943 8534 8533 29948
8 2644 29639 29644 2645 2583 29944 29949 2584
8 29639 29640 29645 29644 29944 29945 29950 29949
8 29640 29641 29646 29645 29945 29946 29951 29950
8 29641 29642 29647 29646 29946 29947 29952 29951
8 29642 29643 29648 29647 29947 29948 29953 29952
8 29643 8594 8593 29648 29948 8533 8532 29953
8 2645 29644 29649 2646 2584 29949 29954 2585
8 29644 29645 29650 29649 29949 29950 29955 29954
8 29645 29646 29651 29650 29950 29951 29956 29955
8 29646 29647 29652 29651 29951 29952 29957 29956
8 29647 29648 29653 29652 29952 29953 29958 29957
8 29648 8593 8592 29653 29953 8532 8531 29958
8 2646 29649 29654 2647 2585 29954 29959 2586
8 29649 29650 29655 29654 29954 29955 29960 29959
8 29650 29651 29656 29655 29955 29956 29961 29960
8 29651 29652 29657 29656 29956 29957 29962 29961
8 29652 29653 29658 29657 29957 29958 29963 29962
8 29653 8592 8591 29658 29958 8531 8530 29963
8 2647 29654 29659 2648 2586 29959 29964 2587
8 29654 29655 29660 29659 29959 29960 29965 29964
8 29655 29656 29661 29660 29960 29961 29966 29965
8 29656 29657 29662 29661 29961 29962 29967 29966
8 29657 29658 29663 29662 29962 29963 29968 29967
8 29658 8591 8590 29663 29963 8530 8529 29968
8 2648 29659 29664 2649 2587 29964 29969 2588
8 29659 29660 29665 29664 29964 29965 29970 29969
8 29660 29661 29666 29665 29965 29966 29971 29970
8 29661 29662 29667 29666 29966 29967 29972 29971
8 29662 29663 29668 29667 29967 29968 29973 29972
8 29663 8590 8589 29668 29968 8529 8528 29973
8 2649 29664 29669 2650 2588 29969 29974 2589
8 29664 29665 29670 29669 29969 29970 29975 29974
8 29665 29666 29671 29670 29970 29971 29976 29975
8 29666 29667 29672 29671 29971 29972 29977 29976
8 29667 29668 29673 29672 29972 29973 29978 29977
8 29668 8589 8588 29673 29973 8528 8527 29978
8 2650 29669 29674 2651 2589 29974 29979 2590
8 29669 29670 29675 29674 29974 29975 29980 29979
8 29670 29671 29676 29675 29975 29976 29981 29980
8 29671 29672 29677 29676 29976 29977 29982 29981
8 29672 29673 29678 29677 29977 29978 29983 29982
8 29673 8588 8587 29678 29978 8527 8526 29983
8 2651 29674 29679 2652 2590 29979 29984 2591
8 29674 29675 29680 29679 29979 29980 29985 29984
8 29675 29676 29681 29680 29980 29981 29986 29985
8 29676 29677 29682 29681 29981 29982 29987 29986
8 29677 29678 29683 29682 29982 29983 29988 29987
8 29678 8587 8586 29683 29983 8526 8525 29988
8 2652 29679 29684 2653 2591 29984 29989 2592
8 29679 29680 29685 29684 29984 29985 29990 29989
8 29680 29681 29686 29685 29985 29986 29991 29990
8 29681 29682 29687 29686 29986 29987 29992 29991
8 29682 29683 29688 29687 29987 29988 29993 29992
8 29683 8586 8585 29688 29988 8525 8524 29993
8 2653 29684 29689 2654 2592 29989 29994 2593
8 29684 29685 29690 29689 29989 29990 29995 29994
8 29685 29686 29691 29690 29990 29991 29996 29995
8 29686 29687 29692 29691 29991 29992 29997 29996
8 29687 29688 29693 29692 29992 29993 29998 29997
8 29688 8585 8584 29693 29993 8524 8523 29998
8 2654 29689 29694 2655 2593 29994 29999 2594
8 29689 29690 29695 29694 29994 29995 30000 29999
8 29690 29691 29696 29695 29995 29996 30001 30000
8 29691 29692 29697 29696 29996 29997 30002 30001
8 29692 29693 29698 29697 29997 29998 30003 30002
8 29693 8584 8583 29698 29998 8523 8522 30003
8 2655 29694 29699 2656 2594 29999 30004 2595
8 29694 29695 29700 29699 29999 30000 30005 30004
8 29695 29696 29701 29700 30000 30001 30006 30005
8 29696 29697 29702 29701 30001 30002 30007 30006
8 29697 29698 29703 29702 30002 30003 30008 30007
8 29698 8583 8582 29703 30003 8522 8521 30008
8 2656 29699 29704 2657 2595 30004 30009 2596
8 29699 29700 29705 29704 30004 30005 30010 30009
8 29700 29701 29706 29705 30005 30006 30011 30010
8 29701 29702 29707 29706 30006 30007 30012 30011
8 29702 29703 29708 29707 30007 30008 30013 30012
8 29703 8582 8581 29708 30008 8521 8520 30013
8 2657 29704 29709 2658 2596 30009 30014 2597
8 29704 29705 29710 29709 30009 30010 30015 30014
8 29705 29706 29711 29710 30010 30011 30016 30015
8 29706 29707 29712 29711 30011 30012 30017 30016
8 29707 29708 29713 29712 30012 30013 30018 30017
8 29708 8581 8580 29713 30013 8520 8519 30018
8 2658 29709 29714 2659 2597 30014 30019 2598
8 29709 29710 29715 29714 30014 30015 30020 30019
8 29710 29711 29716 29715 30015 30016 30021 30020
8 29711 29712 29717 29716 30016 30017 30022 30021
8 29712 29713 29718 29717 30017 30018 30023 30022
8 29713 8580 8579 29718 30018 8519 8518 30023
8 2659 29714 29719 2660 2598 30019 30024 2599
8 29714 29715 29720 29719 30019 30020 30025 30024
8 29715 29716 29721 29720 30020 30021 30026 30025
8 29716 29717 29722 29721 30021 30022 30027 30026
8 29717 29718 29723 29722 30022 30023 30028 30027
8 29718 8579 8578 29723 30023 8518 8517 30028
8 2660 29719 29724 2661 2599 30024 30029 2600
8 29719 29720 29725 29724 30024 30025 30030 30029
8 29720 29721 29726 29725 30025 30026 30031 30030
8 29721 29722 29727 29726 30026 30027 30032 30031
8 29722 29723 29728 29727 30027 30028 30033 30032
8 29723 8578 8577 29728 30028 8517 8516 30033
8 2661 29724 29729 2662 2600 30029 30034 2601
8 29724 29725 29730 29729 30029 30030 30035 30034
8 29725 29726 29731 29730 30030 30031 30036 30035
8 29726 29727 29732 29731 30031 30032 30037 30036
8 29727 29728 29733 29732 30032 30033 30038 30037
8 29728 8577 8576 29733 30033 8516 8515 30038
8 2662 29729 29734 2663 2601 30034 30039 2602
8 29729 29730 29735 29734 30034 30035 30040 30039
8 29730 29731 29736 29735 30035 30036 30041 30040
8 29731 29732 29737 29736 30036 30037 30042 30041
8 29732 29733 29738 29737 30037 30038 30043 30042
8 29733 8576 8575 29738 30038 8515 8514 30043
8 2663 29734 29739 2664 2602 30039 30044 2603
8 29734 29735 29740 29739 30039 30040 30045 30044
8 29735 29736 29741 29740 30040 30041 30046 30045
8 29736 29737 29742 29741 30041 30042 30047 30046
8 29737 29738 29743 29742 30042 30043 30048 30047
8 29738 8575 8574 29743 30043 8514 8513 30048
8 2664 29739 29744 2665 2603 30044 30049 2604
8 29739 29740 29745 29744 30044 30045 30050 30049
8 29740 29741 29746 29745 30045 30046 30051 30050
8 29741 29742 29747 29746 30046 30047 30052 30051
8 29742 29743 29748 29747 30047 30048 30053 30052
8 29743 8574 8573 29748 30048 8513 8512 30053
8 2665 29744 29749 2666 2604 30049 30054 2605
8 29744 29745 29750 29749 30049 30050 30055 30054
8 29745 29746 29751 29750 30050 30051 30056 30055
8 29746 29747 29752 29751 30051 30052 30057 30056
8 29747 29748 29753 29752 30052 30053 30058 30057
8 29748 8573 8572 29753 30053 8512 8511 30058
8 2666 29749 29754 2667 2605 30054 30059 2606
8 29749 29750 29755 29754 30054 30055 30060 30059
8 29750 29751 29756 29755 30055 30056 30061 30060
8 29751 29752 29757 29756 30056 30057 30062 30061
8 29752 29753 29758 29757 30057 30058 30063 30062
8 29753 8572 8571 29758 30058 8511 8510 30063
8 2667 29754 29759 2668 2606 30059 30064 2607
8 29754 29755 29760 29759 30059 30060 30065 30064
8 29755 29756 29761 29760 30060 30061 30066 30065
8 29756 29757 29762 29761 30061 30062 30067 30066
8 29757 29758 29763 29762 30062 30063 30068 30067
8 29758 8571 8570 29763 30063 8510 8509 30068
8 2668 29759 29764 2669 2607 30064 30069 2608
8 29759 29760 29765 29764 30064 30065 30070 30069
8 29760 29761 29766 29765 30065 30066 30071 30070
8 29761 29762 29767 29766 30066 30067 30072 30071
8 29762 29763 29768 29767 30067 30068 30073 30072
8 29763 8570 8569 29768 30068 8509 8508 30073
8 2669 29764 29769 2670 2608 30069 30074 2609
8 29764 29765 29770 29769 30069 30070 30075 30074
8 29765 29766 29771 29770 30070 30071 30076 30075
8 29766 29767 29772 29771 30071 30072 30077 30076
8 29767 29768 29773 29772 30072 30073 30078 30077
8 29768 8569 8568 29773 30073 8508 8507 30078
8 2670 29769 29774 2671 2609 30074 30079 2610
8 29769 29770 29775 29774 30074 30075 30080 30079
8 29770 29771 29776 29775 30075 30076 30081 30080
8 29771 29772 29777 29776 30076 30077 30082 30081
8 29772 29773 29778 29777 30077 30078 30083 30082
8 29773 8568 8567 29778 30078 8507 8506 30083
8 2671 29774 29779 2672 2610 30079 30084 2611
8 29774 29775 29780 29779 30079 30080 30085 30084
8 29775 29776 29781 29780 30080 30081 30086 30085
8 29776 29777 29782 29781 30081 30082 30087 30086
8 29777 29778 29783 29782 30082 30083 30088 30087
8 29778 8567 8566 29783 30083 8506 8505 30088
8 29779 29780 29785 29784 30084 30085 30090 30089
8 29780 29781 29786 29785 30085 30086 30091 30090
8 29781 29782 29787 29786 30086 30087 30092 30091
8 29782 29783 29788 29787 30087 30088 30093 30092
8 29783 8566 8565 29788 30088 8505 8504 30093
8 29784 29785 29790 29789 30089 30090 30095 30094
8 29785 29786 29791 29790 30090 30091 30096 30095
8 29786 29787 29792 29791 30091 30092 30097 30096
8 29787 29788 29793 29792 30092 30093 30098 30097
8 29788 8565 8564 29793 30093 8504 8503 30098
8 29789 29790 29795 29794 30094 30095 30100 30099
8 29790 29791 29796 29795 30095 30096 30101 30100
8 29791 29792 29797 29796 30096 30097 30102 30101
8 29792 29793 29798 29797 30097 30098 30103 30102
8 29793 8564 8563 29798 30098 8503 8502 30103
8 2675 29794 29799 2676 2614 30099 30104 2615
8 29794 29795 29800 29799 30099 30100 30105 30104
8 29795 29796 29801 29800 30100 30101 30106 30105
8 29796 29797 29802 29801 30101 30102 30107 30106
8 29797 29798 29803 29802 30102 30103 30108 30107
8 29798 8563 8562 29803 30103 8502 8501 30108
8 2676 29799 29804 2677 2615 30104 30109 2616
8 29799 29800 29805 29804 30104 30105 30110 30109
8 29800 29801 29806 29805 30105 30106 30111 30110
8 29801 29802 29807 29806 30106 30107 30112 30111
8 29802 29803 29808 29807 30107 30108 30113 30112
8 29803 8562 8561 29808 30108 8501 8500 30113
8 2677 29804 29809 2678 2616 30109 30114 2617
8 29804 29805 29810 29809 30109 30110 30115 30114
8 29805 29806 29811 29810 30110 30111 30116 30115
8 29806 29807 29812 29811 30111 30112 30117 30116
8 29807 29808 29813 29812 30112 30113 30118 30117
8 29808 8561 8560 29813 30113 8500 8499 30118
8 29809 29810 29815 29814 30114 30115 30120 30119
8 29810 29811 29816 29815 30115 30116 30121 30120
8 29811 29812 29817 29816 30116 30117 30122 30121
8 29812 29813 29818 29817 30117 30118 30123 30122
8 29813 8560 8559 29818 30118 8499 8498 30123
8 29814 29815 29820 29819 30119 30120 30125 30124
8 29815 29816 29821 29820 30120 30121 30126 30125
8 29816 29817 29822 29821 30121 30122 30127 30126
8 29817 29818 29823 29822 30122 30123 30128 30127
8 29818 8559 8558 29823 30123 8498 8497 30128
8 29819 29820 29825 29824 30124 30125 30130 30129
8 29820 29821 29826 29825 30125 30126 30131 30130
8 29821 29822 29827 29826 30126 30127 30132 30131
8 29822 29823 29828 29827 30127 30128 30133 30132
8 29823 8558 8557 29828 30128 8497 8496 30133
8 2681 29824 29829 2682 2620 30129 30134 2621
8 29824 29825 29830 29829 30129 30130 30135 30134
8 29825 29826 29831 29830 30130 30131 30136 30135
8 29826 29827 29832 29831 30131 30132 30137 30136
8 29827 29828 29833 29832 30132 30133 30138 30137
8 29828 8557 8556 29833 30133 8496 8495 30138
8 2682 29829 29834 2683 2621 30134 30139 2622
8 29829 29830 29835 29834 30134 30135 30140 30139
8 29830 29831 29836 29835 30135 30136 30141 30140
8 29831 29832 29837 29836 30136 30137 30142 30141
8 29832 29833 29838 29837 30137 30138 30143 30142
8 29833 8556 8555 29838 30138 8495 8494 30143
8 2683 29834 29839 2684 2622 30139 30144 2623
8 29834 29835 29840 29839 30139 30140 30145 30144
8 29835 29836 29841 29840 30140 30141 30146 30145
8 29836 29837 29842 29841 30141 30142 30147 30146
8 29837 29838 29843 29842 30142 30143 30148 30147
8 29838 8555 8554 29843 30143 8494 8493 30148
8 29839 29840 29845 29844 30144 30145 30150 30149
8 29840 29841 29846 29845 30145 30146 30151 30150
8 29841 29842 29847 29846 30146 30147 30152 30151
8 29842 29843 29848 29847 30147 30148 30153 30152
8 29843 8554 8553 29848 30148 8493 8492 30153
8 29844 29845 29850 29849 30149 30150 30155 30154
8 29845 29846 29851 29850 30150 30151 30156 30155
8 29846 29847 29852 29851 30151 30152 30157 30156
8 29847 29848 29853 29852 30152 30153 30158 30157
8 29848 8553 8552 29853 30153 8492 8491 30158
8 29849 29850 29855 29854 30154 30155 30160 30159
8 29850 29851 29856 29855 30155 30156 30161 30160
8 29851 29852 29857 29856 30156 30157 30162 30161
8 29852 29853 29858 29857 30157 30158 30163 30162
8 29853 8552 8551 29858 30158 8491 8490 30163
8 2687 29854 29859 2688 2626 30159 30164 2627
8 29854 29855 29860 29859 30159 30160 30165 30164
8 29855 29856 29861 29860 30160 30161 30166 30165
8 29856 29857 29862 29861 30161 30162 30167 30166
8 29857 29858 29863 29862 30162 30163 30168 30167
8 29858 8551 8550 29863 30163 8490 8489 30168
8 2688 29859 12819 102 2627 30164 12814 101
8 29859 29860 12820 12819 30164 30165 12815 12814
8 29860 29861 12821 12820 30165 30166 12816 12815
8 29861 29862 12822 12821 30166 30167 12817 12816
8 29862 29863 12823 12822 30167 30168 12818 12817
8 29863 8550 6193 12823 30168 8489 6194 12818
8 272 12124 29864 2567 273 12129 30169 2506
8 12124 12125 29865 29864 12129 12130 30170 30169
8 12125 12126 29866 29865 12130 12131 30171 30170
8 12126 12127 29867 29866 12131 12132 30172 30171
8 12127 12128 29868 29867 12132 12133 30173 30172
8 12128 6023 8549 29868 12133 6022 8488 30173
8 2567 29864 29869 2568 2506 30169 30174 2507
8 29864 29865 29870 29869 30169 30170 30175 30174
8 29865 29866 29871 29870 30170 30171 30176 30175
8 29866 29867 29872 29871 30171 30172 30177 30176
8 29867 29868 29873 29872 30172 30173 30178 30177
8 29868 8549 8548 29873 30173 8488 8487 30178
8 2568 29869 29874 2569 2507 30174 30179 2508
8 29869 29870 29875 29874 30174 30175 30180 30179
8 29870 29871 29876 29875 30175 30176 30181 30180
8 29871 29872 29877 29876 30176 30177 30182 30181
8 29872 29873 29878 29877 30177 30178 30183 30182
8 29873 8548 8547 29878 30178 8487 8486 30183
8 2569 29874 29879 2570 2508 30179 30184 2509
8 29874 29875 29880 29879 30179 30180 30185 30184
8 29875 29876 29881 29880 30180 30181 30186 30185
8 29876 29877 29882 29881 30181 30182 30187 30186
8 29877 29878 29883 29882 30182 30183 30188 30187
8 29878 8547 8546 29883 30183 8486 8485 30188
8 2570 29879 29884 2571 2509 30184 30189 2510
8 29879 29880 29885 29884 30184 30185 30190 30189
8 29880 29881 29886 29885 30185 30186 30191 30190
8 29881 29882 29887 29886 30186 30187 30192 30191
8 29882 29883 29888 29887 30187 30188 30193 30192
8 29883 8546 8545 29888 30188 8485 8484 30193
8 2571 29884 29889 2572 2510 30189 30194 2511
8 29884 29885 29890 29889 30189 30190 30195 30194
8 29885 29886 29891 29890 30190 30191 30196 30195
8 29886 29887 29892 29891 30191 30192 30197 30196
8 29887 29888 29893 29892 30192 30193 30198 30197
8 29888 8545 8544 29893 30193 8484 8483 30198
8 2572 29889 29894 2573 2511 30194 30199 2512
8 29889 29890 29895 29894 30194 30195 30200 30199
8 29890 29891 29896 29895 30195 30196 30201 30200
8 29891 29892 29897 29896 30196 30197 30202 30201
8 29892 29893 29898 29897 30197 30198 30203 30202
8 29893 8544 8543 29898 30198 8483 8482 30203
8 2573 29894 29899 2574 2512 30199 30204 2513
8 29894 29895 29900 29899 30199 30200 30205 30204
8 29895 29896 29901 29900 30200 30201 30206 30205
8 29896 29897 29902 29901 30201 30202 30207 30206
8 29897 29898 29903 29902 30202 30203 30208 30207
8 29898 8543 8542 29903 30203 8482 8481 30208
8 2574 29899 29904 2575 2513 30204 30209 2514
8 29899 29900 29905 29904 30204 30205 30210 30209
8 29900 29901 29906 29905 30205 30206 30211 30210
8 29901 29902 29907 29906 30206 30207 30212 30211
8 29902 29903 29908 29907 30207 30208 30213 30212
8 29903 8542 8541 29908 30208 8481 8480 30213
8 2575 29904 29909 2576 2514 30209 30214 2515
8 29904 29905 29910 29909 30209 30210 30215 30214
8 29905 29906 29911 29910 30210 30211 30216 30215
8 29906 29907 29912 29911 30211 30212 30217 30216
8 29907 29908 29913 29912 30212 30213 30218 30217
8 29908 8541 8540 29913 30213 8480 8479 30218
8 2576 29909 29914 2577 2515 30214 30219 2516
8 29909 29910 29915 29914 30214 30215 30220 30219
8 29910 29911 29916 29915 30215 30216 30221 30220
8 29911 29912 29917 29916 30216 30217 30222 30221
8 29912 29913 29918 29917 30217 30218 30223 30222
8 29913 8540 8539 29918 30218 8479 8478 30223
8 2577 29914 29919 2578 2516 30219 30224 2517
8 29914 29915 29920 29919 30219 30220 30225 30224
8 29915 29916 29921 29920 30220 30221 30226 30225
8 29916 29917 29922 29921 30221 30222 30227 30226
8 29917 29918 29923 29922 30222 30223 30228 30227
8 29918 8539 8538 29923 30223 8478 8477 30228
8 2578 29919 29924 2579 2517 30224 30229 2518
8 29919 29920 29925 29924 30224 30225 30230 30229
8 29920 29921 29926 29925 30225 30226 30231 30230
8 29921 29922 29927 29926 30226 30227 30232 30231
8 29922 29923 29928 29927 30227 30228 30233 30232
8 29923 8538 8537 29928 30228 8477 8476 30233
8 2579 29924 29929 2580 2518 30229 30234 2519
8 29924 29925 29930 29929 30229 30230 30235 30234
8 29925 29926 29931 29930 30230 30231 30236 30235
8 29926 29927 29932 29931 30231 30232 30237 30236
8 29927 29928 29933 29932 30232 30233 30238 30237
8 29928 8537 8536 29933 30233 8476 8475 30238
8 2580 29929 29934 2581 2519 30234 30239 2520
8 29929 29930 29935 29934 30234 30235 30240 30239
8 29930 29931 29936 29935 30235 30236 30241 30240
8 29931 29932 29937 29936 30236 30237 30242 30241
8 29932 29933 29938 29937 30237 30238 30243 30242
8 29933 8536 8535 29938 30238 8475 8474 30243
8 2581 29934 29939 2582 2520 30239 30244 2521
8 29934 29935 29940 29939 30239 30240 30245 30244
8 29935 29936 29941 29940 30240 30241 30246 30245
8 29936 29937 29942 29941 30241 30242 30247 30246
8 29937 29938 29943 29942 30242 30243 30248 30247
8 29938 8535 8534 29943 30243 8474 8473 30248
8 2582 29939 29944 2583 2521 30244 30249 2522
8 29939 29940 29945 29944 30244 30245 30250 30249
8 29940 29941 29946 29945 30245 30246 30251 30250
8 29941 29942 29947 29946 30246 30247 30252 30251
8 29942 29943 29948 29947 30247 30248 30253 30252
8 29943 8534 8533 29948 30248 8473 8472 30253
8 2583 29944 29949 2584 2522 30249 30254 2523
8 29944 29945 29950 29949 30249 30250 30255 30254
8 29945 29946 29951 29950 30250 30251 30256 30255
8 29946 29947 29952 29951 30251 30252 30257 30256
8 29947 29948 29953 29952 30252 30253 30258 30257
8 29948 8533 8532 29953 30253 8472 8471 30258
8 2584 29949 29954 2585 2523 30254 30259 2524
8 29949 29950 29955 29954 30254 30255 30260 30259
8 29950 29951 29956 29955 30255 30256 30261 30260
8 29951 29952 29957 29956 30256 30257 30262 30261
8 29952 29953 29958 29957 30257 30258 30263 30262
8 29953 8532 8531 29958 30258 8471 8470 30263
8 2585 29954 29959 2586 2524 30259 30264 2525
8 29954 29955 29960 29959 30259 30260 30265 30264
8 29955 29956 29961 29960 30260 30261 30266 30265
8 29956 29957 29962 29961 30261 30262 30267 30266
8 29957 29958 29963 29962 30262 30263 30268 30267
8 29958 8531 8530 29963 30263 8470 8469 30268
8 2586 29959 29964 2587 2525 30264 30269 2526
8 29959 29960 29965 29964 30264 30265 30270 30269
8 29960 29961 29966 29965 30265 30266 30271 30270
8 29961 29962 29967 29966 30266 30267 30272 30271
8 29962 29963 29968 29967 30267 30268 30273 30272
8 29963 8530 8529 29968 30268 8469 8468 30273
8 2587 29964 29969 2588 2526 30269 30274 2527
8 29964 29965 29970 29969 30269 30270 30275 30274
8 29965 29966 29971 29970 30270 30271 30276 30275
8 29966 29967 29972 29971 30271 30272 30277 30276
8 29967 29968 29973 29972 30272 30273 30278 30277
8 29968 8529 8528 29973 30273 8468 8467 30278
8 2588 29969 29974 2589 2527 30274 30279 2528
8 29969 29970 29975 29974 30274 30275 30280 30279
8 29970 29971 29976 29975 30275 30276 30281 30280
8 29971 29972 29977 29976 30276 30277 30282 30281
8 29972 29973 29978 29977 30277 30278 30283 30282
8 29973 8528 8527 29978 30278 8467 8466 30283
8 2589 29974 29979 2590 2528 30279 30284 2529
8 29974 29975 29980 29979 30279 30280 30285 30284
8 29975 29976 29981 29980 30280 30281 30286 30285
8 29976 29977 29982 29981 30281 30282 30287 30286
8 29977 29978 29983 29982 30282 30283 30288 30287
8 29978 8527 8526 29983 30283 8466 8465 30288
8 2590 29979 29984 2591 2529 30284 30289 2530
8 29979 29980 29985 29984 30284 30285 30290 30289
8 29980 29981 29986 29985 30285 30286 30291 30290
8 29981 29982 29987 29986 30286 30287 30292 30291
8 29982 29983 29988 29987 30287 30288 30293 30292
8 29983 8526 8525 29988 30288 8465 8464 30293
8 2591 29984 29989 2592 2530 30289 30294 2531
8 29984 29985 29990 29989 30289 30290 30295 30294
8 29985 29986 29991 29990 30290 30291 30296 30295
8 29986 29987 29992 29991 30291 30292 30297 30296
8 29987 29988 29993 29992 30292 30293 30298 30297
8 29988 8525 8524 29993 30293 8464 8463 30298
8 2592 29989 29994 2593 2531 30294 30299 2532
8 29989 29990 29995 29994 30294 30295 30300 30299
8 29990 29991 29996 29995 30295 30296 30301 30300
8 29991 29992 29997 29996 30296 30297 30302 30301
8 29992 29993 29998 29997 30297 30298 30303 30302
8 29993 8524 8523 29998 30298 8463 8462 30303
8 2593 29994 29999 2594 2532 30299 30304 2533
8 29994 29995 30000 29999 30299 30300 30305 30304
8 29995 29996 30001 30000 30300 30301 30306 30305
8 29996 29997 30002 30001 30301 30302 30307 30306
8 29997 29998 30003 30002 30302 30303 30308 30307
8 29998 8523 8522 30003 30303 8462 8461 30308
8 2594 29999 30004 2595 2533 30304 30309 2534
8 29999 30000 30005 30004 30304 30305 30310 30309
8 30000 30001 30006 30005 30305 30306 30311 30310
8 30001 30002 30007 30006 30306 30307 30312 30311
8 30002 30003 30008 30007 30307 30308 30313 30312
8 30003 8522 8521 30008 30308 8461 8460 30313
8 2595 30004 30009 2596 2534 30309 30314 2535
8 30004 30005 30010 30009 30309 30310 30315 30314
8 30005 30006 30011 30010 30310 30311 30316 30315
8 30006 30007 30012 30011 30311 30312 30317 30316
8 30007 30008 30013 30012 30312 30313 30318 30317
8 30008 8521 8520 30013 30313 8460 8459 30318
8 2596 30009 30014 2597 2535 30314 30319 2536
8 30009 30010 30015 30014 30314 30315 30320 30319
8 30010 30011 30016 30015 30315 30316 30321 30320
8 30011 30012 30017 30016 30316 30317 30322 30321
8 30012 30013 30018 30017 30317 30318 30323 30322
8 30013 8520 8519 30018 30318 8459 8458 30323
8 2597 30014 30019 2598 2536 30319 30324 2537
8 30014 30015 30020 30019 30319 30320 30325 30324
8 30015 30016 30021 30020 30320 30321 30326 30325
8 30016 30017 30022 30021 30321 30322 30327 30326
8 30017 30018 30023 30022 30322 30323 30328 30327
8 30018 8519 8518 30023 30323 8458 8457 30328
8 2598 30019 30024 2599 2537 30324 30329 2538
8 30019 30020 30025 30024 30324 30325 30330 30329
8 30020 30021 30026 30025 30325 30326 30331 30330
8 30021 30022 30027 30026 30326 30327 30332 30331
8 30022 30023 30028 30027 30327 30328 30333 30332
8 30023 8518 8517 30028 30328 8457 8456 30333
8 2599 30024 30029 2600 2538 30329 30334 2539
8 30024 30025 30030 30029 30329 30330 30335 30334
8 30025 30026 30031 30030 30330 30331 30336 30335
8 30026 30027 30032 30031 30331 30332 30337 30336
8 30027 30028 30033 30032 30332 30333 30338 30337
8 30028 8517 8516 30033 30333 8456 8455 30338
8 2600 30029 30034 2601 2539 30334 30339 2540
8 30029 30030 30035 30034 30334 30335 30340 30339
8 30030 30031 30036 30035 30335 30336 30341 30340
8 30031 30032 30037 30036 30336 30337 30342 30341
8 30032 30033 30038 30037 30337 30338 30343 30342
8 30033 8516 8515 30038 30338 8455 8454 30343
8 2601 30034 30039 2602 2540 30339 30344 2541
8 30034 30035 30040 30039 30339 30340 30345 30344
8 30035 30036 30041 30040 30340 30341 30346 30345
8 30036 30037 30042 30041 30341 30342 30347 30346
8 30037 30038 30043 30042 30342 30343 30348 30347
8 30038 8515 8514 30043 30343 8454 8453 30348
8 2602 30039 30044 2603 2541 30344 30349 2542
8 30039 30040 30045 30044 30344 30345 30350 30349
8 30040 30041 30046 30045 30345 30346 30351 30350
8 30041 30042 30047 30046 30346 30347 30352 30351
8 30042 30043 30048 30047 30347 30348 30353 30352
8 30043 8514 8513 30048 30348 8453 8452 30353
8 2603 30044 30049 2604 2542 30349 30354 2543
8 30044 30045 30050 30049 30349 30350 30355 30354
8 30045 30046 30051 30050 30350 30351 30356 30355
8 30046 30047 30052 30051 30351 30352 30357 30356
8 30047 30048 30053 30052 30352 30353 30358 30357
8 30048 8513 8512 30053 30353 8452 8451 30358
8 2604 30049 30054 2605 2543 30354 30359 2544
8 30049 30050 30055 30054 30354 30355 30360 30359
8 30050 30051 30056 30055 30355 30356 30361 30360
8 30051 30052 30057 30056 30356 30357 30362 30361
8 30052 30053 30058 30057 30357 30358 30363 30362
8 30053 8512 8511 30058 30358 8451 8450 30363
8 2605 30054 30059 2606 2544 30359 30364 2545
8 30054 30055 30060 30059 30359 30360 30365 30364
8 30055 30056 30061 30060 30360 30361 30366 30365
8 30056 30057 30062 30061 30361 30362 30367 30366
8 30057 30058 30063 30062 30362 30363 30368 30367
8 30058 8511 8510 30063 30363 8450 8449 30368
8 2606 30059 30064 2607 2545 30364 30369 2546
8 30059 30060 30065 30064 30364 30365 30370 30369
8 30060 30061 30066 30065 30365 30366 30371 30370
8 30061 30062 30067 30066 30366 30367 30372 30371
8 30062 30063 30068 30067 30367 30368 30373 30372
8 30063 8510 8509 30068 30368 8449 8448 30373
8 2607 30064 30069 2608 2546 30369 30374 2547
8 30064 30065 30070 30069 30369 30370 30375 30374
8 30065 30066 30071 30070 30370 30371 30376 30375
8 30066 30067 30072 30071 30371 30372 30377 30376
8 30067 30068 30073 30072 30372 30373 30378 30377
8 30068 8509 8508 30073 30373 8448 8447 30378
8 2608 30069 30074 2609 2547 30374 30379 2548
8 30069 30070 30075 30074 30374 30375 30380 30379
8 30070 30071 30076 30075 30375 30376 30381 30380
8 30071 30072 30077 30076 30376 30377 30382 30381
8 30072 30073 30078 30077 30377 30378 30383 30382
8 30073 8508 8507 30078 30378 8447 8446 30383
8 2609 30074 30079 2610 2548 30379 30384 2549
8 30074 30075 30080 30079 30379 30380 30385 30384
8 30075 30076 30081 30080 30380 30381 30386 30385
8 30076 30077 30082 30081 30381 30382 30387 30386
8 30077 30078 30083 30082 30382 30383 30388 30387
8 30078 8507 8506 30083 30383 8446 8445 30388
8 2610 30079 30084 2611 2549 30384 30389 2550
8 30079 30080 30085 30084 30384 30385 30390 30389
8 30080 30081 30086 30085 30385 30386 30391 30390
8 30081 30082 30087 30086 30386 30387 30392 30391
8 30082 30083 30088 30087 30387 30388 30393 30392
8 30083 8506 8505 30088 30388 8445 8444 30393
8 30084 30085 30090 30089 30389 30390 30395 30394
8 30085 30086 30091 30090 30390 30391 30396 30395
8 30086 30087 30092 30091 30391 30392 30397 30396
8 30087 30088 30093 30092 30392 30393 30398 30397
8 30088 8505 8504 30093 30393 8444 8443 30398
8 30089 30090 30095 30094 30394 30395 30400 30399
8 30090 30091 30096 30095 30395 30396 30401 30400
8 30091 30092 30097 30096 30396 30397 30402 30401
8 30092 30093 30098 30097 30397 30398 30403 30402
8 30093 8504 8503 30098 30398 8443 8442 30403
8 30094 30095 30100 30099 30399 30400 30405 30404
8 30095 30096 30101 30100 30400 30401 30406 30405
8 30096 30097 30102 30101 30401 30402 30407 30406
8 30097 30098 30103 30102 30402 30403 30408 30407
8 30098 8503 8502 30103 30403 8442 8441 30408
8 2614 30099 30104 2615 2553 30404 30409 2554
8 30099 30100 30105 30104 30404 30405 30410 30409
8 30100 30101 30106 30105 30405 30406 30411 30410
8 30101 30102 30107 30106 30406 30407 30412 30411
8 30102 30103 30108 30107 30407 30408 30413 30412
8 30103 8502 8501 30108 30408 8441 8440 30413
8 2615 30104 30109 2616 2554 30409 30414 2555
8 30104 30105 30110 30109 30409 30410 30415 30414
8 30105 30106 30111 30110 30410 30411 30416 30415
8 30106 30107 30112 30111 30411 30412 30417 30416
8 30107 30108 30113 30112 30412 30413 30418 30417
8 30108 8501 8500 30113 30413 8440 8439 30418
8 2616 30109 30114 2617 2555 30414 30419 2556
8 30109 30110 30115 30114 30414 30415 30420 30419
8 30110 30111 30116 30115 30415 30416 30421 30420
8 30111 30112 30117 30116 30416 30417 30422 30421
8 30112 30113 30118 30117 30417 30418 30423 30422
8 30113 8500 8499 30118 30418 8439 8438 30423
8 30114 30115 30120 30119 30419 30420 30425 30424
8 30115 30116 30121 30120 30420 30421 30426 30425
8 30116 30117 30122 30121 30421 30422 30427 30426
8 30117 30118 30123 30122 30422 30423 30428 30427
8 30118 8499 8498 30123 30423 8438 8437 30428
8 30119 30120 30125 30124 30424 30425 30430 30429
8 30120 30121 30126 30125 30425 30426 30431 30430
8 30121 30122 30127 30126 30426 30427 30432 30431
8 30122 30123 30128 30127 30427 30428 30433 30432
8 30123 8498 8497 30128 30428 8437 8436 30433
8 30124 30125 30130 30129 30429 30430 30435 30434
8 30125 30126 30131 30130 30430 30431 30436 30435
8 30126 30127 30132 30131 30431 30432 30437 30436
8 30127 30128 30133 30132 30432 30433 30438 30437
8 30128 8497 8496 30133 30433 8436 8435 30438
8 2620 30129 30134 2621 2559 30434 30439 2560
8 30129 30130 30135 30134 30434 30435 30440 30439
8 30130 30131 30136 30135 30435 30436 30441 30440
8 30131 30132 30137 30136 30436 30437 30442 30441
8 30132 30133 30138 30137 30437 30438 30443 30442
8 30133 8496 8495 30138 30438 8435 8434 30443
8 2621 30134 30139 2622 2560 30439 30444 2561
8 30134 30135 30140 30139 30439 30440 30445 30444
8 30135 30136 30141 30140 30440 30441 30446 30445
8 30136 30137 30142 30141 30441 30442 30447 30446
8 30137 30138 30143 30142 30442 30443 30448 30447
8 30138 8495 8494 30143 30443 8434 8433 30448
8 2622 30139 30144 2623 2561 30444 30449 2562
8 30139 30140 30145 30144 30444 30445 30450 30449
8 30140 30141 30146 30145 30445 30446 30451 30450
8 30141 30142 30147 30146 30446 30447 30452 30451
8 30142 30143 30148 30147 30447 30448 30453 30452
8 30143 8494 8493 30148 30448 8433 8432 30453
8 30144 30145 30150 30149 30449 30450 30455 30454
8 30145 30146 30151 30150 30450 30451 30456 30455
8 30146 30147 30152 30151 30451 30452 30457 30456
8 30147 30148 30153 30152 30452 30453 30458 30457
8 30148 8493 8492 30153 30453 8432 8431 30458
8 30149 30150 30155 30154 30454 30455 30460 30459
8 30150 30151 30156 30155 30455 30456 30461 30460
8 30151 30152 30157 30156 30456 30457 30462 30461
8 30152 30153 30158 30157 30457 30458 30463 30462
8 30153 8492 8491 30158 30458 8431 8430 30463
8 30154 30155 30160 30159 30459 30460 30465 30464
8 30155 30156 30161 30160 30460 30461 30466 30465
8 30156 30157 30162 30161 30461 30462 30467 30466
8 30157 30158 30163 30162 30462 30463 30468 30467
8 30158 8491 8490 30163 30463 8430 8429 30468
8 2626 30159 30164 2627 2565 30464 30469 2566
8 30159 30160 30165 30164 30464 30465 30470 30469
8 30160 30161 30166 30165 30465 30466 30471 30470
8 30161 30162 30167 30166 30466 30467 30472 30471
8 30162 30163 30168 30167 30467 30468 30473 30472
8 30163 8490 8489 30168 30468 8429 8428 30473
8 2627 30164 12814 101 2566 30469 12809 100
8 30164 30165 12815 12814 30469 30470 12810 12809
8 30165 30166 12816 12815 30470 30471 12811 12810
8 30166 30167 12817 12816 30471 30472 12812 12811
8 30167 30168 12818 12817 30472 30473 12813 12812
8 30168 8489 6194 12818 30473 8428 6195 12813
8 273 12129 30169 2506 274 12134 30474 2445
8 12129 12130 30170 30169 12134 12135 30475 30474
8 12130 12131 30171 30170 12135 12136 30476 30475
8 12131 12132 30172 30171 12136 12137 30477 30476
8 12132 12133 30173 30172 12137 12138 30478 30477
8 12133 6022 8488 30173 12138 6021 8427 30478
8 2506 30169 30174 2507 2445 30474 30479 2446
8 30169 30170 30175 30174 30474 30475 30480 30479
8 30170 30171 30176 30175 30475 30476 30481 30480
8 30171 30172 30177 30176 30476 30477 30482 30481
8 30172 30173 30178 30177 30477 30478 30483 30482
8 30173 8488 8487 30178 30478 8427 8426 30483
8 2507 30174 30179 2508 2446 30479 30484 2447
8 30174 30175 30180 30179 30479 30480 30485 30484
8 30175 30176 30181 30180 30480 30481 30486 30485
8 30176 30177 30182 30181 30481 30482 30487 30486
8 30177 30178 30183 30182 30482 30483 30488 30487
8 30178 8487 8486 30183 30483 8426 8425 30488
8 2508 30179 30184 2509 2447 30484 30489 2448
8 30179 30180 30185 30184 30484 30485 30490 30489
8 30180 30181 30186 30185 30485 30486 30491 30490
8 30181 30182 30187 30186 30486 30487 30492 30491
8 30182 30183 30188 30187 30487 30488 30493 30492
8 30183 8486 8485 30188 30488 8425 8424 30493
8 2509 30184 30189 2510 2448 30489 30494 2449
8 30184 30185 30190 30189 30489 30490 30495 30494
8 30185 30186 30191 30190 30490 30491 30496 30495
8 30186 30187 30192 30191 30491 30492 30497 30496
8 30187 30188 30193 30192 30492 30493 30498 30497
8 30188 8485 8484 30193 30493 8424 8423 30498
8 2510 30189 30194 2511 2449 30494 30499 2450
8 30189 30190 30195 30194 30494 30495 30500 30499
8 30190 30191 30196 30195 30495 30496 30501 30500
8 30191 30192 30197 30196 30496 30497 30502 30501
8 30192 30193 30198 30197 30497 30498 30503 30502
8 30193 8484 8483 30198 30498 8423 8422 30503
8 2511 30194 30199 2512 2450 30499 30504 2451
8 30194 30195 30200 30199 30499 30500 30505 30504
8 30195 30196 30201 30200 30500 30501 30506 30505
8 30196 30197 30202 30201 30501 30502 30507 30506
8 30197 30198 30203 30202 30502 30503 30508 30507
8 30198 8483 8482 30203 30503 8422 8421 30508
8 2512 30199 30204 2513 2451 30504 30509 2452
8 30199 30200 30205 30204 30504 30505 30510 30509
8 30200 30201 30206 30205 30505 30506 30511 30510
8 30201 30202 30207 30206 30506 30507 30512 30511
8 30202 30203 30208 30207 30507 30508 30513 30512
8 30203 8482 8481 30208 30508 8421 8420 30513
8 2513 30204 30209 2514 2452 30509 30514 2453
8 30204 30205 30210 30209 30509 30510 30515 30514
8 30205 30206 30211 30210 30510 30511 30516 30515
8 30206 30207 30212 30211 30511 30512 30517 30516
8 30207 30208 30213 30212 30512 30513 30518 30517
8 30208 8481 8480 30213 30513 8420 8419 30518
8 2514 30209 30214 2515 2453 30514 30519 2454
8 30209 30210 30215 30214 30514 30515 30520 30519
8 30210 30211 30216 30215 30515 30516 30521 30520
8 30211 30212 30217 30216 30516 30517 30522 30521
8 30212 30213 30218 30217 30517 30518 30523 30522
8 30213 8480 8479 30218 30518 8419 8418 30523
8 2515 30214 30219 2516 2454 30519 30524 2455
8 30214 30215 30220 30219 30519 30520 30525 30524
8 30215 30216 30221 30220 30520 30521 30526 30525
8 30216 30217 30222 30221 30521 30522 30527 30526
8 30217 30218 30223 30222 30522 30523 30528 30527
8 30218 8479 8478 30223 30523 8418 8417 30528
8 2516 30219 30224 2517 2455 30524 30529 2456
8 30219 30220 30225 30224 30524 30525 30530 30529
8 30220 30221 30226 30225 30525 30526 30531 30530
8 30221 30222 30227 30226 30526 30527 30532 30531
8 30222 30223 30228 30227 30527 30528 30533 30532
8 30223 8478 8477 30228 30528 8417 8416 30533
8 2517 30224 30229 2518 2456 30529 30534 2457
8 30224 30225 30230 30229 30529 30530 30535 30534
8 30225 30226 30231 30230 30530 30531 30536 30535
8 30226 30227 30232 30231 30531 30532 30537 30536
8 30227 30228 30233 30232 30532 30533 30538 30537
8 30228 8477 8476 30233 30533 8416 8415 30538
8 2518 30229 30234 2519 2457 30534 30539 2458
8 30229 30230 30235 30234 30534 30535 30540 30539
8 30230 30231 30236 30235 30535 30536 30541 30540
8 30231 30232 30237 30236 30536 30537 30542 30541
8 30232 30233 30238 30237 30537 30538 30543 30542
8 30233 8476 8475 30238 30538 8415 8414 30543
8 2519 30234 30239 2520 2458 30539 30544 2459
8 30234 30235 30240 30239 30539 30540 30545 30544
8 30235 30236 30241 30240 30540 30541 30546 30545
8 30236 30237 30242 30241 30541 30542 30547 30546
8 30237 30238 30243 30242 30542 30543 30548 30547
8 30238 8475 8474 30243 30543 8414 8413 30548
8 2520 30239 30244 2521 2459 30544 30549 2460
8 30239 30240 30245 30244 30544 30545 30550 30549
8 30240 30241 30246 30245 30545 30546 30551 30550
8 30241 30242 30247 30246 30546 30547 30552 30551
8 30242 30243 30248 30247 30547 30548 30553 30552
8 30243 8474 8473 30248 30548 8413 8412 30553
8 2521 30244 30249 2522 2460 30549 30554 2461
8 30244 30245 30250 30249 30549 30550 30555 30554
8 30245 30246 30251 30250 30550 30551 30556 30555
8 30246 30247 30252 30251 30551 30552 30557 30556
8 30247 30248 30253 30252 30552 30553 30558 30557
8 30248 8473 8472 30253 30553 8412 8411 30558
8 2522 30249 30254 2523 2461 30554 30559 2462
8 30249 30250 30255 30254 30554 30555 30560 30559
8 30250 30251 30256 30255 30555 30556 30561 30560
8 30251 30252 30257 30256 30556 30557 30562 30561
8 30252 30253 30258 30257 30557 30558 30563 30562
8 30253 8472 8471 30258 30558 8411 8410 30563
8 2523 30254 30259 2524 2462 30559 30564 2463
8 30254 30255 30260 30259 30559 30560 30565 30564
8 30255 30256 30261 30260 30560 30561 30566 30565
8 30256 30257 30262 30261 30561 30562 30567 30566
8 30257 30258 30263 30262 30562 30563 30568 30567
8 30258 8471 8470 30263 30563 8410 8409 30568
8 2524 30259 30264 2525 2463 30564 30569 2464
8 30259 30260 30265 30264 30564 30565 30570 30569
8 30260 30261 30266 30265 30565 30566 30571 30570
8 30261 30262 30267 30266 30566 30567 30572 30571
8 30262 30263 30268 30267 30567 30568 30573 30572
8 30263 8470 8469 30268 30568 8409 8408 30573
8 2525 30264 30269 2526 2464 30569 30574 2465
8 30264 30265 30270 30269 30569 30570 30575 30574
8 30265 30266 30271 30270 30570 30571 30576 30575
8 30266 30267 30272 30271 30571 30572 30577 30576
8 30267 30268 30273 30272 30572 30573 30578 30577
8 30268 8469 8468 30273 30573 8408 8407 30578
8 2526 30269 30274 2527 2465 30574 30579 2466
8 30269 30270 30275 30274 30574 30575 30580 30579
8 30270 30271 30276 30275 30575 30576 30581 30580
8 30271 30272 30277 30276 30576 30577 30582 30581
8 30272 30273 30278 30277 30577 30578 30583 30582
8 30273 8468 8467 30278 30578 8407 8406 30583
8 2527 30274 30279 2528 2466 30579 30584 2467
8 30274 30275 30280 30279 30579 30580 30585 30584
8 30275 30276 30281 30280 30580 30581 30586 30585
8 30276 30277 30282 30281 30581 30582 30587 30586
8 30277 30278 30283 30282 30582 30583 30588 30587
8 30278 8467 8466 30283 30583 8406 8405 30588
8 2528 30279 30284 2529 2467 30584 30589 2468
8 30279 30280 30285 30284 30584 30585 30590 30589
8 30280 30281 30286 30285 30585 30586 30591 30590
8 30281 30282 30287 30286 30586 30587 30592 30591
8 30282 30283 30288 30287 30587 30588 30593 30592
8 30283 8466 8465 30288 30588 8405 8404 30593
8 2529 30284 30289 2530 2468 30589 30594 2469
8 30284 30285 30290 30289 30589 30590 30595 30594
8 30285 30286 30291 30290 30590 30591 30596 30595
8 30286 30287 30292 30291 30591 30592 30597 30596
8 30287 30288 30293 30292 30592 30593 30598 30597
8 30288 8465 8464 30293 30593 8404 8403 30598
8 2530 30289 30294 2531 2469 30594 30599 2470
8 30289 30290 30295 30294 30594 30595 30600 30599
8 30290 30291 30296 30295 30595 30596 30601 30600
8 30291 30292 30297 30296 30596 30597 30602 30601
8 30292 30293 30298 30297 30597 30598 30603 30602
8 30293 8464 8463 30298 30598 8403 8402 30603
8 2531 30294 30299 2532 2470 30599 30604 2471
8 30294 30295 30300 30299 30599 30600 30605 30604
8 30295 30296 30301 30300 30600 30601 30606 30605
8 30296 30297 30302 30301 30601 30602 30607 30606
8 30297 30298 30303 30302 30602 30603 30608 30607
8 30298 8463 8462 30303 30603 8402 8401 30608
8 2532 30299 30304 2533 2471 30604 30609 2472
8 30299 30300 30305 30304 30604 30605 30610 30609
8 30300 30301 30306 30305 30605 30606 30611 30610
8 30301 30302 30307 30306 30606 30607 30612 30611
8 30302 30303 30308 30307 30607 30608 30613 30612
8 30303 8462 8461 30308 30608 8401 8400 30613
8 2533 30304 30309 2534 2472 30609 30614 2473
8 30304 30305 30310 30309 30609 30610 30615 30614
8 30305 30306 30311 30310 30610 30611 30616 30615
8 30306 30307 30312 30311 30611 30612 30617 30616
8 30307 30308 30313 30312 30612 30613 30618 30617
8 30308 8461 8460 30313 30613 8400 8399 30618
8 2534 30309 30314 2535 2473 30614 30619 2474
8 30309 30310 30315 30314 30614 30615 30620 30619
8 30310 30311 30316 30315 30615 30616 30621 30620
8 30311 30312 30317 30316 30616 30617 30622 30621
8 30312 30313 30318 30317 30617 30618 30623 30622
8 30313 8460 8459 30318 30618 8399 8398 30623
8 2535 30314 30319 2536 2474 30619 30624 2475
8 30314 30315 30320 30319 30619 30620 30625 30624
8 30315 30316 30321 30320 30620 30621 30626 30625
8 30316 30317 30322 30321 30621 30622 30627 30626
8 30317 30318 30323 30322 30622 30623 30628 30627
8 30318 8459 8458 30323 30623 8398 8397 30628
8 2536 30319 30324 2537 2475 30624 30629 2476
8 30319 30320 30325 30324 30624 30625 30630 30629
8 30320 30321 30326 30325 30625 30626 30631 30630
8 30321 30322 30327 30326 30626 30627 30632 30631
8 30322 30323 30328 30327 30627 30628 30633 30632
8 30323 8458 8457 30328 30628 8397 8396 30633
8 2537 30324 30329 2538 2476 30629 30634 2477
8 30324 30325 30330 30329 30629 30630 30635 30634
8 30325 30326 30331 30330 30630 30631 30636 30635
8 30326 30327 30332 30331 30631 30632 30637 30636
8 30327 30328 30333 30332 30632 30633 30638 30637
8 30328 8457 8456 30333 30633 8396 8395 30638
8 2538 30329 30334 2539 2477 30634 30639 2478
8 30329 30330 30335 30334 30634 30635 30640 30639
8 30330 30331 30336 30335 30635 30636 30641 30640
8 30331 30332 30337 30336 30636 30637 30642 30641
8 30332 30333 30338 30337 30637 30638 30643 30642
8 30333 8456 8455 30338 30638 8395 8394 30643
8 2539 30334 30339 2540 2478 30639 30644 2479
8 30334 30335 30340 30339 30639 30640 30645 30644
8 30335 30336 30341 30340 30640 30641 30646 30645
8 30336 30337 30342 30341 30641 30642 30647 30646
8 30337 30338 30343 30342 30642 30643 30648 30647
8 30338 8455 8454 30343 30643 8394 8393 30648
8 2540 30339 30344 2541 2479 30644 30649 2480
8 30339 30340 30345 30344 30644 30645 30650 30649
8 30340 30341 30346 30345 30645 30646 30651 30650
8 30341 30342 30347 30346 30646 30647 30652 30651
8 30342 30343 30348 30347 30647 30648 30653 30652
8 30343 8454 8453 30348 30648 8393 8392 30653
8 2541 30344 30349 2542 2480 30649 30654 2481
8 30344 30345 30350 30349 30649 30650 30655 30654
8 30345 30346 30351 30350 30650 30651 30656 30655
8 30346 30347 30352 30351 30651 30652 30657 30656
8 30347 30348 30353 30352 30652 30653 30658 30657
8 30348 8453 8452 30353 30653 8392 8391 30658
8 2542 30349 30354 2543 2481 30654 30659 2482
8 30349 30350 30355 30354 30654 30655 30660 30659
8 30350 30351 30356 30355 30655 30656 30661 30660
8 30351 30352 30357 30356 30656 30657 30662 30661
8 30352 30353 30358 30357 30657 30658 30663 30662
8 30353 8452 8451 30358 30658 8391 8390 30663
8 2543 30354 30359 2544 2482 30659 30664 2483
8 30354 30355 30360 30359 30659 30660 30665 30664
8 30355 30356 30361 30360 30660 30661 30666 30665
8 30356 30357 30362 30361 30661 30662 30667 30666
8 30357 30358 30363 30362 30662 30663 30668 30667
8 30358 8451 8450 30363 30663 8390 8389 30668
8 2544 30359 30364 2545 2483 30664 30669 2484
8 30359 30360 30365 30364 30664 30665 30670 30669
8 30360 30361 30366 30365 30665 30666 30671 30670
8 30361 30362 30367 30366 30666 30667 30672 30671
8 30362 30363 30368 30367 30667 30668 30673 30672
8 30363 8450 8449 30368 30668 8389 8388 30673
8 2545 30364 30369 2546 2484 30669 30674 2485
8 30364 30365 30370 30369 30669 30670 30675 30674
8 30365 30366 30371 30370 30670 30671 30676 30675
8 30366 30367 30372 30371 30671 30672 30677 30676
8 30367 30368 30373 30372 30672 30673 30678 30677
8 30368 8449 8448 30373 30673 8388 8387 30678
8 2546 30369 30374 2547 2485 30674 30679 2486
8 30369 30370 30375 30374 30674 30675 30680 30679
8 30370 30371 30376 30375 30675 30676 30681 30680
8 30371 30372 30377 30376 30676 30677 30682 30681
8 30372 30373 30378 30377 30677 30678 30683 30682
8 30373 8448 8447 30378 30678 8387 8386 30683
8 2547 30374 30379 2548 2486 30679 30684 2487
8 30374 30375 30380 30379 30679 30680 30685 30684
8 30375 30376 30381 30380 30680 30681 30686 30685
8 30376 30377 30382 30381 30681 30682 30687 30686
8 30377 30378 30383 30382 30682 30683 30688 30687
8 30378 8447 8446 30383 30683 8386 8385 30688
8 2548 30379 30384 2549 2487 30684 30689 2488
8 30379 30380 30385 30384 30684 30685 30690 30689
8 30380 30381 30386 30385 30685 30686 30691 30690
8 30381 30382 30387 30386 30686 30687 30692 30691
8 30382 30383 30388 30387 30687 30688 30693 30692
8 30383 8446 8445 30388 30688 8385 8384 30693
8 2549 30384 30389 2550 2488 30689 30694 2489
8 30384 30385 30390 30389 30689 30690 30695 30694
8 30385 30386 30391 30390 30690 30691 30696 30695
8 30386 30387 30392 30391 30691 30692 30697 30696
8 30387 30388 30393 30392 30692 30693 30698 30697
8 30388 8445 8444 30393 30693 8384 8383 30698
8 30389 30390 30395 30394 30694 30695 30700 30699
8 30390 30391 30396 30395 30695 30696 30701 30700
8 30391 30392 30397 30396 30696 30697 30702 30701
8 30392 30393 30398 30397 30697 30698 30703 30702
8 30393 8444 8443 30398 30698 8383 8382 30703
8 30394 30395 30400 30399 30699 30700 30705 30704
8 30395 30396 30401 30400 30700 30701 30706 30705
8 30396 30397 30402 30401 30701 30702 30707 30706
8 30397 30398 30403 30402 30702 30703 30708 30707
8 30398 8443 8442 30403 30703 8382 8381 30708
8 30399 30400 30405 30404 30704 30705 30710 30709
8 30400 30401 30406 30405 30705 30706 30711 30710
8 30401 30402 30407 30406 30706 30707 30712 30711
8 30402 30403 30408 30407 30707 30708 30713 30712
8 30403 8442 8441 30408 30708 8381 8380 30713
8 2553 30404 30409 2554 2492 30709 30714 2493
8 30404 30405 30410 30409 30709 30710 30715 30714
8 30405 30406 30411 30410 30710 30711 30716 30715
8 30406 30407 30412 30411 30711 30712 30717 30716
8 30407 30408 30413 30412 30712 30713 30718 30717
8 30408 8441 8440 30413 30713 8380 8379 30718
8 2554 30409 30414 2555 2493 30714 30719 2494
8 30409 30410 30415 30414 30714 30715 30720 30719
8 30410 30411 30416 30415 30715 30716 30721 30720
8 30411 30412 30417 30416 30716 30717 30722 30721
8 30412 30413 30418 30417 30717 30718 30723 30722
8 30413 8440 8439 30418 30718 8379 8378 30723
8 2555 30414 30419 2556 2494 30719 30724 2495
8 30414 30415 30420 30419 30719 30720 30725 30724
8 30415 30416 30421 30420 30720 30721 30726 30725
8 30416 30417 30422 30421 30721 30722 30727 30726
8 30417 30418 30423 30422 30722 30723 30728 30727
8 30418 8439 8438 30423 30723 8378 8377 30728
8 30419 30420 30425 30424 30724 30725 30730 30729
8 30420 30421 30426 30425 30725 30726 30731 30730
8 30421 30422 30427 30426 30726 30727 30732 30731
8 30422 30423 30428 30427 30727 30728 30733 30732
8 30423 8438 8437 30428 30728 8377 8376 30733
8 30424 30425 30430 30429 30729 30730 30735 30734
8 30425 30426 30431 30430 30730 30731 30736 30735
8 30426 30427 30432 30431 30731 30732 30737 30736
8 30427 30428 30433 30432 30732 30733 30738 30737
8 30428 8437 8436 30433 30733 8376 8375 30738
8 30429 30430 30435 30434 30734 30735 30740 30739
8 30430 30431 30436 30435 30735 30736 30741 30740
8 30431 30432 30437 30436 30736 30737 30742 30741
8 30432 30433 30438 30437 30737 30738 30743 30742
8 30433 8436 8435 30438 30738 8375 8374 30743
8 2559 30434 30439 2560 2498 30739 30744 2499
8 30434 30435 30440 30439 30739 30740 30745 30744
8 30435 30436 30441 30440 30740 30741 30746 30745
8 30436 30437 30442 30441 30741 30742 30747 30746
8 30437 30438 30443 30442 30742 30743 30748 30747
8 30438 8435 8434 30443 30743 8374 8373 30748
8 2560 30439 30444 2561 2499 30744 30749 2500
8 30439 30440 30445 30444 30744 30745 30750 30749
8 30440 30441 30446 30445 30745 30746 30751 30750
8 30441 30442 30447 30446 30746 30747 30752 30751
8 30442 30443 30448 30447 30747 30748 30753 30752
8 30443 8434 8433 30448 30748 8373 8372 30753
8 2561 30444 30449 2562 2500 30749 30754 2501
8 30444 30445 30450 30449 30749 30750 30755 30754
8 30445 30446 30451 30450 30750 30751 30756 30755
8 30446 30447 30452 30451 30751 30752 30757 30756
8 30447 30448 30453 30452 30752 30753 30758 30757
8 30448 8433 8432 30453 30753 8372 8371 30758
8 30449 30450 30455 30454 30754 30755 30760 30759
8 30450 30451 30456 30455 30755 30756 30761 30760
8 30451 30452 30457 30456 30756 30757 30762 30761
8 30452 30453 30458 30457 30757 30758 30763 30762
8 30453 8432 8431 30458 30758 8371 8370 30763
8 30454 30455 30460 30459 30759 30760 30765 30764
8 30455 30456 30461 30460 30760 30761 30766 30765
8 30456 30457 30462 30461 30761 30762 30767 30766
8 30457 30458 30463 30462 30762 30763 30768 30767
8 30458 8431 8430 30463 30763 8370 8369 30768
8 30459 30460 30465 30464 30764 30765 30770 30769
8 30460 30461 30466 30465 30765 30766 30771 30770
8 30461 30462 30467 30466 30766 30767 30772 30771
8 30462 30463 30468 30467 30767 30768 30773 30772
8 30463 8430 8429 30468 30768 8369 8368 30773
8 2565 30464 30469 2566 2504 30769 30774 2505
8 30464 30465 30470 30469 30769 30770 30775 30774
8 30465 30466 30471 30470 30770 30771 30776 30775
8 30466 30467 30472 30471 30771 30772 30777 30776
8 30467 30468 30473 30472 30772 30773 30778 30777
8 30468 8429 8428 30473 30773 8368 8367 30778
8 2566 30469 12809 100 2505 30774 12804 99
8 30469 30470 12810 12809 30774 30775 12805 12804
8 30470 30471 12811 12810 30775 30776 12806 12805
8 30471 30472 12812 12811 30776 30777 12807 12806
8 30472 30473 12813 12812 30777 30778 12808 12807
8 30473 8428 6195 12813 30778 8367 6196 12808
8 274 12134 30474 2445 275 12139 30779 2384
8 12134 12135 30475 30474 12139 12140 30780 30779
8 12135 12136 30476 30475 12140 12141 30781 30780
8 12136 12137 30477 30476 12141 12142 30782 30781
8 12137 12138 30478 30477 12142 12143 30783 30782
8 12138 6021 8427 30478 12143 6020 8366 30783
8 2445 30474 30479 2446 2384 30779 30784 2385
8 30474 30475 30480 30479 30779 30780 30785 30784
8 30475 30476 30481 30480 30780 30781 30786 30785
8 30476 30477 30482 30481 30781 30782 30787 30786
8 30477 30478 30483 30482 30782 30783 30788 30787
8 30478 8427 8426 30483 30783 8366 8365 30788
8 2446 30479 30484 2447 2385 30784 30789 2386
8 30479 30480 30485 30484 30784 30785 30790 30789
8 30480 30481 30486 30485 30785 30786 30791 30790
8 30481 30482 30487 30486 30786 30787 30792 30791
8 30482 30483 30488 30487 30787 30788 30793 30792
8 30483 8426 8425 30488 30788 8365 8364 30793
8 2447 30484 30489 2448 2386 30789 30794 2387
8 30484 30485 30490 30489 30789 30790 30795 30794
8 30485 30486 30491 30490 30790 30791 30796 30795
8 30486 30487 30492 30491 30791 30792 30797 30796
8 30487 30488 30493 30492 30792 30793 30798 30797
8 30488 8425 8424 30493 30793 8364 8363 30798
8 2448 30489 30494 2449 2387 30794 30799 2388
8 30489 30490 30495 30494 30794 30795 30800 30799
8 30490 30491 30496 30495 30795 30796 30801 30800
8 30491 30492 30497 30496 30796 30797 30802 30801
8 30492 30493 30498 30497 30797 30798 30803 30802
8 30493 8424 8423 30498 30798 8363 8362 30803
8 2449 30494 30499 2450 2388 30799 30804 2389
8 30494 30495 30500 30499 30799 30800 30805 30804
8 30495 30496 30501 30500 30800 30801 30806 30805
8 30496 30497 30502 30501 30801 30802 30807 30806
8 30497 30498 30503 30502 30802 30803 30808 30807
8 30498 8423 8422 30503 30803 8362 8361 30808
8 2450 30499 30504 2451 2389 30804 30809 2390
8 30499 30500 30505 30504 30804 30805 30810 30809
8 30500 30501 30506 30505 30805 30806 30811 30810
8 30501 30502 30507 30506 30806 30807 30812 30811
8 30502 30503 30508 30507 30807 30808 30813 30812
8 30503 8422 8421 30508 30808 8361 8360 30813
8 2451 30504 30509 2452 2390 30809 30814 2391
8 30504 30505 30510 30509 30809 30810 30815 30814
8 30505 30506 30511 30510 30810 30811 30816 30815
8 30506 30507 30512 30511 30811 30812 30817 30816
8 30507 30508 30513 30512 30812 30813 30818 30817
8 30508 8421 8420 30513 30813 8360 8359 30818
8 2452 30509 30514 2453 2391 30814 30819 2392
8 30509 30510 30515 30514 30814 30815 30820 30819
8 30510 30511 30516 30515 30815 30816 30821 30820
8 30511 30512 30517 30516 30816 30817 30822 30821
8 30512 30513 30518 30517 30817 30818 30823 30822
8 30513 8420 8419 30518 30818 8359 8358 30823
8 2453 30514 30519 2454 2392 30819 30824 2393
8 30514 30515 30520 30519 30819 30820 30825 30824
8 30515 30516 30521 30520 30820 30821 30826 30825
8 30516 30517 30522 30521 30821 30822 30827 30826
8 30517 30518 30523 30522 30822 30823 30828 30827
8 30518 8419 8418 30523 30823 8358 8357 30828
8 2454 30519 30524 2455 2393 30824 30829 2394
8 30519 30520 30525 30524 30824 30825 30830 30829
8 30520 30521 30526 30525 30825 30826 30831 30830
8 30521 30522 30527 30526 30826 30827 30832 30831
8 30522 30523 30528 30527 30827 30828 30833 30832
8 30523 8418 8417 30528 30828 8357 8356 30833
8 2455 30524 30529 2456 2394 30829 30834 2395
8 30524 30525 30530 30529 30829 30830 30835 30834
8 30525 30526 30531 30530 30830 30831 30836 30835
8 30526 30527 30532 30531 30831 30832 30837 30836
8 30527 30528 30533 30532 30832 30833 30838 30837
8 30528 8417 8416 30533 30833 8356 8355 30838
8 2456 30529 30534 2457 2395 30834 30839 2396
8 30529 30530 30535 30534 30834 30835 30840 30839
8 30530 30531 30536 30535 30835 30836 30841 30840
8 30531 30532 30537 30536 30836 30837 30842 30841
8 30532 30533 30538 30537 30837 30838 30843 30842
8 30533 8416 8415 30538 30838 8355 8354 30843
8 2457 30534 30539 2458 2396 30839 30844 2397
8 30534 30535 30540 30539 30839 30840 30845 30844
8 30535 30536 30541 30540 30840 30841 30846 30845
8 30536 30537 30542 30541 30841 30842 30847 30846
8 30537 30538 30543 30542 30842 30843 30848 30847
8 30538 8415 8414 30543 30843 8354 8353 30848
8 2458 30539 30544 2459 2397 30844 30849 2398
8 30539 30540 30545 30544 30844 30845 30850 30849
8 30540 30541 30546 30545 30845 30846 30851 30850
8 30541 30542 30547 30546 30846 30847 30852 30851
8 30542 30543 30548 30547 30847 30848 30853 30852
8 30543 8414 8413 30548 30848 8353 8352 30853
8 2459 30544 30549 2460 2398 30849 30854 2399
8 30544 30545 30550 30549 30849 30850 30855 30854
8 30545 30546 30551 30550 30850 30851 30856 30855
8 30546 30547 30552 30551 30851 30852 30857 30856
8 30547 30548 30553 30552 30852 30853 30858 30857
8 30548 8413 8412 30553 30853 8352 8351 30858
8 2460 30549 30554 2461 2399 30854 30859 2400
8 30549 30550 30555 30554 30854 30855 30860 30859
8 30550 30551 30556 30555 30855 30856 30861 30860
8 30551 30552 30557 30556 30856 30857 30862 30861
8 30552 30553 30558 30557 30857 30858 30863 30862
8 30553 8412 8411 30558 30858 8351 8350 30863
8 2461 30554 30559 2462 2400 30859 30864 2401
8 30554 30555 30560 30559 30859 30860 30865 30864
8 30555 30556 30561 30560 30860 30861 30866 30865
8 30556 30557 30562 30561 30861 30862 30867 30866
8 30557 30558 30563 30562 30862 30863 30868 30867
8 30558 8411 8410 30563 30863 8350 8349 30868
8 2462 30559 30564 2463 2401 30864 30869 2402
8 30559 30560 30565 30564 30864 30865 30870 30869
8 30560 30561 30566 30565 30865 30866 30871 30870
8 30561 30562 30567 30566 30866 30867 30872 30871
8 30562 30563 30568 30567 30867 30868 30873 30872
8 30563 8410 8409 30568 30868 8349 8348 30873
8 2463 30564 30569 2464 2402 30869 30874 2403
8 30564 30565 30570 30569 30869 30870 30875 30874
8 30565 30566 30571 30570 30870 30871 30876 30875
8 30566 30567 30572 30571 30871 30872 30877 30876
8 30567 30568 30573 30572 30872 30873 30878 30877
8 30568 8409 8408 30573 30873 8348 8347 30878
8 2464 30569 30574 2465 2403 30874 30879 2404
8 30569 30570 30575 30574 30874 30875 30880 30879
8 30570 30571 30576 30575 30875 30876 30881 30880
8 30571 30572 30577 30576 30876 30877 30882 30881
8 30572 30573 30578 30577 30877 30878 30883 30882
8 30573 8408 8407 30578 30878 8347 8346 30883
8 2465 30574 30579 2466 2404 30879 30884 2405
8 30574 30575 30580 30579 30879 30880 30885 30884
8 30575 30576 30581 30580 30880 30881 30886 30885
8 30576 30577 30582 30581 30881 30882 30887 30886
8 30577 30578 30583 30582 30882 30883 30888 30887
8 30578 8407 8406 30583 30883 8346 8345 30888
8 2466 30579 30584 2467 2405 30884 30889 2406
8 30579 30580 30585 30584 30884 30885 30890 30889
8 30580 30581 30586 30585 30885 30886 30891 30890
8 30581 30582 30587 30586 30886 30887 30892 30891
8 30582 30583 30588 30587 30887 30888 30893 30892
8 30583 8406 8405 30588 30888 8345 8344 30893
8 2467 30584 30589 2468 2406 30889 30894 2407
8 30584 30585 30590 30589 30889 30890 30895 30894
8 30585 30586 30591 30590 30890 30891 30896 30895
8 30586 30587 30592 30591 30891 30892 30897 30896
8 30587 30588 30593 30592 30892 30893 30898 30897
8 30588 8405 8404 30593 30893 8344 8343 30898
8 2468 30589 30594 2469 2407 30894 30899 2408
8 30589 30590 30595 30594 30894 30895 30900 30899
8 30590 30591 30596 30595 30895 30896 30901 30900
8 30591 30592 30597 30596 30896 30897 30902 30901
8 30592 30593 30598 30597 30897 30898 30903 30902
8 30593 8404 8403 30598 30898 8343 8342 30903
8 2469 30594 30599 2470 2408 30899 30904 2409
8 30594 30595 30600 30599 30899 30900 30905 30904
8 30595 30596 30601 30600 30900 30901 30906 30905
8 30596 30597 30602 30601 30901 30902 30907 30906
8 30597 30598 30603 30602 30902 30903 30908 30907
8 30598 8403 8402 30603 30903 8342 8341 30908
8 2470 30599 30604 2471 2409 30904 30909 2410
8 30599 30600 30605 30604 30904 30905 30910 30909
8 30600 30601 30606 30605 30905 30906 30911 30910
8 30601 30602 30607 30606 30906 30907 30912 30911
8 30602 30603 30608 30607 30907 30908 30913 30912
8 30603 8402 8401 30608 30908 8341 8340 30913
8 2471 30604 30609 2472 2410 30909 30914 2411
8 30604 30605 30610 30609 30909 30910 30915 30914
8 30605 30606 30611 30610 30910 30911 30916 30915
8 30606 30607 30612 30611 30911 30912 30917 30916
8 30607 30608 30613 30612 30912 30913 30918 30917
8 30608 8401 8400 30613 30913 8340 8339 30918
8 2472 30609 30614 2473 2411 30914 30919 2412
8 30609 30610 30615 30614 30914 30915 30920 30919
8 30610 30611 30616 30615 30915 30916 30921 30920
8 30611 30612 30617 30616 30916 30917 30922 30921
8 30612 30613 30618 30617 30917 30918 30923 30922
8 30613 8400 8399 30618 30918 8339 8338 30923
8 2473 30614 30619 2474 2412 30919 30924 2413
8 30614 30615 30620 30619 30919 30920 30925 30924
8 30615 30616 30621 30620 30920 30921 30926 30925
8 30616 30617 30622 30621 30921 30922 30927 30926
8 30617 30618 30623 30622 30922 30923 30928 30927
8 30618 8399 8398 30623 30923 8338 8337 30928
8 2474 30619 30624 2475 2413 30924 30929 2414
8 30619 30620 30625 30624 30924 30925 30930 30929
8 30620 30621 30626 30625 30925 30926 30931 30930
8 30621 30622 30627 30626 30926 30927 30932 30931
8 30622 30623 30628 30627 30927 30928 30933 30932
8 30623 8398 8397 30628 30928 8337 8336 30933
8 2475 30624 30629 2476 2414 30929 30934 2415
8 30624 30625 30630 30629 30929 30930 30935 30934
8 30625 30626 30631 30630 30930 30931 30936 30935
8 30626 30627 30632 30631 30931 30932 30937 30936
8 30627 30628 30633 30632 30932 30933 30938 30937
8 30628 8397 8396 30633 30933 8336 8335 30938
8 2476 30629 30634 2477 2415 30934 30939 2416
8 30629 30630 30635 30634 30934 30935 30940 30939
8 30630 30631 30636 30635 30935 30936 30941 30940
8 30631 30632 30637 30636 30936 30937 30942 30941
8 30632 30633 30638 30637 30937 30938 30943 30942
8 30633 8396 8395 30638 30938 8335 8334 30943
8 2477 30634 30639 2478 2416 30939 30944 2417
8 30634 30635 30640 30639 30939 30940 30945 30944
8 30635 30636 30641 30640 30940 30941 30946 30945
8 30636 30637 30642 30641 30941 30942 30947 30946
8 30637 30638 30643 30642 30942 30943 30948 30947
8 30638 8395 8394 30643 30943 8334 8333 30948
8 2478 30639 30644 2479 2417 30944 30949 2418
8 30639 30640 30645 30644 30944 30945 30950 30949
8 30640 30641 30646 30645 30945 30946 30951 30950
8 30641 30642 30647 30646 30946 30947 30952 30951
8 30642 30643 30648 30647 30947 30948 30953 30952
8 30643 8394 8393 30648 30948 8333 8332 30953
8 2479 30644 30649 2480 2418 30949 30954 2419
8 30644 30645 30650 30649 30949 30950 30955 30954
8 30645 30646 30651 30650 30950 30951 30956 30955
8 30646 30647 30652 30651 30951 30952 30957 30956
8 30647 30648 30653 30652 30952 30953 30958 30957
8 30648 8393 8392 30653 30953 8332 8331 30958
8 2480 30649 30654 2481 2419 30954 30959 2420
8 30649 30650 30655 30654 30954 30955 30960 30959
8 30650 30651 30656 30655 30955 30956 30961 30960
8 30651 30652 30657 30656 30956 30957 30962 30961
8 30652 30653 30658 30657 30957 30958 30963 30962
8 30653 8392 8391 30658 30958 8331 8330 30963
8 2481 30654 30659 2482 2420 30959 30964 2421
8 30654 30655 30660 30659 30959 30960 30965 30964
8 30655 30656 30661 30660 30960 30961 30966 30965
8 30656 30657 30662 30661 30961 30962 30967 30966
8 30657 30658 30663 30662 30962 30963 30968 30967
8 30658 8391 8390 30663 30963 8330 8329 30968
8 2482 30659 30664 2483 2421 30964 30969 2422
8 30659 30660 30665 30664 30964 30965 30970 30969
8 30660 30661 30666 30665 30965 30966 30971 30970
8 30661 30662 30667 30666 30966 30967 30972 30971
8 30662 30663 30668 30667 30967 30968 30973 30972
8 30663 8390 8389 30668 30968 8329 8328 30973
8 2483 30664 30669 2484 2422 30969 30974 2423
8 30664 30665 30670 30669 30969 30970 30975 30974
8 30665 30666 30671 30670 30970 30971 30976 30975
8 30666 30667 30672 30671 30971 30972 30977 30976
8 30667 30668 30673 30672 30972 30973 30978 30977
8 30668 8389 8388 30673 30973 8328 8327 30978
8 2484 30669 30674 2485 2423 30974 30979 2424
8 30669 30670 30675 30674 30974 30975 30980 30979
8 30670 30671 30676 30675 30975 30976 30981 30980
8 30671 30672 30677 30676 30976 30977 30982 30981
8 30672 30673 30678 30677 30977 30978 30983 30982
8 30673 8388 8387 30678 30978 8327 8326 30983
8 2485 30674 30679 2486 2424 30979 30984 2425
8 30674 30675 30680 30679 30979 30980 30985 30984
8 30675 30676 30681 30680 30980 30981 30986 30985
8 30676 30677 30682 30681 30981 30982 30987 30986
8 30677 30678 30683 30682 30982 30983 30988 30987
8 30678 8387 8386 30683 30983 8326 8325 30988
8 2486 30679 30684 2487 2425 30984 30989 2426
8 30679 30680 30685 30684 30984 30985 30990 30989
8 30680 30681 30686 30685 30985 30986 30991 30990
8 30681 30682 30687 30686 30986 30987 30992 30991
8 30682 30683 30688 30687 30987 30988 30993 30992
8 30683 8386 8385 30688 30988 8325 8324 30993
8 2487 30684 30689 2488 2426 30989 30994 2427
8 30684 30685 30690 30689 30989 30990 30995 30994
8 30685 30686 30691 30690 30990 30991 30996 30995
8 30686 30687 30692 30691 30991 30992 30997 30996
8 30687 30688 30693 30692 30992 30993 30998 30997
8 30688 8385 8384 30693 30993 8324 8323 30998
8 2488 30689 30694 2489 2427 30994 30999 2428
8 30689 30690 30695 30694 30994 30995 31000 30999
8 30690 30691 30696 30695 30995 30996 31001 31000
8 30691 30692 30697 30696 30996 30997 31002 31001
8 30692 30693 30698 30697 30997 30998 31003 31002
8 30693 8384 8383 30698 30998 8323 8322 31003
8 30694 30695 30700 30699 30999 31000 31005 31004
8 30695 30696 30701 30700 31000 31001 31006 31005
8 30696 30697 30702 30701 31001 31002 31007 31006
8 30697 30698 30703 30702 31002 31003 31008 31007
8 30698 8383 8382 30703 31003 8322 8321 31008
8 30699 30700 30705 30704 31004 31005 31010 31009
8 30700 30701 30706 30705 31005 31006 31011 31010
8 30701 30702 30707 30706 31006 31007 31012 31011
8 30702 30703 30708 30707 31007 31008 31013 31012
8 30703 8382 8381 30708 31008 8321 8320 31013
8 30704 30705 30710 30709 31009 31010 31015 31014
8 30705 30706 30711 30710 31010 31011 31016 31015
8 30706 30707 30712 30711 31011 31012 31017 31016
8 30707 30708 30713 30712 31012 31013 31018 31017
8 30708 8381 8380 30713 31013 8320 8319 31018
8 2492 30709 30714 2493 2431 31014 31019 2432
8 30709 30710 30715 30714 31014 31015 31020 31019
8 30710 30711 30716 30715 31015 31016 31021 31020
8 30711 30712 30717 30716 31016 31017 31022 31021
8 30712 30713 30718 30717 31017 31018 31023 31022
8 30713 8380 8379 30718 31018 8319 8318 31023
8 2493 30714 30719 2494 2432 31019 31024 2433
8 30714 30715 30720 30719 31019 31020 31025 31024
8 30715 30716 30721 30720 31020 31021 31026 31025
8 30716 30717 30722 30721 31021 31022 31027 31026
8 30717 30718 30723 30722 31022 31023 31028 31027
8 30718 8379 8378 30723 31023 8318 8317 31028
8 2494 30719 30724 2495 2433 31024 31029 2434
8 30719 30720 30725 30724 31024 31025 31030 31029
8 30720 30721 30726 30725 31025 31026 31031 31030
8 30721 30722 30727 30726 31026 31027 31032 31031
8 30722 30723 30728 30727 31027 31028 31033 31032
8 30723 8378 8377 30728 31028 8317 8316 31033
8 30724 30725 30730 30729 31029 31030 31035 31034
8 30725 30726 30731 30730 31030 31031 31036 31035
8 30726 30727 30732 30731 31031 31032 31037 31036
8 30727 30728 30733 30732 31032 31033 31038 31037
8 30728 8377 8376 30733 31033 8316 8315 31038
8 30729 30730 30735 30734 31034 31035 31040 31039
8 30730 30731 30736 30735 31035 31036 31041 31040
8 30731 30732 30737 30736 31036 31037 31042 31041
8 30732 30733 30738 30737 31037 31038 31043 31042
8 30733 8376 8375 30738 31038 8315 8314 31043
8 30734 30735 30740 30739 31039 31040 31045 31044
8 30735 30736 30741 30740 31040 31041 31046 31045
8 30736 30737 30742 30741 31041 31042 31047 31046
8 30737 30738 30743 30742 31042 31043 31048 31047
8 30738 8375 8374 30743 31043 8314 8313 31048
8 2498 30739 30744 2499 2437 31044 31049 2438
8 30739 30740 30745 30744 31044 31045 31050 31049
8 30740 30741 30746 30745 31045 31046 31051 31050
8 30741 30742 30747 30746 31046 31047 31052 31051
8 30742 30743 30748 30747 31047 31048 31053 31052
8 30743 8374 8373 30748 31048 8313 8312 31053
8 2499 30744 30749 2500 2438 31049 31054 2439
8 30744 30745 30750 30749 31049 31050 31055 31054
8 30745 30746 30751 30750 31050 31051 31056 31055
8 30746 30747 30752 30751 31051 31052 31057 31056
8 30747 30748 30753 30752 31052 31053 31058 31057
8 30748 8373 8372 30753 31053 8312 8311 31058
8 2500 30749 30754 2501 2439 31054 31059 2440
8 30749 30750 30755 30754 31054 31055 31060 31059
8 30750 30751 30756 30755 31055 31056 31061 31060
8 30751 30752 30757 30756 31056 31057 31062 31061
8 30752 30753 30758 30757 31057 31058 31063 31062
8 30753 8372 8371 30758 31058 8311 8310 31063
8 30754 30755 30760 30759 31059 31060 31065 31064
8 30755 30756 30761 30760 31060 31061 31066 31065
8 30756 30757 30762 30761 31061 31062 31067 31066
8 30757 30758 30763 30762 31062 31063 31068 31067
8 30758 8371 8370 30763 31063 8310 8309 31068
8 30759 30760 30765 30764 31064 31065 31070 31069
8 30760 30761 30766 30765 31065 31066 31071 31070
8 30761 30762 30767 30766 31066 31067 31072 31071
8 30762 30763 30768 30767 31067 31068 31073 31072
8 30763 8370 8369 30768 31068 8309 8308 31073
8 30764 30765 30770 30769 31069 31070 31075 31074
8 30765 30766 30771 30770 31070 31071 31076 31075
8 30766 30767 30772 30771 31071 31072 31077 31076
8 30767 30768 30773 30772 31072 31073 31078 31077
8 30768 8369 8368 30773 31073 8308 8307 31078
8 2504 30769 30774 2505 2443 31074 31079 2444
8 30769 30770 30775 30774 31074 31075 31080 31079
8 30770 30771 30776 30775 31075 31076 31081 31080
8 30771 30772 30777 30776 31076 31077 31082 31081
8 30772 30773 30778 30777 31077 31078 31083 31082
8 30773 8368 8367 30778 31078 8307 8306 31083
8 2505 30774 12804 99 2444 31079 12799 98
8 30774 30775 12805 12804 31079 31080 12800 12799
8 30775 30776 12806 12805 31080 31081 12801 12800
8 30776 30777 12807 12806 31081 31082 12802 12801
8 30777 30778 12808 12807 31082 31083 12803 12802
8 30778 8367 6196 12808 31083 8306 6197 12803
8 275 12139 30779 2384 276 12144 31084 2323
8 12139 12140 30780 30779 12144 12145 31085 31084
8 12140 12141 30781 30780 12145 12146 31086 31085
8 12141 12142 30782 30781 12146 12147 31087 31086
8 12142 12143 30783 30782 12147 12148 31088 31087
8 12143 6020 8366 30783 12148 6019 8305 31088
8 2384 30779 30784 2385 2323 31084 31089 2324
8 30779 30780 30785 30784 31084 31085 31090 31089
8 30780 30781 30786 30785 31085 31086 31091 31090
8 30781 30782 30787 30786 31086 31087 31092 31091
8 30782 30783 30788 30787 31087 31088 31093 31092
8 30783 8366 8365 30788 31088 8305 8304 31093
8 2385 30784 30789 2386 2324 31089 31094 2325
8 30784 30785 30790 30789 31089 31090 31095 31094
8 30785 30786 30791 30790 31090 31091 31096 31095
8 30786 30787 30792 30791 31091 31092 31097 31096
8 30787 30788 30793 30792 31092 31093 31098 31097
8 30788 8365 8364 30793 31093 8304 8303 31098
8 2386 30789 30794 2387 2325 31094 31099 2326
8 30789 30790 30795 30794 31094 31095 31100 31099
8 30790 30791 30796 30795 31095 31096 31101 31100
8 30791 30792 30797 30796 31096 31097 31102 31101
8 30792 30793 30798 30797 31097 31098 31103 31102
8 30793 8364 8363 30798 31098 8303 8302 31103
8 2387 30794 30799 2388 2326 31099 31104 2327
8 30794 30795 30800 30799 31099 31100 31105 31104
8 30795 30796 30801 30800 31100 31101 31106 31105
8 30796 30797 30802 30801 31101 31102 31107 31106
8 30797 30798 30803 30802 31102 31103 31108 31107
8 30798 8363 8362 30803 31103 8302 8301 31108
8 2388 30799 30804 2389 2327 31104 31109 2328
8 30799 30800 30805 30804 31104 31105 31110 31109
8 30800 30801 30806 30805 31105 31106 31111 31110
8 30801 30802 30807 30806 31106 31107 31112 31111
8 30802 30803 30808 30807 31107 31108 31113 31112
8 30803 8362 8361 30808 31108 8301 8300 31113
8 2389 30804 30809 2390 2328 31109 31114 2329
8 30804 30805 30810 30809 31109 31110 31115 31114
8 30805 30806 30811 30810 31110 31111 31116 31115
8 30806 30807 30812 30811 31111 31112 31117 31116
8 30807 30808 30813 30812 31112 31113 31118 31117
8 30808 8361 8360 30813 31113 8300 8299 31118
8 2390 30809 30814 2391 2329 31114 31119 2330
8 30809 30810 30815 30814 31114 31115 31120 31119
8 30810 30811 30816 30815 31115 31116 31121 31120
8 30811 30812 30817 30816 31116 31117 31122 31121
8 30812 30813 30818 30817 31117 31118 31123 31122
8 30813 8360 8359 30818 31118 8299 8298 31123
8 2391 30814 30819 2392 2330 31119 31124 2331
8 30814 30815 30820 30819 31119 31120 31125 31124
8 30815 30816 30821 30820 31120 31121 31126 31125
8 30816 30817 30822 30821 31121 31122 31127 31126
8 30817 30818 30823 30822 31122 31123 31128 31127
8 30818 8359 8358 30823 31123 8298 8297 31128
8 2392 30819 30824 2393 2331 31124 31129 2332
8 30819 30820 30825 30824 31124 31125 31130 31129
8 30820 30821 30826 30825 31125 31126 31131 31130
8 30821 30822 30827 30826 31126 31127 31132 31131
8 30822 30823 30828 30827 31127 31128 31133 31132
8 30823 8358 8357 30828 31128 8297 8296 31133
8 2393 30824 30829 2394 2332 31129 31134 2333
8 30824 30825 30830 30829 31129 31130 31135 31134
8 30825 30826 30831 30830 31130 31131 31136 31135
8 30826 30827 30832 30831 31131 31132 31137 31136
8 30827 30828 30833 30832 31132 31133 31138 31137
8 30828 8357 8356 30833 31133 8296 8295 31138
8 2394 30829 30834 2395 2333 31134 31139 2334
8 30829 30830 30835 30834 31134 31135 31140 31139
8 30830 30831 30836 30835 31135 31136 31141 31140
8 30831 30832 30837 30836 31136 31137 31142 31141
8 30832 30833 30838 30837 31137 31138 31143 31142
8 30833 8356 8355 30838 31138 8295 8294 31143
8 2395 30834 30839 2396 2334 31139 31144 2335
8 30834 30835 30840 30839 31139 31140 31145 31144
8 30835 30836 30841 30840 31140 31141 31146 31145
8 30836 30837 30842 30841 31141 31142 31147 31146
8 30837 30838 30843 30842 31142 31143 31148 31147
8 30838 8355 8354 30843 31143 8294 8293 31148
8 2396 30839 30844 2397 2335 31144 31149 2336
8 30839 30840 30845 30844 31144 31145 31150 31149
8 30840 30841 30846 30845 31145 31146 31151 31150
8 30841 30842 30847 30846 31146 31147 31152 31151
8 30842 30843 30848 30847 31147 31148 31153 31152
8 30843 8354 8353 30848 31148 8293 8292 31153
8 2397 30844 30849 2398 2336 31149 31154 2337
8 30844 30845 30850 30849 31149 31150 31155 31154
8 30845 30846 30851 30850 31150 31151 31156 31155
8 30846 30847 30852 30851 31151 31152 31157 31156
8 30847 30848 30853 30852 31152 31153 31158 31157
8 30848 8353 8352 30853 31153 8292 8291 31158
8 2398 30849 30854 2399 2337 31154 31159 2338
8 30849 30850 30855 30854 31154 31155 31160 31159
8 30850 30851 30856 30855 31155 31156 31161 31160
8 30851 30852 30857 30856 31156 31157 31162 31161
8 30852 30853 30858 30857 31157 31158 31163 31162
8 30853 8352 8351 30858 31158 8291 8290 31163
8 2399 30854 30859 2400 2338 31159 31164 2339
8 30854 30855 30860 30859 31159 31160 31165 31164
8 30855 30856 30861 30860 31160 31161 31166 31165
8 30856 30857 30862 30861 31161 31162 31167 31166
8 30857 30858 30863 30862 31162 31163 31168 31167
8 30858 8351 8350 30863 31163 8290 8289 31168
8 2400 30859 30864 2401 2339 31164 31169 2340
8 30859 30860 30865 30864 31164 31165 31170 31169
8 30860 30861 30866 30865 31165 31166 31171 31170
8 30861 30862 30867 30866 31166 31167 31172 31171
8 30862 30863 30868 30867 31167 31168 31173 31172
8 30863 8350 8349 30868 31168 8289 8288 31173
8 2401 30864 30869 2402 2340 31169 31174 2341
8 30864 30865 30870 30869 31169 31170 31175 31174
8 30865 30866 30871 30870 31170 31171 31176 31175
8 30866 30867 30872 30871 31171 31172 31177 31176
8 30867 30868 30873 30872 31172 31173 31178 31177
8 30868 8349 8348 30873 31173 8288 8287 31178
8 2402 30869 30874 2403 2341 31174 31179 2342
8 30869 30870 30875 30874 31174 31175 31180 31179
8 30870 30871 30876 30875 31175 31176 31181 31180
8 30871 30872 30877 30876 31176 31177 31182 31181
8 30872 30873 30878 30877 31177 31178 31183 31182
8 30873 8348 8347 30878 31178 8287 8286 31183
8 2403 30874 30879 2404 2342 31179 31184 2343
8 30874 30875 30880 30879 31179 31180 31185 31184
8 30875 30876 30881 30880 31180 31181 31186 31185
8 30876 30877 30882 30881 31181 31182 31187 31186
8 30877 30878 30883 30882 31182 31183 31188 31187
8 30878 8347 8346 30883 31183 8286 8285 31188
8 2404 30879 30884 2405 2343 31184 31189 2344
8 30879 30880 30885 30884 31184 31185 31190 31189
8 30880 30881 30886 30885 31185 31186 31191 31190
8 30881 30882 30887 30886 31186 31187 31192 31191
8 30882 30883 30888 30887 31187 31188 31193 31192
8 30883 8346 8345 30888 31188 8285 8284 31193
8 2405 30884 30889 2406 2344 31189 31194 2345
8 30884 30885 30890 30889 31189 31190 31195 31194
8 30885 30886 30891 30890 31190 31191 31196 31195
8 30886 30887 30892 30891 31191 31192 31197 31196
8 30887 30888 30893 30892 31192 31193 31198 31197
8 30888 8345 8344 30893 31193 8284 8283 31198
8 2406 30889 30894 2407 2345 31194 31199 2346
8 30889 30890 30895 30894 31194 31195 31200 31199
8 30890 30891 30896 30895 31195 31196 31201 31200
8 30891 30892 30897 30896 31196 31197 31202 31201
8 30892 30893 30898 30897 31197 31198 31203 31202
8 30893 8344 8343 30898 31198 8283 8282 31203
8 2407 30894 30899 2408 2346 31199 31204 2347
8 30894 30895 30900 30899 31199 31200 31205 31204
8 30895 30896 30901 30900 31200 31201 31206 31205
8 30896 30897 30902 30901 31201 31202 31207 31206
8 30897 30898 30903 30902 31202 31203 31208 31207
8 30898 8343 8342 30903 31203 8282 8281 31208
8 2408 30899 30904 2409 2347 31204 31209 2348
8 30899 30900 30905 30904 31204 31205 31210 31209
8 30900 30901 30906 30905 31205 31206 31211 31210
8 30901 30902 30907 30906 31206 31207 31212 31211
8 30902 30903 30908 30907 31207 31208 31213 31212
8 30903 8342 8341 30908 31208 8281 8280 31213
8 2409 30904 30909 2410 2348 31209 31214 2349
8 30904 30905 30910 30909 31209 31210 31215 31214
8 30905 30906 30911 30910 31210 31211 31216 31215
8 30906 30907 30912 30911 31211 31212 31217 31216
8 30907 30908 30913 30912 31212 31213 31218 31217
8 30908 8341 8340 30913 31213 8280 8279 31218
8 2410 30909 30914 2411 2349 31214 31219 2350
8 30909 30910 30915 30914 31214 31215 31220 31219
8 30910 30911 30916 30915 31215 31216 31221 31220
8 30911 30912 30917 30916 31216 31217 31222 31221
8 30912 30913 30918 30917 31217 31218 31223 31222
8 30913 8340 8339 30918 31218 8279 8278 31223
8 2411 30914 30919 2412 2350 31219 31224 2351
8 30914 30915 30920 30919 31219 31220 31225 31224
8 30915 30916 30921 30920 31220 31221 31226 31225
8 30916 30917 30922 30921 31221 31222 31227 31226
8 30917 30918 30923 30922 31222 31223 31228 31227
8 30918 8339 8338 30923 31223 8278 8277 31228
8 2412 30919 30924 2413 2351 31224 31229 2352
8 30919 30920 30925 30924 31224 31225 31230 31229
8 30920 30921 30926 30925 31225 31226 31231 31230
8 30921 30922 30927 30926 31226 31227 31232 31231
8 30922 30923 30928 30927 31227 31228 31233 31232
8 30923 8338 8337 30928 31228 8277 8276 31233
8 2413 30924 30929 2414 2352 31229 31234 2353
8 30924 30925 30930 30929 31229 31230 31235 31234
8 30925 30926 30931 30930 31230 31231 31236 31235
8 30926 30927 30932 30931 31231 31232 31237 31236
8 30927 30928 30933 30932 31232 31233 31238 31237
8 30928 8337 8336 30933 31233 8276 8275 31238
8 2414 30929 30934 2415 2353 31234 31239 2354
8 30929 30930 30935 30934 31234 31235 31240 31239
8 30930 30931 30936 30935 31235 31236 31241 31240
8 30931 30932 30937 30936 31236 31237 31242 31241
8 30932 30933 30938 30937 31237 31238 31243 31242
8 30933 8336 8335 30938 31238 8275 8274 31243
8 2415 30934 30939 2416 2354 31239 31244 2355
8 30934 30935 30940 30939 31239 31240 31245 31244
8 30935 30936 30941 30940 31240 31241 31246 31245
8 30936 30937 30942 30941 31241 31242 31247 31246
8 30937 30938 30943 30942 31242 31243 31248 31247
8 30938 8335 8334 30943 31243 8274 8273 31248
8 2416 30939 30944 2417 2355 31244 31249 2356
8 30939 30940 30945 30944 31244 31245 31250 31249
8 30940 30941 30946 30945 31245 31246 31251 31250
8 30941 30942 30947 30946 31246 31247 31252 31251
8 30942 30943 30948 30947 31247 31248 31253 31252
8 30943 8334 8333 30948 31248 8273 8272 31253
8 2417 30944 30949 2418 2356 31249 31254 2357
8 30944 30945 30950 30949 31249 31250 31255 31254
8 30945 30946 30951 30950 31250 31251 31256 31255
8 30946 30947 30952 30951 31251 31252 31257 31256
8 30947 30948 30953 30952 31252 31253 31258 31257
8 30948 8333 8332 30953 31253 8272 8271 31258
8 2418 30949 30954 2419 2357 31254 31259 2358
8 30949 30950 30955 30954 31254 31255 31260 31259
8 30950 30951 30956 30955 31255 31256 31261 31260
8 30951 30952 30957 30956 31256 31257 31262 31261
8 30952 30953 30958 30957 31257 31258 31263 31262
8 30953 8332 8331 30958 31258 8271 8270 31263
8 2419 30954 30959 2420 2358 31259 31264 2359
8 30954 30955 30960 30959 31259 31260 31265 31264
8 30955 30956 30961 30960 31260 31261 31266 31265
8 30956 30957 30962 30961 31261 31262 31267 31266
8 30957 30958 30963 30962 31262 31263 31268 31267
8 30958 8331 8330 30963 31263 8270 8269 31268
8 2420 30959 30964 2421 2359 31264 31269 2360
8 30959 30960 30965 30964 31264 31265 31270 31269
8 30960 30961 30966 30965 31265 31266 31271 31270
8 30961 30962 30967 30966 31266 31267 31272 31271
8 30962 30963 30968 30967 31267 31268 31273 31272
8 30963 8330 8329 30968 31268 8269 8268 31273
8 2421 30964 30969 2422 2360 31269 31274 2361
8 30964 30965 30970 30969 31269 31270 31275 31274
8 30965 30966 30971 30970 31270 31271 31276 31275
8 30966 30967 30972 30971 31271 31272 31277 31276
8 30967 30968 30973 30972 31272 31273 31278 31277
8 30968 8329 8328 30973 31273 8268 8267 31278
8 2422 30969 30974 2423 2361 31274 31279 2362
8 30969 30970 30975 30974 31274 31275 31280 31279
8 30970 30971 30976 30975 31275 31276 31281 31280
8 30971 30972 30977 30976 31276 31277 31282 31281
8 30972 30973 30978 30977 31277 31278 31283 31282
8 30973 8328 8327 30978 31278 8267 8266 31283
8 2423 30974 30979 2424 2362 31279 31284 2363
8 30974 30975 30980 30979 31279 31280 31285 31284
8 30975 30976 30981 30980 31280 31281 31286 31285
8 30976 30977 30982 30981 31281 31282 31287 31286
8 30977 30978 30983 30982 31282 31283 31288 31287
8 30978 8327 8326 30983 31283 8266 8265 31288
8 2424 30979 30984 2425 2363 31284 31289 2364
8 30979 30980 30985 30984 31284 31285 31290 31289
8 30980 30981 30986 30985 31285 31286 31291 31290
8 30981 30982 30987 30986 31286 31287 31292 31291
8 30982 30983 30988 30987 31287 31288 31293 31292
8 30983 8326 8325 30988 31288 8265 8264 31293
8 2425 30984 30989 2426 2364 31289 31294 2365
8 30984 30985 30990 30989 31289 31290 31295 31294
8 30985 30986 30991 30990 31290 31291 31296 31295
8 30986 30987 30992 30991 31291 31292 31297 31296
8 30987 30988 30993 30992 31292 31293 31298 31297
8 30988 8325 8324 30993 31293 8264 8263 31298
8 2426 30989 30994 2427 2365 31294 31299 2366
8 30989 30990 30995 30994 31294 31295 31300 31299
8 30990 30991 30996 30995 31295 31296 31301 31300
8 30991 30992 30997 30996 31296 31297 31302 31301
8 30992 30993 30998 30997 31297 31298 31303 31302
8 30993 8324 8323 30998 31298 8263 8262 31303
8 2427 30994 30999 2428 2366 31299 31304 2367
8 30994 30995 31000 30999 31299 31300 31305 31304
8 30995 30996 31001 31000 31300 31301 31306 31305
8 30996 30997 31002 31001 31301 31302 31307 31306
8 30997 30998 31003 31002 31302 31303 31308 31307
8 30998 8323 8322 31003 31303 8262 8261 31308
8 30999 31000 31005 31004 31304 31305 31310 31309
8 31000 31001 31006 31005 31305 31306 31311 31310
8 31001 31002 31007 31006 31306 31307 31312 31311
8 31002 31003 31008 31007 31307 31308 31313 31312
8 31003 8322 8321 31008 31308 8261 8260 31313
8 31004 31005 31010 31009 31309 31310 31315 31314
8 31005 31006 31011 31010 31310 31311 31316 31315
8 31006 31007 31012 31011 31311 31312 31317 31316
8 31007 31008 31013 31012 31312 31313 31318 31317
8 31008 8321 8320 31013 31313 8260 8259 31318
8 31009 31010 31015 31014 31314 31315 31320 31319
8 31010 31011 31016 31015 31315 31316 31321 31320
8 31011 31012 31017 31016 31316 31317 31322 31321
8 31012 31013 31018 31017 31317 31318 31323 31322
8 31013 8320 8319 31018 31318 8259 8258 31323
8 31014 31015 31020 31019 31319 31320 31325 31324
8 31015 31016 31021 31020 31320 31321 31326 31325
8 31016 31017 31022 31021 31321 31322 31327 31326
8 31017 31018 31023 31022 31322 31323 31328 31327
8 31018 8319 8318 31023 31323 8258 8257 31328
8 31019 31020 31025 31024 31324 31325 31330 31329
8 31020 31021 31026 31025 31325 31326 31331 31330
8 31021 31022 31027 31026 31326 31327 31332 31331
8 31022 31023 31028 31027 31327 31328 31333 31332
8 31023 8318 8317 31028 31328 8257 8256 31333
8 31024 31025 31030 31029 31329 31330 31335 31334
8 31025 31026 31031 31030 31330 31331 31336 31335
8 31026 31027 31032 31031 31331 31332 31337 31336
8 31027 31028 31033 31032 31332 31333 31338 31337
8 31028 8317 8316 31033 31333 8256 8255 31338
8 31029 31030 31035 31034 31334 31335 31340 31339
8 31030 31031 31036 31035 31335 31336 31341 31340
8 31031 31032 31037 31036 31336 31337 31342 31341
8 31032 31033 31038 31037 31337 31338 31343 31342
8 31033 8316 8315 31038 31338 8255 8254 31343
8 31034 31035 31040 31039 31339 31340 31345 31344
8 31035 31036 31041 31040 31340 31341 31346 31345
8 31036 31037 31042 31041 31341 31342 31347 31346
8 31037 31038 31043 31042 31342 31343 31348 31347
8 31038 8315 8314 31043 31343 8254 8253 31348
8 31039 31040 31045 31044 31344 31345 31350 31349
8 31040 31041 31046 31045 31345 31346 31351 31350
8 31041 31042 31047 31046 31346 31347 31352 31351
8 31042 31043 31048 31047 31347 31348 31353 31352
8 31043 8314 8313 31048 31348 8253 8252 31353
8 31044 31045 31050 31049 31349 31350 31355 31354
8 31045 31046 31051 31050 31350 31351 31356 31355
8 31046 31047 31052 31051 31351 31352 31357 31356
8 31047 31048 31053 31052 31352 31353 31358 31357
8 31048 8313 8312 31053 31353 8252 8251 31358
8 31049 31050 31055 31054 31354 31355 31360 31359
8 31050 31051 31056 31055 31355 31356 31361 31360
8 31051 31052 31057 31056 31356 31357 31362 31361
8 31052 31053 31058 31057 31357 31358 31363 31362
8 31053 8312 8311 31058 31358 8251 8250 31363
8 31054 31055 31060 31059 31359 31360 31365 31364
8 31055 31056 31061 31060 31360 31361 31366 31365
8 31056 31057 31062 31061 31361 31362 31367 31366
8 31057 31058 31063 31062 31362 31363 31368 31367
8 31058 8311 8310 31063 31363 8250 8249 31368
8 31059 31060 31065 31064 31364 31365 31370 31369
8 31060 31061 31066 31065 31365 31366 31371 31370
8 31061 31062 31067 31066 31366 31367 31372 31371
8 31062 31063 31068 31067 31367 31368 31373 31372
8 31063 8310 8309 31068 31368 8249 8248 31373
8 31064 31065 31070 31069 31369 31370 31375 31374
8 31065 31066 31071 31070 31370 31371 31376 31375
8 31066 31067 31072 31071 31371 31372 31377 31376
8 31067 31068 31073 31072 31372 31373 31378 31377
8 31068 8309 8308 31073 31373 8248 8247 31378
8 31069 31070 31075 31074 31374 31375 31380 31379
8 31070 31071 31076 31075 31375 31376 31381 31380
8 31071 31072 31077 31076 31376 31377 31382 31381
8 31072 31073 31078 31077 31377 31378 31383 31382
8 31073 8308 8307 31078 31378 8247 8246 31383
8 2443 31074 31079 2444 2382 31379 31384 2383
8 31074 31075 31080 31079 31379 31380 31385 31384
8 31075 31076 31081 31080 31380 31381 31386 31385
8 31076 31077 31082 31081 31381 31382 31387 31386
8 31077 31078 31083 31082 31382 31383 31388 31387
8 31078 8307 8306 31083 31383 8246 8245 31388
8 2444 31079 12799 98 2383 31384 12794 97
8 31079 31080 12800 12799 31384 31385 12795 12794
8 31080 31081 12801 12800 31385 31386 12796 12795
8 31081 31082 12802 12801 31386 31387 12797 12796
8 31082 31083 12803 12802 31387 31388 12798 12797
8 31083 8306 6197 12803 31388 8245 6198 12798
8 276 12144 31084 2323 277 12149 31389 2262
8 12144 12145 31085 31084 12149 12150 31390 31389
8 12145 12146 31086 31085 12150 12151 31391 31390
8 12146 12147 31087 31086 12151 12152 31392 31391
8 12147 12148 31088 31087 12152 12153 31393 31392
8 12148 6019 8305 31088 12153 6018 8244 31393
8 2323 31084 31089 2324 2262 31389 31394 2263
8 31084 31085 31090 31089 31389 31390 31395 31394
8 31085 31086 31091 31090 31390 31391 31396 31395
8 31086 31087 31092 31091 31391 31392 31397 31396
8 31087 31088 31093 31092 31392 31393 31398 31397
8 31088 8305 8304 31093 31393 8244 8243 31398
8 2324 31089 31094 2325 2263 31394 31399 2264
8 31089 31090 31095 31094 31394 31395 31400 31399
8 31090 31091 31096 31095 31395 31396 31401 31400
8 31091 31092 31097 31096 31396 31397 31402 31401
8 31092 31093 31098 31097 31397 31398 31403 31402
8 31093 8304 8303 31098 31398 8243 8242 31403
8 2325 31094 31099 2326 2264 31399 31404 2265
8 31094 31095 31100 31099 31399 31400 31405 31404
8 31095 31096 31101 31100 31400 31401 31406 31405
8 31096 31097 31102 31101 31401 31402 31407 31406
8 31097 31098 31103 31102 31402 31403 31408 31407
8 31098 8303 8302 31103 31403 8242 8241 31408
8 2326 31099 31104 2327 2265 31404 31409 2266
8 31099 31100 31105 31104 31404 31405 31410 31409
8 31100 31101 31106 31105 31405 31406 31411 31410
8 31101 31102 31107 31106 31406 31407 31412 31411
8 31102 31103 31108 31107 31407 31408 31413 31412
8 31103 8302 8301 31108 31408 8241 8240 31413
8 2327 31104 31109 2328 2266 31409 31414 2267
8 31104 31105 31110 31109 31409 31410 31415 31414
8 31105 31106 31111 31110 31410 31411 31416 31415
8 31106 31107 31112 31111 31411 31412 31417 31416
8 31107 31108 31113 31112 31412 31413 31418 31417
8 31108 8301 8300 31113 31413 8240 8239 31418
8 2328 31109 31114 2329 2267 31414 31419 2268
8 31109 31110 31115 31114 31414 31415 31420 31419
8 31110 31111 31116 31115 31415 31416 31421 31420
8 31111 31112 31117 31116 31416 31417 31422 31421
8 31112 31113 31118 31117 31417 31418 31423 31422
8 31113 8300 8299 31118 31418 8239 8238 31423
8 2329 31114 31119 2330 2268 31419 31424 2269
8 31114 31115 31120 31119 31419 31420 31425 31424
8 31115 31116 31121 31120 31420 31421 31426 31425
8 31116 31117 31122 31121 31421 31422 31427 31426
8 31117 31118 31123 31122 31422 31423 31428 31427
8 31118 8299 8298 31123 31423 8238 8237 31428
8 2330 31119 31124 2331 2269 31424 31429 2270
8 31119 31120 31125 31124 31424 31425 31430 31429
8 31120 31121 31126 31125 31425 31426 31431 31430
8 31121 31122 31127 31126 31426 31427 31432 31431
8 31122 31123 31128 31127 31427 31428 31433 31432
8 31123 8298 8297 31128 31428 8237 8236 31433
8 2331 31124 31129 2332 2270 31429 31434 2271
8 31124 31125 31130 31129 31429 31430 31435 31434
8 31125 31126 31131 31130 31430 31431 31436 31435
8 31126 31127 31132 31131 31431 31432 31437 31436
8 31127 31128 31133 31132 31432 31433 31438 31437
8 31128 8297 8296 31133 31433 8236 8235 31438
8 2332 31129 31134 2333 2271 31434 31439 2272
8 31129 31130 31135 31134 31434 31435 31440 31439
8 31130 31131 31136 31135 31435 31436 31441 31440
8 31131 31132 31137 31136 31436 31437 31442 31441
8 31132 31133 31138 31137 31437 31438 31443 31442
8 31133 8296 8295 31138 31438 8235 8234 31443
8 2333 31134 31139 2334 2272 31439 31444 2273
8 31134 31135 31140 31139 31439 31440 31445 31444
8 31135 31136 31141 31140 31440 31441 31446 31445
8 31136 31137 31142 31141 31441 31442 31447 31446
8 31137 31138 31143 31142 31442 31443 31448 31447
8 31138 8295 8294 31143 31443 8234 8233 31448
8 2334 31139 31144 2335 2273 31444 31449 2274
8 31139 31140 31145 31144 31444 31445 31450 31449
8 31140 31141 31146 31145 31445 31446 31451 31450
8 31141 31142 31147 31146 31446 31447 31452 31451
8 31142 31143 31148 31147 31447 31448 31453 31452
8 31143 8294 8293 31148 31448 8233 8232 31453
8 2335 31144 31149 2336 2274 31449 31454 2275
8 31144 31145 31150 31149 31449 31450 31455 31454
8 31145 31146 31151 31150 31450 31451 31456 31455
8 31146 31147 31152 31151 31451 31452 31457 31456
8 31147 31148 31153 31152 31452 31453 31458 31457
8 31148 8293 8292 31153 31453 8232 8231 31458
8 2336 31149 31154 2337 2275 31454 31459 2276
8 31149 31150 31155 31154 31454 31455 31460 31459
8 31150 31151 31156 31155 31455 31456 31461 31460
8 31151 31152 31157 31156 31456 31457 31462 31461
8 31152 31153 31158 31157 31457 31458 31463 31462
8 31153 8292 8291 31158 31458 8231 8230 31463
8 2337 31154 31159 2338 2276 31459 31464 2277
8 31154 31155 31160 31159 31459 31460 31465 31464
8 31155 31156 31161 31160 31460 31461 31466 31465
8 31156 31157 31162 31161 31461 31462 31467 31466
8 31157 31158 31163 31162 31462 31463 31468 31467
8 31158 8291 8290 31163 31463 8230 8229 31468
8 2338 31159 31164 2339 2277 31464 31469 2278
8 31159 31160 31165 31164 31464 31465 31470 31469
8 31160 31161 31166 31165 31465 31466 31471 31470
8 31161 31162 31167 31166 31466 31467 31472 31471
8 31162 31163 31168 31167 31467 31468 31473 31472
8 31163 8290 8289 31168 31468 8229 8228 31473
8 2339 31164 31169 2340 2278 31469 31474 2279
8 31164 31165 31170 31169 31469 31470 31475 31474
8 31165 31166 31171 31170 31470 31471 31476 31475
8 31166 31167 31172 31171 31471 31472 31477 31476
8 31167 31168 31173 31172 31472 31473 31478 31477
8 31168 8289 8288 31173 31473 8228 8227 31478
8 2340 31169 31174 2341 2279 31474 31479 2280
8 31169 31170 31175 31174 31474 31475 31480 31479
8 31170 31171 31176 31175 31475 31476 31481 31480
8 31171 31172 31177 31176 31476 31477 31482 31481
8 31172 31173 31178 31177 31477 31478 31483 31482
8 31173 8288 8287 31178 31478 8227 8226 31483
8 2341 31174 31179 2342 2280 31479 31484 2281
8 31174 31175 31180 31179 31479 31480 31485 31484
8 31175 31176 31181 31180 31480 31481 31486 31485
8 31176 31177 31182 31181 31481 31482 31487 31486
8 31177 31178 31183 31182 31482 31483 31488 31487
8 31178 8287 8286 31183 31483 8226 8225 31488
8 2342 31179 31184 2343 2281 31484 31489 2282
8 31179 31180 31185 31184 31484 31485 31490 31489
8 31180 31181 31186 31185 31485 31486 31491 31490
8 31181 31182 31187 31186 31486 31487 31492 31491
8 31182 31183 31188 31187 31487 31488 31493 31492
8 31183 8286 8285 31188 31488 8225 8224 31493
8 2343 31184 31189 2344 2282 31489 31494 2283
8 31184 31185 31190 31189 31489 31490 31495 31494
8 31185 31186 31191 31190 31490 31491 31496 31495
8 31186 31187 31192 31191 31491 31492 31497 31496
8 31187 31188 31193 31192 31492 31493 31498 31497
8 31188 8285 8284 31193 31493 8224 8223 31498
8 2344 31189 31194 2345 2283 31494 31499 2284
8 31189 31190 31195 31194 31494 31495 31500 31499
8 31190 31191 31196 31195 31495 31496 31501 31500
8 31191 31192 31197 31196 31496 31497 31502 31501
8 31192 31193 31198 31197 31497 31498 31503 31502
8 31193 8284 8283 31198 31498 8223 8222 31503
8 2345 31194 31199 2346 2284 31499 31504 2285
8 31194 31195 31200 31199 31499 31500 31505 31504
8 31195 31196 31201 31200 31500 31501 31506 31505
8 31196 31197 31202 31201 31501 31502 31507 31506
8 31197 31198 31203 31202 31502 31503 31508 31507
8 31198 8283 8282 31203 31503 8222 8221 31508
8 2346 31199 31204 2347 2285 31504 31509 2286
8 31199 31200 31205 31204 31504 31505 31510 31509
8 31200 31201 31206 31205 31505 31506 31511 31510
8 31201 31202 31207 31206 31506 31507 31512 31511
8 31202 31203 31208 31207 31507 31508 31513 31512
8 31203 8282 8281 31208 31508 8221 8220 31513
8 2347 31204 31209 2348 2286 31509 31514 2287
8 31204 31205 31210 31209 31509 31510 31515 31514
8 31205 31206 31211 31210 31510 31511 31516 31515
8 31206 31207 31212 31211 31511 31512 31517 31516
8 31207 31208 31213 31212 31512 31513 31518 31517
8 31208 8281 8280 31213 31513 8220 8219 31518
8 2348 31209 31214 2349 2287 31514 31519 2288
8 31209 31210 31215 31214 31514 31515 31520 31519
8 31210 31211 31216 31215 31515 31516 31521 31520
8 31211 31212 31217 31216 31516 31517 31522 31521
8 31212 31213 31218 31217 31517 31518 31523 31522
8 31213 8280 8279 31218 31518 8219 8218 31523
8 2349 31214 31219 2350 2288 31519 31524 2289
8 31214 31215 31220 31219 31519 31520 31525 31524
8 31215 31216 31221 31220 31520 31521 31526 31525
8 31216 31217 31222 31221 31521 31522 31527 31526
8 31217 31218 31223 31222 31522 31523 31528 31527
8 31218 8279 8278 31223 31523 8218 8217 31528
8 2350 31219 31224 2351 2289 31524 31529 2290
8 31219 31220 31225 31224 31524 31525 31530 31529
8 31220 31221 31226 31225 31525 31526 31531 31530
8 31221 31222 31227 31226 31526 31527 31532 31531
8 31222 31223 31228 31227 31527 31528 31533 31532
8 31223 8278 8277 31228 31528 8217 8216 31533
8 2351 31224 31229 2352 2290 31529 31534 2291
8 31224 31225 31230 31229 31529 31530 31535 31534
8 31225 31226 31231 31230 31530 31531 31536 31535
8 31226 31227 31232 31231 31531 31532 31537 31536
8 31227 31228 31233 31232 31532 31533 31538 31537
8 31228 8277 8276 31233 31533 8216 8215 31538
8 2352 31229 31234 2353 2291 31534 31539 2292
8 31229 31230 31235 31234 31534 31535 31540 31539
8 31230 31231 31236 31235 31535 31536 31541 31540
8 31231 31232 31237 31236 31536 31537 31542 31541
8 31232 31233 31238 31237 31537 31538 31543 31542
8 31233 8276 8275 31238 31538 8215 8214 31543
8 2353 31234 31239 2354 2292 31539 31544 2293
8 31234 31235 31240 31239 31539 31540 31545 31544
8 31235 31236 31241 31240 31540 31541 31546 31545
8 31236 31237 31242 31241 31541 31542 31547 31546
8 31237 31238 31243 31242 31542 31543 31548 31547
8 31238 8275 8274 31243 31543 8214 8213 31548
8 2354 31239 31244 2355 2293 31544 31549 2294
8 31239 31240 31245 31244 31544 31545 31550 31549
8 31240 31241 31246 31245 31545 31546 31551 31550
8 31241 31242 31247 31246 31546 31547 31552 31551
8 31242 31243 31248 31247 31547 31548 31553 31552
8 31243 8274 8273 31248 31548 8213 8212 31553
8 2355 31244 31249 2356 2294 31549 31554 2295
8 31244 31245 31250 31249 31549 31550 31555 31554
8 31245 31246 31251 31250 31550 31551 31556 31555
8 31246 31247 31252 31251 31551 31552 31557 31556
8 31247 31248 31253 31252 31552 31553 31558 31557
8 31248 8273 8272 31253 31553 8212 8211 31558
8 2356 31249 31254 2357 2295 31554 31559 2296
8 31249 31250 31255 31254 31554 31555 31560 31559
8 31250 31251 31256 31255 31555 31556 31561 31560
8 31251 31252 31257 31256 31556 31557 31562 31561
8 31252 31253 31258 31257 31557 31558 31563 31562
8 31253 8272 8271 31258 31558 8211 8210 31563
8 2357 31254 31259 2358 2296 31559 31564 2297
8 31254 31255 31260 31259 31559 31560 31565 31564
8 31255 31256 31261 31260 31560 31561 31566 31565
8 31256 31257 31262 31261 31561 31562 31567 31566
8 31257 31258 31263 31262 31562 31563 31568 31567
8 31258 8271 8270 31263 31563 8210 8209 31568
8 2358 31259 31264 2359 2297 31564 31569 2298
8 31259 31260 31265 31264 31564 31565 31570 31569
8 31260 31261 31266 31265 31565 31566 31571 31570
8 31261 31262 31267 31266 31566 31567 31572 31571
8 31262 31263 31268 31267 31567 31568 31573 31572
8 31263 8270 8269 31268 31568 8209 8208 31573
8 2359 31264 31269 2360 2298 31569 31574 2299
8 31264 31265 31270 31269 31569 31570 31575 31574
8 31265 31266 31271 31270 31570 31571 31576 31575
8 31266 31267 31272 31271 31571 31572 31577 31576
8 31267 31268 31273 31272 31572 31573 31578 31577
8 31268 8269 8268 31273 31573 8208 8207 31578
8 2360 31269 31274 2361 2299 31574 31579 2300
8 31269 31270 31275 31274 31574 31575 31580 31579
8 31270 31271 31276 31275 31575 31576 31581 31580
8 31271 31272 31277 31276 31576 31577 31582 31581
8 31272 31273 31278 31277 31577 31578 31583 31582
8 31273 8268 8267 31278 31578 8207 8206 31583
8 2361 31274 31279 2362 2300 31579 31584 2301
8 31274 31275 31280 31279 31579 31580 31585 31584
8 31275 31276 31281 31280 31580 31581 31586 31585
8 31276 31277 31282 31281 31581 31582 31587 31586
8 31277 31278 31283 31282 31582 31583 31588 31587
8 31278 8267 8266 31283 31583 8206 8205 31588
8 2362 31279 31284 2363 2301 31584 31589 2302
8 31279 31280 31285 31284 31584 31585 31590 31589
8 31280 31281 31286 31285 31585 31586 31591 31590
8 31281 31282 31287 31286 31586 31587 31592 31591
8 31282 31283 31288 31287 31587 31588 31593 31592
8 31283 8266 8265 31288 31588 8205 8204 31593
8 2363 31284 31289 2364 2302 31589 31594 2303
8 31284 31285 31290 31289 31589 31590 31595 31594
8 31285 31286 31291 31290 31590 31591 31596 31595
8 31286 31287 31292 31291 31591 31592 31597 31596
8 31287 31288 31293 31292 31592 31593 31598 31597
8 31288 8265 8264 31293 31593 8204 8203 31598
8 2364 31289 31294 2365 2303 31594 31599 2304
8 31289 31290 31295 31294 31594 31595 31600 31599
8 31290 31291 31296 31295 31595 31596 31601 31600
8 31291 31292 31297 31296 31596 31597 31602 31601
8 31292 31293 31298 31297 31597 31598 31603 31602
8 31293 8264 8263 31298 31598 8203 8202 31603
8 2365 31294 31299 2366 2304 31599 31604 2305
8 31294 31295 31300 31299 31599 31600 31605 31604
8 31295 31296 31301 31300 31600 31601 31606 31605
8 31296 31297 31302 31301 31601 31602 31607 31606
8 31297 31298 31303 31302 31602 31603 31608 31607
8 31298 8263 8262 31303 31603 8202 8201 31608
8 2366 31299 31304 2367 2305 31604 31609 2306
8 31299 31300 31305 31304 31604 31605 31610 31609
8 31300 31301 31306 31305 31605 31606 31611 31610
8 31301 31302 31307 31306 31606 31607 31612 31611
8 31302 31303 31308 31307 31607 31608 31613 31612
8 31303 8262 8261 31308 31608 8201 8200 31613
8 31304 31305 31310 31309 31609 31610 31615 31614
8 31305 31306 31311 31310 31610 31611 31616 31615
8 31306 31307 31312 31311 31611 31612 31617 31616
8 31307 31308 31313 31312 31612 31613 31618 31617
8 31308 8261 8260 31313 31613 8200 8199 31618
8 31309 31310 31315 31314 31614 31615 31620 31619
8 31310 31311 31316 31315 31615 31616 31621 31620
8 31311 31312 31317 31316 31616 31617 31622 31621
8 31312 31313 31318 31317 31617 31618 31623 31622
8 31313 8260 8259 31318 31618 8199 8198 31623
8 31314 31315 31320 31319 31619 31620 31625 31624
8 31315 31316 31321 31320 31620 31621 31626 31625
8 31316 31317 31322 31321 31621 31622 31627 31626
8 31317 31318 31323 31322 31622 31623 31628 31627
8 31318 8259 8258 31323 31623 8198 8197 31628
8 31319 31320 31325 31324 31624 31625 31630 31629
8 31320 31321 31326 31325 31625 31626 31631 31630
8 31321 31322 31327 31326 31626 31627 31632 31631
8 31322 31323 31328 31327 31627 31628 31633 31632
8 31323 8258 8257 31328 31628 8197 8196 31633
8 31324 31325 31330 31329 31629 31630 31635 31634
8 31325 31326 31331 31330 31630 31631 31636 31635
8 31326 31327 31332 31331 31631 31632 31637 31636
8 31327 31328 31333 31332 31632 31633 31638 31637
8 31328 8257 8256 31333 31633 8196 8195 31638
8 31329 31330 31335 31334 31634 31635 31640 31639
8 31330 31331 31336 31335 31635 31636 31641 31640
8 31331 31332 31337 31336 31636 31637 31642 31641
8 31332 31333 31338 31337 31637 31638 31643 31642
8 31333 8256 8255 31338 31638 8195 8194 31643
8 31334 31335 31340 31339 31639 31640 31645 31644
8 31335 31336 31341 31340 31640 31641 31646 31645
8 31336 31337 31342 31341 31641 31642 31647 31646
8 31337 31338 31343 31342 31642 31643 31648 31647
8 31338 8255 8254 31343 31643 8194 8193 31648
8 31339 31340 31345 31344 31644 31645 31650 31649
8 31340 31341 31346 31345 31645 31646 31651 31650
8 31341 31342 31347 31346 31646 31647 31652 31651
8 31342 31343 31348 31347 31647 31648 31653 31652
8 31343 8254 8253 31348 31648 8193 8192 31653
8 31344 31345 31350 31349 31649 31650 31655 31654
8 31345 31346 31351 31350 31650 31651 31656 31655
8 31346 31347 31352 31351 31651 31652 31657 31656
8 31347 31348 31353 31352 31652 31653 31658 31657
8 31348 8253 8252 31353 31653 8192 8191 31658
8 31349 31350 31355 31354 31654 31655 31660 31659
8 31350 31351 31356 31355 31655 31656 31661 31660
8 31351 31352 31357 31356 31656 31657 31662 31661
8 31352 31353 31358 31357 31657 31658 31663 31662
8 31353 8252 8251 31358 31658 8191 8190 31663
8 31354 31355 31360 31359 31659 31660 31665 31664
8 31355 31356 31361 31360 31660 31661 31666 31665
8 31356 31357 31362 31361 31661 31662 31667 31666
8 31357 31358 31363 31362 31662 31663 31668 31667
8 31358 8251 8250 31363 31663 8190 8189 31668
8 31359 31360 31365 31364 31664 31665 31670 31669
8 31360 31361 31366 31365 31665 31666 31671 31670
8 31361 31362 31367 31366 31666 31667 31672 31671
8 31362 31363 31368 31367 31667 31668 31673 31672
8 31363 8250 8249 31368 31668 8189 8188 31673
8 31364 31365 31370 31369 31669 31670 31675 31674
8 31365 31366 31371 31370 31670 31671 31676 31675
8 31366 31367 31372 31371 31671 31672 31677 31676
8 31367 31368 31373 31372 31672 31673 31678 31677
8 31368 8249 8248 31373 31673 8188 8187 31678
8 31369 31370 31375 31374 31674 31675 31680 31679
8 31370 31371 31376 31375 31675 31676 31681 31680
8 31371 31372 31377 31376 31676 31677 31682 31681
8 31372 31373 31378 31377 31677 31678 31683 31682
8 31373 8248 8247 31378 31678 8187 8186 31683
8 31374 31375 31380 31379 31679 31680 31685 31684
8 31375 31376 31381 31380 31680 31681 31686 31685
8 31376 31377 31382 31381 31681 31682 31687 31686
8 31377 31378 31383 31382 31682 31683 31688 31687
8 31378 8247 8246 31383 31683 8186 8185 31688
8 2382 31379 31384 2383 2321 31684 31689 2322
8 31379 31380 31385 31384 31684 31685 31690 31689
8 31380 31381 31386 31385 31685 31686 31691 31690
8 31381 31382 31387 31386 31686 31687 31692 31691
8 31382 31383 31388 31387 31687 31688 31693 31692
8 31383 8246 8245 31388 31688 8185 8184 31693
8 2383 31384 12794 97 2322 31689 12789 96
8 31384 31385 12795 12794 31689 31690 12790 12789
8 31385 31386 12796 12795 31690 31691 12791 12790
8 31386 31387 12797 12796 31691 31692 12792 12791
8 31387 31388 12798 12797 31692 31693 12793 12792
8 31388 8245 6198 12798 31693 8184 6199 12793
8 277 12149 31389 2262 278 12154 31694 2201
8 12149 12150 31390 31389 12154 12155 31695 31694
8 12150 12151 31391 31390 12155 12156 31696 31695
8 12151 12152 31392 31391 12156 12157 31697 31696
8 12152 12153 31393 31392 12157 12158 31698 31697
8 12153 6018 8244 31393 12158 6017 8183 31698
8 2262 31389 31394 2263 2201 31694 31699 2202
8 31389 31390 31395 31394 31694 31695 31700 31699
8 31390 31391 31396 31395 31695 31696 31701 31700
8 31391 31392 31397 31396 31696 31697 31702 31701
8 31392 31393 31398 31397 31697 31698 31703 31702
8 31393 8244 8243 31398 31698 8183 8182 31703
8 2263 31394 31399 2264 2202 31699 31704 2203
8 31394 31395 31400 31399 31699 31700 31705 31704
8 31395 31396 31401 31400 31700 31701 31706 31705
8 31396 31397 31402 31401 31701 31702 31707 31706
8 31397 31398 31403 31402 31702 31703 31708 31707
8 31398 8243 8242 31403 31703 8182 8181 31708
8 2264 31399 31404 2265 2203 31704 31709 2204
8 31399 31400 31405 31404 31704 31705 31710 31709
8 31400 31401 31406 31405 31705 31706 31711 31710
8 31401 31402 31407 31406 31706 31707 31712 31711
8 31402 31403 31408 31407 31707 31708 31713 31712
8 31403 8242 8241 31408 31708 8181 8180 31713
8 2265 31404 31409 2266 2204 31709 31714 2205
8 31404 31405 31410 31409 31709 31710 31715 31714
8 31405 31406 31411 31410 31710 31711 31716 31715
8 31406 31407 31412 31411 31711 31712 31717 31716
8 31407 31408 31413 31412 31712 31713 31718 31717
8 31408 8241 8240 31413 31713 8180 8179 31718
8 2266 31409 31414 2267 2205 31714 31719 2206
8 31409 31410 31415 31414 31714 31715 31720 31719
8 31410 31411 31416 31415 31715 31716 31721 31720
8 31411 31412 31417 31416 31716 31717 31722 31721
8 31412 31413 31418 31417 31717 31718 31723 31722
8 31413 8240 8239 31418 31718 8179 8178 31723
8 2267 31414 31419 2268 2206 31719 31724 2207
8 31414 31415 31420 31419 31719 31720 31725 31724
8 31415 31416 31421 31420 31720 31721 31726 31725
8 31416 31417 31422 31421 31721 31722 31727 31726
8 31417 31418 31423 31422 31722 31723 31728 31727
8 31418 8239 8238 31423 31723 8178 8177 31728
8 2268 31419 31424 2269 2207 31724 31729 2208
8 31419 31420 31425 31424 31724 31725 31730 31729
8 31420 31421 31426 31425 31725 31726 31731 31730
8 31421 31422 31427 31426 31726 31727 31732 31731
8 31422 31423 31428 31427 31727 31728 31733 31732
8 31423 8238 8237 31428 31728 8177 8176 31733
8 2269 31424 31429 2270 2208 31729 31734 2209
8 31424 31425 31430 31429 31729 31730 31735 31734
8 31425 31426 31431 31430 31730 31731 31736 31735
8 31426 31427 31432 31431 31731 31732 31737 31736
8 31427 31428 31433 31432 31732 31733 31738 31737
8 31428 8237 8236 31433 31733 8176 8175 31738
8 2270 31429 31434 2271 2209 31734 31739 2210
8 31429 31430 31435 31434 31734 31735 31740 31739
8 31430 31431 31436 31435 31735 31736 31741 31740
8 31431 31432 31437 31436 31736 31737 31742 31741
8 31432 31433 31438 31437 31737 31738 31743 31742
8 31433 8236 8235 31438 31738 8175 8174 31743
8 2271 31434 31439 2272 2210 31739 31744 2211
8 31434 31435 31440 31439 31739 31740 31745 31744
8 31435 31436 31441 31440 31740 31741 31746 31745
8 31436 31437 31442 31441 31741 31742 31747 31746
8 31437 31438 31443 31442 31742 31743 31748 31747
8 31438 8235 8234 31443 31743 8174 8173 31748
8 2272 31439 31444 2273 2211 31744 31749 2212
8 31439 31440 31445 31444 31744 31745 31750 31749
8 31440 31441 31446 31445 31745 31746 31751 31750
8 31441 31442 31447 31446 31746 31747 31752 31751
8 31442 31443 31448 31447 31747 31748 31753 31752
8 31443 8234 8233 31448 31748 8173 8172 31753
8 2273 31444 31449 2274 2212 31749 31754 2213
8 31444 31445 31450 31449 31749 31750 31755 31754
8 31445 31446 31451 31450 31750 31751 31756 31755
8 31446 31447 31452 31451 31751 31752 31757 31756
8 31447 31448 31453 31452 31752 31753 31758 31757
8 31448 8233 8232 31453 31753 8172 8171 31758
8 2274 31449 31454 2275 2213 31754 31759 2214
8 31449 31450 31455 31454 31754 31755 31760 31759
8 31450 31451 31456 31455 31755 31756 31761 31760
8 31451 31452 31457 31456 31756 31757 31762 31761
8 31452 31453 31458 31457 31757 31758 31763 31762
8 31453 8232 8231 31458 31758 8171 8170 31763
8 2275 31454 31459 2276 2214 31759 31764 2215
8 31454 31455 31460 31459 31759 31760 31765 31764
8 31455 31456 31461 31460 31760 31761 31766 31765
8 31456 31457 31462 31461 31761 31762 31767 31766
8 31457 31458 31463 31462 31762 31763 31768 31767
8 31458 8231 8230 31463 31763 8170 8169 31768
8 2276 31459 31464 2277 2215 31764 31769 2216
8 31459 31460 31465 31464 31764 31765 31770 31769
8 31460 31461 31466 31465 31765 31766 31771 31770
8 31461 31462 31467 31466 31766 31767 31772 31771
8 31462 31463 31468 31467 31767 31768 31773 31772
8 31463 8230 8229 31468 31768 8169 8168 31773
8 2277 31464 31469 2278 2216 31769 31774 2217
8 31464 31465 31470 31469 31769 31770 31775 31774
8 31465 31466 31471 31470 31770 31771 31776 31775
8 31466 31467 31472 31471 31771 31772 31777 31776
8 31467 31468 31473 31472 31772 31773 31778 31777
8 31468 8229 8228 31473 31773 8168 8167 31778
8 2278 31469 31474 2279 2217 31774 31779 2218
8 31469 31470 31475 31474 31774 31775 31780 31779
8 31470 31471 31476 31475 31775 31776 31781 31780
8 31471 31472 31477 31476 31776 31777 31782 31781
8 31472 31473 31478 31477 31777 31778 31783 31782
8 31473 8228 8227 31478 31778 8167 8166 31783
8 2279 31474 31479 2280 2218 31779 31784 2219
8 31474 31475 31480 31479 31779 31780 31785 31784
8 31475 31476 31481 31480 31780 31781 31786 31785
8 31476 31477 31482 31481 31781 31782 31787 31786
8 31477 31478 31483 31482 31782 31783 31788 31787
8 31478 8227 8226 31483 31783 8166 8165 31788
8 2280 31479 31484 2281 2219 31784 31789 2220
8 31479 31480 31485 31484 31784 31785 31790 31789
8 31480 31481 31486 31485 31785 31786 31791 31790
8 31481 31482 31487 31486 31786 31787 31792 31791
8 31482 31483 31488 31487 31787 31788 31793 31792
8 31483 8226 8225 31488 31788 8165 8164 31793
8 2281 31484 31489 2282 2220 31789 31794 2221
8 31484 31485 31490 31489 31789 31790 31795 31794
8 31485 31486 31491 31490 31790 31791 31796 31795
8 31486 31487 31492 31491 31791 31792 31797 31796
8 31487 31488 31493 31492 31792 31793 31798 31797
8 31488 8225 8224 31493 31793 8164 8163 31798
8 2282 31489 31494 2283 2221 31794 31799 2222
8 31489 31490 31495 31494 31794 31795 31800 31799
8 31490 31491 31496 31495 31795 31796 31801 31800
8 31491 31492 31497 31496 31796 31797 31802 31801
8 31492 31493 31498 31497 31797 31798 31803 31802
8 31493 8224 8223 31498 31798 8163 8162 31803
8 2283 31494 31499 2284 2222 31799 31804 2223
8 31494 31495 31500 31499 31799 31800 31805 31804
8 31495 31496 31501 31500 31800 31801 31806 31805
8 31496 31497 31502 31501 31801 31802 31807 31806
8 31497 31498 31503 31502 31802 31803 31808 31807
8 31498 8223 8222 31503 31803 8162 8161 31808
8 2284 31499 31504 2285 2223 31804 31809 2224
8 31499 31500 31505 31504 31804 31805 31810 31809
8 31500 31501 31506 31505 31805 31806 31811 31810
8 31501 31502 31507 31506 31806 31807 31812 31811
8 31502 31503 31508 31507 31807 31808 31813 31812
8 31503 8222 8221 31508 31808 8161 8160 31813
8 2285 31504 31509 2286 2224 31809 31814 2225
8 31504 31505 31510 31509 31809 31810 31815 31814
8 31505 31506 31511 31510 31810 31811 31816 31815
8 31506 31507 31512 31511 31811 31812 31817 31816
8 31507 31508 31513 31512 31812 31813 31818 31817
8 31508 8221 8220 31513 31813 8160 8159 31818
8 2286 31509 31514 2287 2225 31814 31819 2226
8 31509 31510 31515 31514 31814 31815 31820 31819
8 31510 31511 31516 31515 31815 31816 31821 31820
8 31511 31512 31517 31516 31816 31817 31822 31821
8 31512 31513 31518 31517 31817 31818 31823 31822
8 31513 8220 8219 31518 31818 8159 8158 31823
8 2287 31514 31519 2288 2226 31819 31824 2227
8 31514 31515 31520 31519 31819 31820 31825 31824
8 31515 31516 31521 31520 31820 31821 31826 31825
8 31516 31517 31522 31521 31821 31822 31827 31826
8 31517 31518 31523 31522 31822 31823 31828 31827
8 31518 8219 8218 31523 31823 8158 8157 31828
8 2288 31519 31524 2289 2227 31824 31829 2228
8 31519 31520 31525 31524 31824 31825 31830 31829
8 31520 31521 31526 31525 31825 31826 31831 31830
8 31521 31522 31527 31526 31826 31827 31832 31831
8 31522 31523 31528 31527 31827 31828 31833 31832
8 31523 8218 8217 31528 31828 8157 8156 31833
8 2289 31524 31529 2290 2228 31829 31834 2229
8 31524 31525 31530 31529 31829 31830 31835 31834
8 31525 31526 31531 31530 31830 31831 31836 31835
8 31526 31527 31532 31531 31831 31832 31837 31836
8 31527 31528 31533 31532 31832 31833 31838 31837
8 31528 8217 8216 31533 31833 8156 8155 31838
8 2290 31529 31534 2291 2229 31834 31839 2230
8 31529 31530 31535 31534 31834 31835 31840 31839
8 31530 31531 31536 31535 31835 31836 31841 31840
8 31531 31532 31537 31536 31836 31837 31842 31841
8 31532 31533 31538 31537 31837 31838 31843 31842
8 31533 8216 8215 31538 31838 8155 8154 31843
8 2291 31534 31539 2292 2230 31839 31844 2231
8 31534 31535 31540 31539 31839 31840 31845 31844
8 31535 31536 31541 31540 31840 31841 31846 31845
8 31536 31537 31542 31541 31841 31842 31847 31846
8 31537 31538 31543 31542 31842 31843 31848 31847
8 31538 8215 8214 31543 31843 8154 8153 31848
8 2292 31539 31544 2293 2231 31844 31849 2232
8 31539 31540 31545 31544 31844 31845 31850 31849
8 31540 31541 31546 31545 31845 31846 31851 31850
8 31541 31542 31547 31546 31846 31847 31852 31851
8 31542 31543 31548 31547 31847 31848 31853 31852
8 31543 8214 8213 31548 31848 8153 8152 31853
8 2293 31544 31549 2294 2232 31849 31854 2233
8 31544 31545 31550 31549 31849 31850 31855 31854
8 31545 31546 31551 31550 31850 31851 31856 31855
8 31546 31547 31552 31551 31851 31852 31857 31856
8 31547 31548 31553 31552 31852 31853 31858 31857
8 31548 8213 8212 31553 31853 8152 8151 31858
8 2294 31549 31554 2295 2233 31854 31859 2234
8 31549 31550 31555 31554 31854 31855 31860 31859
8 31550 31551 31556 31555 31855 31856 31861 31860
8 31551 31552 31557 31556 31856 31857 31862 31861
8 31552 31553 31558 31557 31857 31858 31863 31862
8 31553 8212 8211 31558 31858 8151 8150 31863
8 2295 31554 31559 2296 2234 31859 31864 2235
8 31554 31555 31560 31559 31859 31860 31865 31864
8 31555 31556 31561 31560 31860 31861 31866 31865
8 31556 31557 31562 31561 31861 31862 31867 31866
8 31557 31558 31563 31562 31862 31863 31868 31867
8 31558 8211 8210 31563 31863 8150 8149 31868
8 2296 31559 31564 2297 2235 31864 31869 2236
8 31559 31560 31565 31564 31864 31865 31870 31869
8 31560 31561 31566 31565 31865 31866 31871 31870
8 31561 31562 31567 31566 31866 31867 31872 31871
8 31562 31563 31568 31567 31867 31868 31873 31872
8 31563 8210 8209 31568 31868 8149 8148 31873
8 2297 31564 31569 2298 2236 31869 31874 2237
8 31564 31565 31570 31569 31869 31870 31875 31874
8 31565 31566 31571 31570 31870 31871 31876 31875
8 31566 31567 31572 31571 31871 31872 31877 31876
8 31567 31568 31573 31572 31872 31873 31878 31877
8 31568 8209 8208 31573 31873 8148 8147 31878
8 2298 31569 31574 2299 2237 31874 31879 2238
8 31569 31570 31575 31574 31874 31875 31880 31879
8 31570 31571 31576 31575 31875 31876 31881 31880
8 31571 31572 31577 31576 31876 31877 31882 31881
8 31572 31573 31578 31577 31877 31878 31883 31882
8 31573 8208 8207 31578 31878 8147 8146 31883
8 2299 31574 31579 2300 2238 31879 31884 2239
8 31574 31575 31580 31579 31879 31880 31885 31884
8 31575 31576 31581 31580 31880 31881 31886 31885
8 31576 31577 31582 31581 31881 31882 31887 31886
8 31577 31578 31583 31582 31882 31883 31888 31887
8 31578 8207 8206 31583 31883 8146 8145 31888
8 2300 31579 31584 2301 2239 31884 31889 2240
8 31579 31580 31585 31584 31884 31885 31890 31889
8 31580 31581 31586 31585 31885 31886 31891 31890
8 31581 31582 31587 31586 31886 31887 31892 31891
8 31582 31583 31588 31587 31887 31888 31893 31892
8 31583 8206 8205 31588 31888 8145 8144 31893
8 2301 31584 31589 2302 2240 31889 31894 2241
8 31584 31585 31590 31589 31889 31890 31895 31894
8 31585 31586 31591 31590 31890 31891 31896 31895
8 31586 31587 31592 31591 31891 31892 31897 31896
8 31587 31588 31593 31592 31892 31893 31898 31897
8 31588 8205 8204 31593 31893 8144 8143 31898
8 2302 31589 31594 2303 2241 31894 31899 2242
8 31589 31590 31595 31594 31894 31895 31900 31899
8 31590 31591 31596 31595 31895 31896 31901 31900
8 31591 31592 31597 31596 31896 31897 31902 31901
8 31592 31593 31598 31597 31897 31898 31903 31902
8 31593 8204 8203 31598 31898 8143 8142 31903
8 2303 31594 31599 2304 2242 31899 31904 2243
8 31594 31595 31600 31599 31899 31900 31905 31904
8 31595 31596 31601 31600 31900 31901 31906 31905
8 31596 31597 31602 31601 31901 31902 31907 31906
8 31597 31598 31603 31602 31902 31903 31908 31907
8 31598 8203 8202 31603 31903 8142 8141 31908
8 2304 31599 31604 2305 2243 31904 31909 2244
8 31599 31600 31605 31604 31904 31905 31910 31909
8 31600 31601 31606 31605 31905 31906 31911 31910
8 31601 31602 31607 31606 31906 31907 31912 31911
8 31602 31603 31608 31607 31907 31908 31913 31912
8 31603 8202 8201 31608 31908 8141 8140 31913
8 2305 31604 31609 2306 2244 31909 31914 2245
8 31604 31605 31610 31609 31909 31910 31915 31914
8 31605 31606 31611 31610 31910 31911 31916 31915
8 31606 31607 31612 31611 31911 31912 31917 31916
8 31607 31608 31613 31612 31912 31913 31918 31917
8 31608 8201 8200 31613 31913 8140 8139 31918
8 31609 31610 31615 31614 31914 31915 31920 31919
8 31610 31611 31616 31615 31915 31916 31921 31920
8 31611 31612 31617 31616 31916 31917 31922 31921
8 31612 31613 31618 31617 31917 31918 31923 31922
8 31613 8200 8199 31618 31918 8139 8138 31923
8 31614 31615 31620 31619 31919 31920 31925 31924
8 31615 31616 31621 31620 31920 31921 31926 31925
8 31616 31617 31622 31621 31921 31922 31927 31926
8 31617 31618 31623 31622 31922 31923 31928 31927
8 31618 8199 8198 31623 31923 8138 8137 31928
8 31619 31620 31625 31624 31924 31925 31930 31929
8 31620 31621 31626 31625 31925 31926 31931 31930
8 31621 31622 31627 31626 31926 31927 31932 31931
8 31622 31623 31628 31627 31927 31928 31933 31932
8 31623 8198 8197 31628 31928 8137 8136 31933
8 31624 31625 31630 31629 31929 31930 31935 31934
8 31625 31626 31631 31630 31930 31931 31936 31935
8 31626 31627 31632 31631 31931 31932 31937 31936
8 31627 31628 31633 31632 31932 31933 31938 31937
8 31628 8197 8196 31633 31933 8136 8135 31938
8 31629 31630 31635 31634 31934 31935 31940 31939
8 31630 31631 31636 31635 31935 31936 31941 31940
8 31631 31632 31637 31636 31936 31937 31942 31941
8 31632 31633 31638 31637 31937 31938 31943 31942
8 31633 8196 8195 31638 31938 8135 8134 31943
8 31634 31635 31640 31639 31939 31940 31945 31944
8 31635 31636 31641 31640 31940 31941 31946 31945
8 31636 31637 31642 31641 31941 31942 31947 31946
8 31637 31638 31643 31642 31942 31943 31948 31947
8 31638 8195 8194 31643 31943 8134 8133 31948
8 31639 31640 31645 31644 31944 31945 31950 31949
8 31640 31641 31646 31645 31945 31946 31951 31950
8 31641 31642 31647 31646 31946 31947 31952 31951
8 31642 31643 31648 31647 31947 31948 31953 31952
8 31643 8194 8193 31648 31948 8133 8132 31953
8 31644 31645 31650 31649 31949 31950 31955 31954
8 31645 31646 31651 31650 31950 31951 31956 31955
8 31646 31647 31652 31651 31951 31952 31957 31956
8 31647 31648 31653 31652 31952 31953 31958 31957
8 31648 8193 8192 31653 31953 8132 8131 31958
8 31649 31650 31655 31654 31954 31955 31960 31959
8 31650 31651 31656 31655 31955 31956 31961 31960
8 31651 31652 31657 31656 31956 31957 31962 31961
8 31652 31653 31658 31657 31957 31958 31963 31962
8 31653 8192 8191 31658 31958 8131 8130 31963
8 31654 31655 31660 31659 31959 31960 31965 31964
8 31655 31656 31661 31660 31960 31961 31966 31965
8 31656 31657 31662 31661 31961 31962 31967 31966
8 31657 31658 31663 31662 31962 31963 31968 31967
8 31658 8191 8190 31663 31963 8130 8129 31968
8 31659 31660 31665 31664 31964 31965 31970 31969
8 31660 31661 31666 31665 31965 31966 31971 31970
8 31661 31662 31667 31666 31966 31967 31972 31971
8 31662 31663 31668 31667 31967 31968 31973 31972
8 31663 8190 8189 31668 31968 8129 8128 31973
8 31664 31665 31670 31669 31969 31970 31975 31974
8 31665 31666 31671 31670 31970 31971 31976 31975
8 31666 31667 31672 31671 31971 31972 31977 31976
8 31667 31668 31673 31672 31972 31973 31978 31977
8 31668 8189 8188 31673 31973 8128 8127 31978
8 31669 31670 31675 31674 31974 31975 31980 31979
8 31670 31671 31676 31675 31975 31976 31981 31980
8 31671 31672 31677 31676 31976 31977 31982 31981
8 31672 31673 31678 31677 31977 31978 31983 31982
8 31673 8188 8187 31678 31978 8127 8126 31983
8 31674 31675 31680 31679 31979 31980 31985 31984
8 31675 31676 31681 31680 31980 31981 31986 31985
8 31676 31677 31682 31681 31981 31982 31987 31986
8 31677 31678 31683 31682 31982 31983 31988 31987
8 31678 8187 8186 31683 31983 8126 8125 31988
8 31679 31680 31685 31684 31984 31985 31990 31989
8 31680 31681 31686 31685 31985 31986 31991 31990
8 31681 31682 31687 31686 31986 31987 31992 31991
8 31682 31683 31688 31687 31987 31988 31993 31992
8 31683 8186 8185 31688 31988 8125 8124 31993
8 2321 31684 31689 2322 2260 31989 31994 2261
8 31684 31685 31690 31689 31989 31990 31995 31994
8 31685 31686 31691 31690 31990 31991 31996 31995
8 31686 31687 31692 31691 31991 31992 31997 31996
8 31687 31688 31693 31692 31992 31993 31998 31997
8 31688 8185 8184 31693 31993 8124 8123 31998
8 2322 31689 12789 96 2261 31994 12784 95
8 31689 31690 12790 12789 31994 31995 12785 12784
8 31690 31691 12791 12790 31995 31996 12786 12785
8 31691 31692 12792 12791 31996 31997 12787 12786
8 31692 31693 12793 12792 31997 31998 12788 12787
8 31693 8184 6199 12793 31998 8123 6200 12788
8 278 12154 31694 2201 279 12159 31999 2140
8 12154 12155 31695 31694 12159 12160 32000 31999
8 12155 12156 31696 31695 12160 12161 32001 32000
8 12156 12157 31697 31696 12161 12162 32002 32001
8 12157 12158 31698 31697 12162 12163 32003 32002
8 12158 6017 8183 31698 12163 6016 8122 32003
8 2201 31694 31699 2202 2140 31999 32004 2141
8 31694 31695 31700 31699 31999 32000 32005 32004
8 31695 31696 31701 31700 32000 32001 32006 32005
8 31696 31697 31702 31701 32001 32002 32007 32006
8 31697 31698 31703 31702 32002 32003 32008 32007
8 31698 8183 8182 31703 32003 8122 8121 32008
8 2202 31699 31704 2203 2141 32004 32009 2142
8 31699 31700 31705 31704 32004 32005 32010 32009
8 31700 31701 31706 31705 32005 32006 32011 32010
8 31701 31702 31707 31706 32006 32007 32012 32011
8 31702 31703 31708 31707 32007 32008 32013 32012
8 31703 8182 8181 31708 32008 8121 8120 32013
8 2203 31704 31709 2204 2142 32009 32014 2143
8 31704 31705 31710 31709 32009 32010 32015 32014
8 31705 31706 31711 31710 32010 32011 32016 32015
8 31706 31707 31712 31711 32011 32012 32017 32016
8 31707 31708 31713 31712 32012 32013 32018 32017
8 31708 8181 8180 31713 32013 8120 8119 32018
8 2204 31709 31714 2205 2143 32014 32019 2144
8 31709 31710 31715 31714 32014 32015 32020 32019
8 31710 31711 31716 31715 32015 32016 32021 32020
8 31711 31712 31717 31716 32016 32017 32022 32021
8 31712 31713 31718 31717 32017 32018 32023 32022
8 31713 8180 8179 31718 32018 8119 8118 32023
8 2205 31714 31719 2206 2144 32019 32024 2145
8 31714 31715 31720 31719 32019 32020 32025 32024
8 31715 31716 31721 31720 32020 32021 32026 32025
8 31716 31717 31722 31721 32021 32022 32027 32026
8 31717 31718 31723 31722 32022 32023 32028 32027
8 31718 8179 8178 31723 32023 8118 8117 32028
8 2206 31719 31724 2207 2145 32024 32029 2146
8 31719 31720 31725 31724 32024 32025 32030 32029
8 31720 31721 31726 31725 32025 32026 32031 32030
8 31721 31722 31727 31726 32026 32027 32032 32031
8 31722 31723 31728 31727 32027 32028 32033 32032
8 31723 8178 8177 31728 32028 8117 8116 32033
8 2207 31724 31729 2208 2146 32029 32034 2147
8 31724 31725 31730 31729 32029 32030 32035 32034
8 31725 31726 31731 31730 32030 32031 32036 32035
8 31726 31727 31732 31731 32031 32032 32037 32036
8 31727 31728 31733 31732 32032 32033 32038 32037
8 31728 8177 8176 31733 32033 8116 8115 32038
8 2208 31729 31734 2209 2147 32034 32039 2148
8 31729 31730 31735 31734 32034 32035 32040 32039
8 31730 31731 31736 31735 32035 32036 32041 32040
8 31731 31732 31737 31736 32036 32037 32042 32041
8 31732 31733 31738 31737 32037 32038 32043 32042
8 31733 8176 8175 31738 32038 8115 8114 32043
8 2209 31734 31739 2210 2148 32039 32044 2149
8 31734 31735 31740 31739 32039 32040 32045 32044
8 31735 31736 31741 31740 32040 32041 32046 32045
8 31736 31737 31742 31741 32041 32042 32047 32046
8 31737 31738 31743 31742 32042 32043 32048 32047
8 31738 8175 8174 31743 32043 8114 8113 32048
8 2210 31739 31744 2211 2149 32044 32049 2150
8 31739 31740 31745 31744 32044 32045 32050 32049
8 31740 31741 31746 31745 32045 32046 32051 32050
8 31741 31742 31747 31746 32046 32047 32052 32051
8 31742 31743 31748 31747 32047 32048 32053 32052
8 31743 8174 8173 31748 32048 8113 8112 32053
8 2211 31744 31749 2212 2150 32049 32054 2151
8 31744 31745 31750 31749 32049 32050 32055 32054
8 31745 31746 31751 31750 32050 32051 32056 32055
8 31746 31747 31752 31751 32051 32052 32057 32056
8 31747 31748 31753 31752 32052 32053 32058 32057
8 31748 8173 8172 31753 32053 8112 8111 32058
8 2212 31749 31754 2213 2151 32054 32059 2152
8 31749 31750 31755 31754 32054 32055 32060 32059
8 31750 31751 31756 31755 32055 32056 32061 32060
8 31751 31752 31757 31756 32056 32057 32062 32061
8 31752 31753 31758 31757 32057 32058 32063 32062
8 31753 8172 8171 31758 32058 8111 8110 32063
8 2213 31754 31759 2214 2152 32059 32064 2153
8 31754 31755 31760 31759 32059 32060 32065 32064
8 31755 31756 31761 31760 32060 32061 32066 32065
8 31756 31757 31762 31761 32061 32062 32067 32066
8 31757 31758 31763 31762 32062 32063 32068 32067
8 31758 8171 8170 31763 32063 8110 8109 32068
8 2214 31759 31764 2215 2153 32064 32069 2154
8 31759 31760 31765 31764 32064 32065 32070 32069
8 31760 31761 31766 31765 32065 32066 32071 32070
8 31761 31762 31767 31766 32066 32067 32072 32071
8 31762 31763 31768 31767 32067 32068 32073 32072
8 31763 8170 8169 31768 32068 8109 8108 32073
8 2215 31764 31769 2216 2154 32069 32074 2155
8 31764 31765 31770 31769 32069 32070 32075 32074
8 31765 31766 31771 31770 32070 32071 32076 32075
8 31766 31767 31772 31771 32071 32072 32077 32076
8 31767 31768 31773 31772 32072 32073 32078 32077
8 31768 8169 8168 31773 32073 8108 8107 32078
8 2216 31769 31774 2217 2155 32074 32079 2156
8 31769 31770 31775 31774 32074 32075 32080 32079
8 31770 31771 31776 31775 32075 32076 32081 32080
8 31771 31772 31777 31776 32076 32077 32082 32081
8 31772 31773 31778 31777 32077 32078 32083 32082
8 31773 8168 8167 31778 32078 8107 8106 32083
8 2217 31774 31779 2218 2156 32079 32084 2157
8 31774 31775 31780 31779 32079 32080 32085 32084
8 31775 31776 31781 31780 32080 32081 32086 32085
8 31776 31777 31782 31781 32081 32082 32087 32086
8 31777 31778 31783 31782 32082 32083 32088 32087
8 31778 8167 8166 31783 32083 8106 8105 32088
8 2218 31779 31784 2219 2157 32084 32089 2158
8 31779 31780 31785 31784 32084 32085 32090 32089
8 31780 31781 31786 31785 32085 32086 32091 32090
8 31781 31782 31787 31786 32086 32087 32092 32091
8 31782 31783 31788 31787 32087 32088 32093 32092
8 31783 8166 8165 31788 32088 8105 8104 32093
8 2219 31784 31789 2220 2158 32089 32094 2159
8 31784 31785 31790 31789 32089 32090 32095 32094
8 31785 31786 31791 31790 32090 32091 32096 32095
8 31786 31787 31792 31791 32091 32092 32097 32096
8 31787 31788 31793 31792 32092 32093 32098 32097
8 31788 8165 8164 31793 32093 8104 8103 32098
8 2220 31789 31794 2221 2159 32094 32099 2160
8 31789 31790 31795 31794 32094 32095 32100 32099
8 31790 31791 31796 31795 32095 32096 32101 32100
8 31791 31792 31797 31796 32096 32097 32102 32101
8 31792 31793 31798 31797 32097 32098 32103 32102
8 31793 8164 8163 31798 32098 8103 8102 32103
8 2221 31794 31799 2222 2160 32099 32104 2161
8 31794 31795 31800 31799 32099 32100 32105 32104
8 31795 31796 31801 31800 32100 32101 32106 32105
8 31796 31797 31802 31801 32101 32102 32107 32106
8 31797 31798 31803 31802 32102 32103 32108 32107
8 31798 8163 8162 31803 32103 8102 8101 32108
8 2222 31799 31804 2223 2161 32104 32109 2162
8 31799 31800 31805 31804 32104 32105 32110 32109
8 31800 31801 31806 31805 32105 32106 32111 32110
8 31801 31802 31807 31806 32106 32107 32112 32111
8 31802 31803 31808 31807 32107 32108 32113 32112
8 31803 8162 8161 31808 32108 8101 8100 32113
8 2223 31804 31809 2224 2162 32109 32114 2163
8 31804 31805 31810 31809 32109 32110 32115 32114
8 31805 31806 31811 31810 32110 32111 32116 32115
8 31806 31807 31812 31811 32111 32112 32117 32116
8 31807 31808 31813 31812 32112 32113 32118 32117
8 31808 8161 8160 31813 32113 8100 8099 32118
8 2224 31809 31814 2225 2163 32114 32119 2164
8 31809 31810 31815 31814 32114 32115 32120 32119
8 31810 31811 31816 31815 32115 32116 32121 32120
8 31811 31812 31817 31816 32116 32117 32122 32121
8 31812 31813 31818 31817 32117 32118 32123 32122
8 31813 8160 8159 31818 32118 8099 8098 32123
8 2225 31814 31819 2226 2164 32119 32124 2165
8 31814 31815 31820 31819 32119 32120 32125 32124
8 31815 31816 31821 31820 32120 32121 32126 32125
8 31816 31817 31822 31821 32121 32122 32127 32126
8 31817 31818 31823 31822 32122 32123 32128 32127
8 31818 8159 8158 31823 32123 8098 8097 32128
8 2226 31819 31824 2227 2165 32124 32129 2166
8 31819 31820 31825 31824 32124 32125 32130 32129
8 31820 31821 31826 31825 32125 32126 32131 32130
8 31821 31822 31827 31826 32126 32127 32132 32131
8 31822 31823 31828 31827 32127 32128 32133 32132
8 31823 8158 8157 31828 32128 8097 8096 32133
8 2227 31824 31829 2228 2166 32129 32134 2167
8 31824 31825 31830 31829 32129 32130 32135 32134
8 31825 31826 31831 31830 32130 32131 32136 32135
8 31826 31827 31832 31831 32131 32132 32137 32136
8 31827 31828 31833 31832 32132 32133 32138 32137
8 31828 8157 8156 31833 32133 8096 8095 32138
8 2228 31829 31834 2229 2167 32134 32139 2168
8 31829 31830 31835 31834 32134 32135 32140 32139
8 31830 31831 31836 31835 32135 32136 32141 32140
8 31831 31832 31837 31836 32136 32137 32142 32141
8 31832 31833 31838 31837 32137 32138 32143 32142
8 31833 8156 8155 31838 32138 8095 8094 32143
8 2229 31834 31839 2230 2168 32139 32144 2169
8 31834 31835 31840 31839 32139 32140 32145 32144
8 31835 31836 31841 31840 32140 32141 32146 32145
8 31836 31837 31842 31841 32141 32142 32147 32146
8 31837 31838 31843 31842 32142 32143 32148 32147
8 31838 8155 8154 31843 32143 8094 8093 32148
8 2230 31839 31844 2231 2169 32144 32149 2170
8 31839 31840 31845 31844 32144 32145 32150 32149
8 31840 31841 31846 31845 32145 32146 32151 32150
8 31841 31842 31847 31846 32146 32147 32152 32151
8 31842 31843 31848 31847 32147 32148 32153 32152
8 31843 8154 8153 31848 32148 8093 8092 32153
8 2231 31844 31849 2232 2170 32149 32154 2171
8 31844 31845 31850 31849 32149 32150 32155 32154
8 31845 31846 31851 31850 32150 32151 32156 32155
8 31846 31847 31852 31851 32151 32152 32157 32156
8 31847 31848 31853 31852 32152 32153 32158 32157
8 31848 8153 8152 31853 32153 8092 8091 32158
8 2232 31849 31854 2233 2171 32154 32159 2172
8 31849 31850 31855 31854 32154 32155 32160 32159
8 31850 31851 31856 31855 32155 32156 32161 32160
8 31851 31852 31857 31856 32156 32157 32162 32161
8 31852 31853 31858 31857 32157 32158 32163 32162
8 31853 8152 8151 31858 32158 8091 8090 32163
8 2233 31854 31859 2234 2172 32159 32164 2173
8 31854 31855 31860 31859 32159 32160 32165 32164
8 31855 31856 31861 31860 32160 32161 32166 32165
8 31856 31857 31862 31861 32161 32162 32167 32166
8 31857 31858 31863 31862 32162 32163 32168 32167
8 31858 8151 8150 31863 32163 8090 8089 32168
8 2234 31859 31864 2235 2173 32164 32169 2174
8 31859 31860 31865 31864 32164 32165 32170 32169
8 31860 31861 31866 31865 32165 32166 32171 32170
8 31861 31862 31867 31866 32166 32167 32172 32171
8 31862 31863 31868 31867 32167 32168 32173 32172
8 31863 8150 8149 31868 32168 8089 8088 32173
8 2235 31864 31869 2236 2174 32169 32174 2175
8 31864 31865 31870 31869 32169 32170 32175 32174
8 31865 31866 31871 31870 32170 32171 32176 32175
8 31866 31867 31872 31871 32171 32172 32177 32176
8 31867 31868 31873 31872 32172 32173 32178 32177
8 31868 8149 8148 31873 32173 8088 8087 32178
8 2236 31869 31874 2237 2175 32174 32179 2176
8 31869 31870 31875 31874 32174 32175 32180 32179
8 31870 31871 31876 31875 32175 32176 32181 32180
8 31871 31872 31877 31876 32176 32177 32182 32181
8 31872 31873 31878 31877 32177 32178 32183 32182
8 31873 8148 8147 31878 32178 8087 8086 32183
8 2237 31874 31879 2238 2176 32179 32184 2177
8 31874 31875 31880 31879 32179 32180 32185 32184
8 31875 31876 31881 31880 32180 32181 32186 32185
8 31876 31877 31882 31881 32181 32182 32187 32186
8 31877 31878 31883 31882 32182 32183 32188 32187
8 31878 8147 8146 31883 32183 8086 8085 32188
8 2238 31879 31884 2239 2177 32184 32189 2178
8 31879 31880 31885 31884 32184 32185 32190 32189
8 31880 31881 31886 31885 32185 32186 32191 32190
8 31881 31882 31887 31886 32186 32187 32192 32191
8 31882 31883 31888 31887 32187 32188 32193 32192
8 31883 8146 8145 31888 32188 8085 8084 32193
8 2239 31884 31889 2240 2178 32189 32194 2179
8 31884 31885 31890 31889 32189 32190 32195 32194
8 31885 31886 31891 31890 32190 32191 32196 32195
8 31886 31887 31892 31891 32191 32192 32197 32196
8 31887 31888 31893 31892 32192 32193 32198 32197
8 31888 8145 8144 31893 32193 8084 8083 32198
8 2240 31889 31894 2241 2179 32194 32199 2180
8 31889 31890 31895 31894 32194 32195 32200 32199
8 31890 31891 31896 31895 32195 32196 32201 32200
8 31891 31892 31897 31896 32196 32197 32202 32201
8 31892 31893 31898 31897 32197 32198 32203 32202
8 31893 8144 8143 31898 32198 8083 8082 32203
8 2241 31894 31899 2242 2180 32199 32204 2181
8 31894 31895 31900 31899 32199 32200 32205 32204
8 31895 31896 31901 31900 32200 32201 32206 32205
8 31896 31897 31902 31901 32201 32202 32207 32206
8 31897 31898 31903 31902 32202 32203 32208 32207
8 31898 8143 8142 31903 32203 8082 8081 32208
8 2242 31899 31904 2243 2181 32204 32209 2182
8 31899 31900 31905 31904 32204 32205 32210 32209
8 31900 31901 31906 31905 32205 32206 32211 32210
8 31901 31902 31907 31906 32206 32207 32212 32211
8 31902 31903 31908 31907 32207 32208 32213 32212
8 31903 8142 8141 31908 32208 8081 8080 32213
8 2243 31904 31909 2244 2182 32209 32214 2183
8 31904 31905 31910 31909 32209 32210 32215 32214
8 31905 31906 31911 31910 32210 32211 32216 32215
8 31906 31907 31912 31911 32211 32212 32217 32216
8 31907 31908 31913 31912 32212 32213 32218 32217
8 31908 8141 8140 31913 32213 8080 8079 32218
8 2244 31909 31914 2245 2183 32214 32219 2184
8 31909 31910 31915 31914 32214 32215 32220 32219
8 31910 31911 31916 31915 32215 32216 32221 32220
8 31911 31912 31917 31916 32216 32217 32222 32221
8 31912 31913 31918 31917 32217 32218 32223 32222
8 31913 8140 8139 31918 32218 8079 8078 32223
8 31914 31915 31920 31919 32219 32220 32225 32224
8 31915 31916 31921 31920 32220 32221 32226 32225
8 31916 31917 31922 31921 32221 32222 32227 32226
8 31917 31918 31923 31922 32222 32223 32228 32227
8 31918 8139 8138 31923 32223 8078 8077 32228
8 31919 31920 31925 31924 32224 32225 32230 32229
8 31920 31921 31926 31925 32225 32226 32231 32230
8 31921 31922 31927 31926 32226 32227 32232 32231
8 31922 31923 31928 31927 32227 32228 32233 32232
8 31923 8138 8137 31928 32228 8077 8076 32233
8 31924 31925 31930 31929 32229 32230 32235 32234
8 31925 31926 31931 31930 32230 32231 32236 32235
8 31926 31927 31932 31931 32231 32232 32237 32236
8 31927 31928 31933 31932 32232 32233 32238 32237
8 31928 8137 8136 31933 32233 8076 8075 32238
8 31929 31930 31935 31934 32234 32235 32240 32239
8 31930 31931 31936 31935 32235 32236 32241 32240
8 31931 31932 31937 31936 32236 32237 32242 32241
8 31932 31933 31938 31937 32237 32238 32243 32242
8 31933 8136 8135 31938 32238 8075 8074 32243
8 31934 31935 31940 31939 32239 32240 32245 32244
8 31935 31936 31941 31940 32240 32241 32246 32245
8 31936 31937 31942 31941 32241 32242 32247 32246
8 31937 31938 31943 31942 32242 32243 32248 32247
8 31938 8135 8134 31943 32243 8074 8073 32248
8 31939 31940 31945 31944 32244 32245 32250 32249
8 31940 31941 31946 31945 32245 32246 32251 32250
8 31941 31942 31947 31946 32246 32247 32252 32251
8 31942 31943 31948 31947 32247 32248 32253 32252
8 31943 8134 8133 31948 32248 8073 8072 32253
8 31944 31945 31950 31949 32249 32250 32255 32254
8 31945 31946 31951 31950 32250 32251 32256 32255
8 31946 31947 31952 31951 32251 32252 32257 32256
8 31947 31948 31953 31952 32252 32253 32258 32257
8 31948 8133 8132 31953 32253 8072 8071 32258
8 31949 31950 31955 31954 32254 32255 32260 32259
8 31950 31951 31956 31955 32255 32256 32261 32260
8 31951 31952 31957 31956 32256 32257 32262 32261
8 31952 31953 31958 31957 32257 32258 32263 32262
8 31953 8132 8131 31958 32258 8071 8070 32263
8 31954 31955 31960 31959 32259 32260 32265 32264
8 31955 31956 31961 31960 32260 32261 32266 32265
8 31956 31957 31962 31961 32261 32262 32267 32266
8 31957 31958 31963 31962 32262 32263 32268 32267
8 31958 8131 8130 31963 32263 8070 8069 32268
8 31959 31960 31965 31964 32264 32265 32270 32269
8 31960 31961 31966 31965 32265 32266 32271 32270
8 31961 31962 31967 31966 32266 32267 32272 32271
8 31962 31963 31968 31967 32267 32268 32273 32272
8 31963 8130 8129 31968 32268 8069 8068 32273
8 31964 31965 31970 31969 32269 32270 32275 32274
8 31965 31966 31971 31970 32270 32271 32276 32275
8 31966 31967 31972 31971 32271 32272 32277 32276
8 31967 31968 31973 31972 32272 32273 32278 32277
8 31968 8129 8128 31973 32273 8068 8067 32278
8 31969 31970 31975 31974 32274 32275 32280 32279
8 31970 31971 31976 31975 32275 32276 32281 32280
8 31971 31972 31977 31976 32276 32277 32282 32281
8 31972 31973 31978 31977 32277 32278 32283 32282
8 31973 8128 8127 31978 32278 8067 8066 32283
8 31974 31975 31980 31979 32279 32280 32285 32284
8 31975 31976 31981 31980 32280 32281 32286 32285
8 31976 31977 31982 31981 32281 32282 32287 32286
8 31977 31978 31983 31982 32282 32283 32288 32287
8 31978 8127 8126 31983 32283 8066 8065 32288
8 31979 31980 31985 31984 32284 32285 32290 32289
8 31980 31981 31986 31985 32285 32286 32291 32290
8 31981 31982 31987 31986 32286 32287 32292 32291
8 31982 31983 31988 31987 32287 32288 32293 32292
8 31983 8126 8125 31988 32288 8065 8064 32293
8 31984 31985 31990 31989 32289 32290 32295 32294
8 31985 31986 31991 31990 32290 32291 32296 32295
8 31986 31987 31992 31991 32291 32292 32297 32296
8 31987 31988 31993 31992 32292 32293 32298 32297
8 31988 8125 8124 31993 32293 8064 8063 32298
8 2260 31989 31994 2261 2199 32294 32299 2200
8 31989 31990 31995 31994 32294 32295 32300 32299
8 31990 31991 31996 31995 32295 32296 32301 32300
8 31991 31992 31997 31996 32296 32297 32302 32301
8 31992 31993 31998 31997 32297 32298 32303 32302
8 31993 8124 8123 31998 32298 8063 8062 32303
8 2261 31994 12784 95 2200 32299 12779 94
8 31994 31995 12785 12784 32299 32300 12780 12779
8 31995 31996 12786 12785 32300 32301 12781 12780
8 31996 31997 12787 12786 32301 32302 12782 12781
8 31997 31998 12788 12787 32302 32303 12783 12782
8 31998 8123 6200 12788 32303 8062 6201 12783
8 279 12159 31999 2140 280 12164 32304 2079
8 12159 12160 32000 31999 12164 12165 32305 32304
8 12160 12161 32001 32000 12165 12166 32306 32305
8 12161 12162 32002 32001 12166 12167 32307 32306
8 12162 12163 32003 32002 12167 12168 32308 32307
8 12163 6016 8122 32003 12168 6015 8061 32308
8 2140 31999 32004 2141 2079 32304 32309 2080
8 31999 32000 32005 32004 32304 32305 32310 32309
8 32000 32001 32006 32005 32305 32306 32311 32310
8 32001 32002 32007 32006 32306 32307 32312 32311
8 32002 32003 32008 32007 32307 32308 32313 32312
8 32003 8122 8121 32008 32308 8061 8060 32313
8 2141 32004 32009 2142 2080 32309 32314 2081
8 32004 32005 32010 32009 32309 32310 32315 32314
8 32005 32006 32011 32010 32310 32311 32316 32315
8 32006 32007 32012 32011 32311 32312 32317 32316
8 32007 32008 32013 32012 32312 32313 32318 32317
8 32008 8121 8120 32013 32313 8060 8059 32318
8 2142 32009 32014 2143 2081 32314 32319 2082
8 32009 32010 32015 32014 32314 32315 32320 32319
8 32010 32011 32016 32015 32315 32316 32321 32320
8 32011 32012 32017 32016 32316 32317 32322 32321
8 32012 32013 32018 32017 32317 32318 32323 32322
8 32013 8120 8119 32018 32318 8059 8058 32323
8 2143 32014 32019 2144 2082 32319 32324 2083
8 32014 32015 32020 32019 32319 32320 32325 32324
8 32015 32016 32021 32020 32320 32321 32326 32325
8 32016 32017 32022 32021 32321 32322 32327 32326
8 32017 32018 32023 32022 32322 32323 32328 32327
8 32018 8119 8118 32023 32323 8058 8057 32328
8 2144 32019 32024 2145 2083 32324 32329 2084
8 32019 32020 32025 32024 32324 32325 32330 32329
8 32020 32021 32026 32025 32325 32326 32331 32330
8 32021 32022 32027 32026 32326 32327 32332 32331
8 32022 32023 32028 32027 32327 32328 32333 32332
8 32023 8118 8117 32028 32328 8057 8056 32333
8 2145 32024 32029 2146 2084 32329 32334 2085
8 32024 32025 32030 32029 32329 32330 32335 32334
8 32025 32026 32031 32030 32330 32331 32336 32335
8 32026 32027 32032 32031 32331 32332 32337 32336
8 32027 32028 32033 32032 32332 32333 32338 32337
8 32028 8117 8116 32033 32333 8056 8055 32338
8 2146 32029 32034 2147 2085 32334 32339 2086
8 32029 32030 32035 32034 32334 32335 32340 32339
8 32030 32031 32036 32035 32335 32336 32341 32340
8 32031 32032 32037 32036 32336 32337 32342 32341
8 32032 32033 32038 32037 32337 32338 32343 32342
8 32033 8116 8115 32038 32338 8055 8054 32343
8 2147 32034 32039 2148 2086 32339 32344 2087
8 32034 32035 32040 32039 32339 32340 32345 32344
8 32035 32036 32041 32040 32340 32341 32346 32345
8 32036 32037 32042 32041 32341 32342 32347 32346
8 32037 32038 32043 32042 32342 32343 32348 32347
8 32038 8115 8114 32043 32343 8054 8053 32348
8 2148 32039 32044 2149 2087 32344 32349 2088
8 32039 32040 32045 32044 32344 32345 32350 32349
8 32040 32041 32046 32045 32345 32346 32351 32350
8 32041 32042 32047 32046 32346 32347 32352 32351
8 32042 32043 32048 32047 32347 32348 32353 32352
8 32043 8114 8113 32048 32348 8053 8052 32353
8 2149 32044 32049 2150 2088 32349 32354 2089
8 32044 32045 32050 32049 32349 32350 32355 32354
8 32045 32046 32051 32050 32350 32351 32356 32355
8 32046 32047 32052 32051 32351 32352 32357 32356
8 32047 32048 32053 32052 32352 32353 32358 32357
8 32048 8113 8112 32053 32353 8052 8051 32358
8 2150 32049 32054 2151 2089 32354 32359 2090
8 32049 32050 32055 32054 32354 32355 32360 32359
8 32050 32051 32056 32055 32355 32356 32361 32360
8 32051 32052 32057 32056 32356 32357 32362 32361
8 32052 32053 32058 32057 32357 32358 32363 32362
8 32053 8112 8111 32058 32358 8051 8050 32363
8 2151 32054 32059 2152 2090 32359 32364 2091
8 32054 32055 32060 32059 32359 32360 32365 32364
8 32055 32056 32061 32060 32360 32361 32366 32365
8 32056 32057 32062 32061 32361 32362 32367 32366
8 32057 32058 32063 32062 32362 32363 32368 32367
8 32058 8111 8110 32063 32363 8050 8049 32368
8 2152 32059 32064 2153 2091 32364 32369 2092
8 32059 32060 32065 32064 32364 32365 32370 32369
8 32060 32061 32066 32065 32365 32366 32371 32370
8 32061 32062 32067 32066 32366 32367 32372 32371
8 32062 32063 32068 32067 32367 32368 32373 32372
8 32063 8110 8109 32068 32368 8049 8048 32373
8 2153 32064 32069 2154 2092 32369 32374 2093
8 32064 32065 32070 32069 32369 32370 32375 32374
8 32065 32066 32071 32070 32370 32371 32376 32375
8 32066 32067 32072 32071 32371 32372 32377 32376
8 32067 32068 32073 32072 32372 32373 32378 32377
8 32068 8109 8108 32073 32373 8048 8047 32378
8 2154 32069 32074 2155 2093 32374 32379 2094
8 32069 32070 32075 32074 32374 32375 32380 32379
8 32070 32071 32076 32075 32375 32376 32381 32380
8 32071 32072 32077 32076 32376 32377 32382 32381
8 32072 32073 32078 32077 32377 32378 32383 32382
8 32073 8108 8107 32078 32378 8047 8046 32383
8 2155 32074 32079 2156 2094 32379 32384 2095
8 32074 32075 32080 32079 32379 32380 32385 32384
8 32075 32076 32081 32080 32380 32381 32386 32385
8 32076 32077 32082 32081 32381 32382 32387 32386
8 32077 32078 32083 32082 32382 32383 32388 32387
8 32078 8107 8106 32083 32383 8046 8045 32388
8 2156 32079 32084 2157 2095 32384 32389 2096
8 32079 32080 32085 32084 32384 32385 32390 32389
8 32080 32081 32086 32085 32385 32386 32391 32390
8 32081 32082 32087 32086 32386 32387 32392 32391
8 32082 32083 32088 32087 32387 32388 32393 32392
8 32083 8106 8105 32088 32388 8045 8044 32393
8 2157 32084 32089 2158 2096 32389 32394 2097
8 32084 32085 32090 32089 32389 32390 32395 32394
8 32085 32086 32091 32090 32390 32391 32396 32395
8 32086 32087 32092 32091 32391 32392 32397 32396
8 32087 32088 32093 32092 32392 32393 32398 32397
8 32088 8105 8104 32093 32393 8044 8043 32398
8 2158 32089 32094 2159 2097 32394 32399 2098
8 32089 32090 32095 32094 32394 32395 32400 32399
8 32090 32091 32096 32095 32395 32396 32401 32400
8 32091 32092 32097 32096 32396 32397 32402 32401
8 32092 32093 32098 32097 32397 32398 32403 32402
8 32093 8104 8103 32098 32398 8043 8042 32403
8 2159 32094 32099 2160 2098 32399 32404 2099
8 32094 32095 32100 32099 32399 32400 32405 32404
8 32095 32096 32101 32100 32400 32401 32406 32405
8 32096 32097 32102 32101 32401 32402 32407 32406
8 32097 32098 32103 32102 32402 32403 32408 32407
8 32098 8103 8102 32103 32403 8042 8041 32408
8 2160 32099 32104 2161 2099 32404 32409 2100
8 32099 32100 32105 32104 32404 32405 32410 32409
8 32100 32101 32106 32105 32405 32406 32411 32410
8 32101 32102 32107 32106 32406 32407 32412 32411
8 32102 32103 32108 32107 32407 32408 32413 32412
8 32103 8102 8101 32108 32408 8041 8040 32413
8 2161 32104 32109 2162 2100 32409 32414 2101
8 32104 32105 32110 32109 32409 32410 32415 32414
8 32105 32106 32111 32110 32410 32411 32416 32415
8 32106 32107 32112 32111 32411 32412 32417 32416
8 32107 32108 32113 32112 32412 32413 32418 32417
8 32108 8101 8100 32113 32413 8040 8039 32418
8 2162 32109 32114 2163 2101 32414 32419 2102
8 32109 32110 32115 32114 32414 32415 32420 32419
8 32110 32111 32116 32115 32415 32416 32421 32420
8 32111 32112 32117 32116 32416 32417 32422 32421
8 32112 32113 32118 32117 32417 32418 32423 32422
8 32113 8100 8099 32118 32418 8039 8038 32423
8 2163 32114 32119 2164 2102 32419 32424 2103
8 32114 32115 32120 32119 32419 32420 32425 32424
8 32115 32116 32121 32120 32420 32421 32426 32425
8 32116 32117 32122 32121 32421 32422 32427 32426
8 32117 32118 32123 32122 32422 32423 32428 32427
8 32118 8099 8098 32123 32423 8038 8037 32428
8 2164 32119 32124 2165 2103 32424 32429 2104
8 32119 32120 32125 32124 32424 32425 32430 32429
8 32120 32121 32126 32125 32425 32426 32431 32430
8 32121 32122 32127 32126 32426 32427 32432 32431
8 32122 32123 32128 32127 32427 32428 32433 32432
8 32123 8098 8097 32128 32428 8037 8036 32433
8 2165 32124 32129 2166 2104 32429 32434 2105
8 32124 32125 32130 32129 32429 32430 32435 32434
8 32125 32126 32131 32130 32430 32431 32436 32435
8 32126 32127 32132 32131 32431 32432 32437 32436
8 32127 32128 32133 32132 32432 32433 32438 32437
8 32128 8097 8096 32133 32433 8036 8035 32438
8 2166 32129 32134 2167 2105 32434 32439 2106
8 32129 32130 32135 32134 32434 32435 32440 32439
8 32130 32131 32136 32135 32435 32436 32441 32440
8 32131 32132 32137 32136 32436 32437 32442 32441
8 32132 32133 32138 32137 32437 32438 32443 32442
8 32133 8096 8095 32138 32438 8035 8034 32443
8 2167 32134 32139 2168 2106 32439 32444 2107
8 32134 32135 32140 32139 32439 32440 32445 32444
8 32135 32136 32141 32140 32440 32441 32446 32445
8 32136 32137 32142 32141 32441 32442 32447 32446
8 32137 32138 32143 32142 32442 32443 32448 32447
8 32138 8095 8094 32143 32443 8034 8033 32448
8 2168 32139 32144 2169 2107 32444 32449 2108
8 32139 32140 32145 32144 32444 32445 32450 32449
8 32140 32141 32146 32145 32445 32446 32451 32450
8 32141 32142 32147 32146 32446 32447 32452 32451
8 32142 32143 32148 32147 32447 32448 32453 32452
8 32143 8094 8093 32148 32448 8033 8032 32453
8 2169 32144 32149 2170 2108 32449 32454 2109
8 32144 32145 32150 32149 32449 32450 32455 32454
8 32145 32146 32151 32150 32450 32451 32456 32455
8 32146 32147 32152 32151 32451 32452 32457 32456
8 32147 32148 32153 32152 32452 32453 32458 32457
8 32148 8093 8092 32153 32453 8032 8031 32458
8 2170 32149 32154 2171 2109 32454 32459 2110
8 32149 32150 32155 32154 32454 32455 32460 32459
8 32150 32151 32156 32155 32455 32456 32461 32460
8 32151 32152 32157 32156 32456 32457 32462 32461
8 32152 32153 32158 32157 32457 32458 32463 32462
8 32153 8092 8091 32158 32458 8031 8030 32463
8 2171 32154 32159 2172 2110 32459 32464 2111
8 32154 32155 32160 32159 32459 32460 32465 32464
8 32155 32156 32161 32160 32460 32461 32466 32465
8 32156 32157 32162 32161 32461 32462 32467 32466
8 32157 32158 32163 32162 32462 32463 32468 32467
8 32158 8091 8090 32163 32463 8030 8029 32468
8 2172 32159 32164 2173 2111 32464 32469 2112
8 32159 32160 32165 32164 32464 32465 32470 32469
8 32160 32161 32166 32165 32465 32466 32471 32470
8 32161 32162 32167 32166 32466 32467 32472 32471
8 32162 32163 32168 32167 32467 32468 32473 32472
8 32163 8090 8089 32168 32468 8029 8028 32473
8 2173 32164 32169 2174 2112 32469 32474 2113
8 32164 32165 32170 32169 32469 32470 32475 32474
8 32165 32166 32171 32170 32470 32471 32476 32475
8 32166 32167 32172 32171 32471 32472 32477 32476
8 32167 32168 32173 32172 32472 32473 32478 32477
8 32168 8089 8088 32173 32473 8028 8027 32478
8 2174 32169 32174 2175 2113 32474 32479 2114
8 32169 32170 32175 32174 32474 32475 32480 32479
8 32170 32171 32176 32175 32475 32476 32481 32480
8 32171 32172 32177 32176 32476 32477 32482 32481
8 32172 32173 32178 32177 32477 32478 32483 32482
8 32173 8088 8087 32178 32478 8027 8026 32483
8 2175 32174 32179 2176 2114 32479 32484 2115
8 32174 32175 32180 32179 32479 32480 32485 32484
8 32175 32176 32181 32180 32480 32481 32486 32485
8 32176 32177 32182 32181 32481 32482 32487 32486
8 32177 32178 32183 32182 32482 32483 32488 32487
8 32178 8087 8086 32183 32483 8026 8025 32488
8 2176 32179 32184 2177 2115 32484 32489 2116
8 32179 32180 32185 32184 32484 32485 32490 32489
8 32180 32181 32186 32185 32485 32486 32491 32490
8 32181 32182 32187 32186 32486 32487 32492 32491
8 32182 32183 32188 32187 32487 32488 32493 32492
8 32183 8086 8085 32188 32488 8025 8024 32493
8 2177 32184 32189 2178 2116 32489 32494 2117
8 32184 32185 32190 32189 32489 32490 32495 32494
8 32185 32186 32191 32190 32490 32491 32496 32495
8 32186 32187 32192 32191 32491 32492 32497 32496
8 32187 32188 32193 32192 32492 32493 32498 32497
8 32188 8085 8084 32193 32493 8024 8023 32498
8 2178 32189 32194 2179 2117 32494 32499 2118
8 32189 32190 32195 32194 32494 32495 32500 32499
8 32190 32191 32196 32195 32495 32496 32501 32500
8 32191 32192 32197 32196 32496 32497 32502 32501
8 32192 32193 32198 32197 32497 32498 32503 32502
8 32193 8084 8083 32198 32498 8023 8022 32503
8 2179 32194 32199 2180 2118 32499 32504 2119
8 32194 32195 32200 32199 32499 32500 32505 32504
8 32195 32196 32201 32200 32500 32501 32506 32505
8 32196 32197 32202 32201 32501 32502 32507 32506
8 32197 32198 32203 32202 32502 32503 32508 32507
8 32198 8083 8082 32203 32503 8022 8021 32508
8 2180 32199 32204 2181 2119 32504 32509 2120
8 32199 32200 32205 32204 32504 32505 32510 32509
8 32200 32201 32206 32205 32505 32506 32511 32510
8 32201 32202 32207 32206 32506 32507 32512 32511
8 32202 32203 32208 32207 32507 32508 32513 32512
8 32203 8082 8081 32208 32508 8021 8020 32513
8 2181 32204 32209 2182 2120 32509 32514 2121
8 32204 32205 32210 32209 32509 32510 32515 32514
8 32205 32206 32211 32210 32510 32511 32516 32515
8 32206 32207 32212 32211 32511 32512 32517 32516
8 32207 32208 32213 32212 32512 32513 32518 32517
8 32208 8081 8080 32213 32513 8020 8019 32518
8 2182 32209 32214 2183 2121 32514 32519 2122
8 32209 32210 32215 32214 32514 32515 32520 32519
8 32210 32211 32216 32215 32515 32516 32521 32520
8 32211 32212 32217 32216 32516 32517 32522 32521
8 32212 32213 32218 32217 32517 32518 32523 32522
8 32213 8080 8079 32218 32518 8019 8018 32523
8 2183 32214 32219 2184 2122 32519 32524 2123
8 32214 32215 32220 32219 32519 32520 32525 32524
8 32215 32216 32221 32220 32520 32521 32526 32525
8 32216 32217 32222 32221 32521 32522 32527 32526
8 32217 32218 32223 32222 32522 32523 32528 32527
8 32218 8079 8078 32223 32523 8018 8017 32528
8 32219 32220 32225 32224 32524 32525 32530 32529
8 32220 32221 32226 32225 32525 32526 32531 32530
8 32221 32222 32227 32226 32526 32527 32532 32531
8 32222 32223 32228 32227 32527 32528 32533 32532
8 32223 8078 8077 32228 32528 8017 8016 32533
8 32224 32225 32230 32229 32529 32530 32535 32534
8 32225 32226 32231 32230 32530 32531 32536 32535
8 32226 32227 32232 32231 32531 32532 32537 32536
8 32227 32228 32233 32232 32532 32533 32538 32537
8 32228 8077 8076 32233 32533 8016 8015 32538
8 32229 32230 32235 32234 32534 32535 32540 32539
8 32230 32231 32236 32235 32535 32536 32541 32540
8 32231 32232 32237 32236 32536 32537 32542 32541
8 32232 32233 32238 32237 32537 32538 32543 32542
8 32233 8076 8075 32238 32538 8015 8014 32543
8 32234 32235 32240 32239 32539 32540 32545 32544
8 32235 32236 32241 32240 32540 32541 32546 32545
8 32236 32237 32242 32241 32541 32542 32547 32546
8 32237 32238 32243 32242 32542 32543 32548 32547
8 32238 8075 8074 32243 32543 8014 8013 32548
8 32239 32240 32245 32244 32544 32545 32550 32549
8 32240 32241 32246 32245 32545 32546 32551 32550
8 32241 32242 32247 32246 32546 32547 32552 32551
8 32242 32243 32248 32247 32547 32548 32553 32552
8 32243 8074 8073 32248 32548 8013 8012 32553
8 32244 32245 32250 32249 32549 32550 32555 32554
8 32245 32246 32251 32250 32550 32551 32556 32555
8 32246 32247 32252 32251 32551 32552 32557 32556
8 32247 32248 32253 32252 32552 32553 32558 32557
8 32248 8073 8072 32253 32553 8012 8011 32558
8 32249 32250 32255 32254 32554 32555 32560 32559
8 32250 32251 32256 32255 32555 32556 32561 32560
8 32251 32252 32257 32256 32556 32557 32562 32561
8 32252 32253 32258 32257 32557 32558 32563 32562
8 32253 8072 8071 32258 32558 8011 8010 32563
8 32254 32255 32260 32259 32559 32560 32565 32564
8 32255 32256 32261 32260 32560 32561 32566 32565
8 32256 32257 32262 32261 32561 32562 32567 32566
8 32257 32258 32263 32262 32562 32563 32568 32567
8 32258 8071 8070 32263 32563 8010 8009 32568
8 32259 32260 32265 32264 32564 32565 32570 32569
8 32260 32261 32266 32265 32565 32566 32571 32570
8 32261 32262 32267 32266 32566 32567 32572 32571
8 32262 32263 32268 32267 32567 32568 32573 32572
8 32263 8070 8069 32268 32568 8009 8008 32573
8 32264 32265 32270 32269 32569 32570 32575 32574
8 32265 32266 32271 32270 32570 32571 32576 32575
8 32266 32267 32272 32271 32571 32572 32577 32576
8 32267 32268 32273 32272 32572 32573 32578 32577
8 32268 8069 8068 32273 32573 8008 8007 32578
8 32269 32270 32275 32274 32574 32575 32580 32579
8 32270 32271 32276 32275 32575 32576 32581 32580
8 32271 32272 32277 32276 32576 32577 32582 32581
8 32272 32273 32278 32277 32577 32578 32583 32582
8 32273 8068 8067 32278 32578 8007 8006 32583
8 32274 32275 32280 32279 32579 32580 32585 32584
8 32275 32276 32281 32280 32580 32581 32586 32585
8 32276 32277 32282 32281 32581 32582 32587 32586
8 32277 32278 32283 32282 32582 32583 32588 32587
8 32278 8067 8066 32283 32583 8006 8005 32588
8 32279 32280 32285 32284 32584 32585 32590 32589
8 32280 32281 32286 32285 32585 32586 32591 32590
8 32281 32282 32287 32286 32586 32587 32592 32591
8 32282 32283 32288 32287 32587 32588 32593 32592
8 32283 8066 8065 32288 32588 8005 8004 32593
8 32284 32285 32290 32289 32589 32590 32595 32594
8 32285 32286 32291 32290 32590 32591 32596 32595
8 32286 32287 32292 32291 32591 32592 32597 32596
8 32287 32288 32293 32292 32592 32593 32598 32597
8 32288 8065 8064 32293 32593 8004 8003 32598
8 32289 32290 32295 32294 32594 32595 32600 32599
8 32290 32291 32296 32295 32595 32596 32601 32600
8 32291 32292 32297 32296 32596 32597 32602 32601
8 32292 32293 32298 32297 32597 32598 32603 32602
8 32293 8064 8063 32298 32598 8003 8002 32603
8 2199 32294 32299 2200 2138 32599 32604 2139
8 32294 32295 32300 32299 32599 32600 32605 32604
8 32295 32296 32301 32300 32600 32601 32606 32605
8 32296 32297 32302 32301 32601 32602 32607 32606
8 32297 32298 32303 32302 32602 32603 32608 32607
8 32298 8063 8062 32303 32603 8002 8001 32608
8 2200 32299 12779 94 2139 32604 12774 93
8 32299 32300 12780 12779 32604 32605 12775 12774
8 32300 32301 12781 12780 32605 32606 12776 12775
8 32301 32302 12782 12781 32606 32607 12777 12776
8 32302 32303 12783 12782 32607 32608 12778 12777
8 32303 8062 6201 12783 32608 8001 6202 12778
8 280 12164 32304 2079 281 12169 32609 2018
8 12164 12165 32305 32304 12169 12170 32610 32609
8 12165 12166 32306 32305 12170 12171 32611 32610
8 12166 12167 32307 32306 12171 12172 32612 32611
8 12167 12168 32308 32307 12172 12173 32613 32612
8 12168 6015 8061 32308 12173 6014 8000 32613
8 2079 32304 32309 2080 2018 32609 32614 2019
8 32304 32305 32310 32309 32609 32610 32615 32614
8 32305 32306 32311 32310 32610 32611 32616 32615
8 32306 32307 32312 32311 32611 32612 32617 32616
8 32307 32308 32313 32312 32612 32613 32618 32617
8 32308 8061 8060 32313 32613 8000 7999 32618
8 2080 32309 32314 2081 2019 32614 32619 2020
8 32309 32310 32315 32314 32614 32615 32620 32619
8 32310 32311 32316 32315 32615 32616 32621 32620
8 32311 32312 32317 32316 32616 32617 32622 32621
8 32312 32313 32318 32317 32617 32618 32623 32622
8 32313 8060 8059 32318 32618 7999 7998 32623
8 2081 32314 32319 2082 2020 32619 32624 2021
8 32314 32315 32320 32319 32619 32620 32625 32624
8 32315 32316 32321 32320 32620 32621 32626 32625
8 32316 32317 32322 32321 32621 32622 32627 32626
8 32317 32318 32323 32322 32622 32623 32628 32627
8 32318 8059 8058 32323 32623 7998 7997 32628
8 2082 32319 32324 2083 2021 32624 32629 2022
8 32319 32320 32325 32324 32624 32625 32630 32629
8 32320 32321 32326 32325 32625 32626 32631 32630
8 32321 32322 32327 32326 32626 32627 32632 32631
8 32322 32323 32328 32327 32627 32628 32633 32632
8 32323 8058 8057 32328 32628 7997 7996 32633
8 2083 32324 32329 2084 2022 32629 32634 2023
8 32324 32325 32330 32329 32629 32630 32635 32634
8 32325 32326 32331 32330 32630 32631 32636 32635
8 32326 32327 32332 32331 32631 32632 32637 32636
8 32327 32328 32333 32332 32632 32633 32638 32637
8 32328 8057 8056 32333 32633 7996 7995 32638
8 2084 32329 32334 2085 2023 32634 32639 2024
8 32329 32330 32335 32334 32634 32635 32640 32639
8 32330 32331 32336 32335 32635 32636 32641 32640
8 32331 32332 32337 32336 32636 32637 32642 32641
8 32332 32333 32338 32337 32637 32638 32643 32642
8 32333 8056 8055 32338 32638 7995 7994 32643
8 2085 32334 32339 2086 2024 32639 32644 2025
8 32334 32335 32340 32339 32639 32640 32645 32644
8 32335 32336 32341 32340 32640 32641 32646 32645
8 32336 32337 32342 32341 32641 32642 32647 32646
8 32337 32338 32343 32342 32642 32643 32648 32647
8 32338 8055 8054 32343 32643 7994 7993 32648
8 2086 32339 32344 2087 2025 32644 32649 2026
8 32339 32340 32345 32344 32644 32645 32650 32649
8 32340 32341 32346 32345 32645 32646 32651 32650
8 32341 32342 32347 32346 32646 32647 32652 32651
8 32342 32343 32348 32347 32647 32648 32653 32652
8 32343 8054 8053 32348 32648 7993 7992 32653
8 2087 32344 32349 2088 2026 32649 32654 2027
8 32344 32345 32350 32349 32649 32650 32655 32654
8 32345 32346 32351 32350 32650 32651 32656 32655
8 32346 32347 32352 32351 32651 32652 32657 32656
8 32347 32348 32353 32352 32652 32653 32658 32657
8 32348 8053 8052 32353 32653 7992 7991 32658
8 2088 32349 32354 2089 2027 32654 32659 2028
8 32349 32350 32355 32354 32654 32655 32660 32659
8 32350 32351 32356 32355 32655 32656 32661 32660
8 32351 32352 32357 32356 32656 32657 32662 32661
8 32352 32353 32358 32357 32657 32658 32663 32662
8 32353 8052 8051 32358 32658 7991 7990 32663
8 2089 32354 32359 2090 2028 32659 32664 2029
8 32354 32355 32360 32359 32659 32660 32665 32664
8 32355 32356 32361 32360 32660 32661 32666 32665
8 32356 32357 32362 32361 32661 32662 32667 32666
8 32357 32358 32363 32362 32662 32663 32668 32667
8 32358 8051 8050 32363 32663 7990 7989 32668
8 2090 32359 32364 2091 2029 32664 32669 2030
8 32359 32360 32365 32364 32664 32665 32670 32669
8 32360 32361 32366 32365 32665 32666 32671 32670
8 32361 32362 32367 32366 32666 32667 32672 32671
8 32362 32363 32368 32367 32667 32668 32673 32672
8 32363 8050 8049 32368 32668 7989 7988 32673
8 2091 32364 32369 2092 2030 32669 32674 2031
8 32364 32365 32370 32369 32669 32670 32675 32674
8 32365 32366 32371 32370 32670 32671 32676 32675
8 32366 32367 32372 32371 32671 32672 32677 32676
8 32367 32368 32373 32372 32672 32673 32678 32677
8 32368 8049 8048 32373 32673 7988 7987 32678
8 2092 32369 32374 2093 2031 32674 32679 2032
8 32369 32370 32375 32374 32674 32675 32680 32679
8 32370 32371 32376 32375 32675 32676 32681 32680
8 32371 32372 32377 32376 32676 32677 32682 32681
8 32372 32373 32378 32377 32677 32678 32683 32682
8 32373 8048 8047 32378 32678 7987 7986 32683
8 2093 32374 32379 2094 2032 32679 32684 2033
8 32374 32375 32380 32379 32679 32680 32685 32684
8 32375 32376 32381 32380 32680 32681 32686 32685
8 32376 32377 32382 32381 32681 32682 32687 32686
8 32377 32378 32383 32382 32682 32683 32688 32687
8 32378 8047 8046 32383 32683 7986 7985 32688
8 2094 32379 32384 2095 2033 32684 32689 2034
8 32379 32380 32385 32384 32684 32685 32690 32689
8 32380 32381 32386 32385 32685 32686 32691 32690
8 32381 32382 32387 32386 32686 32687 32692 32691
8 32382 32383 32388 32387 32687 32688 32693 32692
8 32383 8046 8045 32388 32688 7985 7984 32693
8 2095 32384 32389 2096 2034 32689 32694 2035
8 32384 32385 32390 32389 32689 32690 32695 32694
8 32385 32386 32391 32390 32690 32691 32696 32695
8 32386 32387 32392 32391 32691 32692 32697 32696
8 32387 32388 32393 32392 32692 32693 32698 32697
8 32388 8045 8044 32393 32693 7984 7983 32698
8 2096 32389 32394 2097 2035 32694 32699 2036
8 32389 32390 32395 32394 32694 32695 32700 32699
8 32390 32391 32396 32395 32695 32696 32701 32700
8 32391 32392 32397 32396 32696 32697 32702 32701
8 32392 32393 32398 32397 32697 32698 32703 32702
8 32393 8044 8043 32398 32698 7983 7982 32703
8 2097 32394 32399 2098 2036 32699 32704 2037
8 32394 32395 32400 32399 32699 32700 32705 32704
8 32395 32396 32401 32400 32700 32701 32706 32705
8 32396 32397 32402 32401 32701 32702 32707 32706
8 32397 32398 32403 32402 32702 32703 32708 32707
8 32398 8043 8042 32403 32703 7982 7981 32708
8 2098 32399 32404 2099 2037 32704 32709 2038
8 32399 32400 32405 32404 32704 32705 32710 32709
8 32400 32401 32406 32405 32705 32706 32711 32710
8 32401 32402 32407 32406 32706 32707 32712 32711
8 32402 32403 32408 32407 32707 32708 32713 32712
8 32403 8042 8041 32408 32708 7981 7980 32713
8 2099 32404 32409 2100 2038 32709 32714 2039
8 32404 32405 32410 32409 32709 32710 32715 32714
8 32405 32406 32411 32410 32710 32711 32716 32715
8 32406 32407 32412 32411 32711 32712 32717 32716
8 32407 32408 32413 32412 32712 32713 32718 32717
8 32408 8041 8040 32413 32713 7980 7979 32718
8 2100 32409 32414 2101 2039 32714 32719 2040
8 32409 32410 32415 32414 32714 32715 32720 32719
8 32410 32411 32416 32415 32715 32716 32721 32720
8 32411 32412 32417 32416 32716 32717 32722 32721
8 32412 32413 32418 32417 32717 32718 32723 32722
8 32413 8040 8039 32418 32718 7979 7978 32723
8 2101 32414 32419 2102 2040 32719 32724 2041
8 32414 32415 32420 32419 32719 32720 32725 32724
8 32415 32416 32421 32420 32720 32721 32726 32725
8 32416 32417 32422 32421 32721 32722 32727 32726
8 32417 32418 32423 32422 32722 32723 32728 32727
8 32418 8039 8038 32423 32723 7978 7977 32728
8 2102 32419 32424 2103 2041 32724 32729 2042
8 32419 32420 32425 32424 32724 32725 32730 32729
8 32420 32421 32426 32425 32725 32726 32731 32730
8 32421 32422 32427 32426 32726 32727 32732 32731
8 32422 32423 32428 32427 32727 32728 32733 32732
8 32423 8038 8037 32428 32728 7977 7976 32733
8 2103 32424 32429 2104 2042 32729 32734 2043
8 32424 32425 32430 32429 32729 32730 32735 32734
8 32425 32426 32431 32430 32730 32731 32736 32735
8 32426 32427 32432 32431 32731 32732 32737 32736
8 32427 32428 32433 32432 32732 32733 32738 32737
8 32428 8037 8036 32433 32733 7976 7975 32738
8 2104 32429 32434 2105 2043 32734 32739 2044
8 32429 32430 32435 32434 32734 32735 32740 32739
8 32430 32431 32436 32435 32735 32736 32741 32740
8 32431 32432 32437 32436 32736 32737 32742 32741
8 32432 32433 32438 32437 32737 32738 32743 32742
8 32433 8036 8035 32438 32738 7975 7974 32743
8 2105 32434 32439 2106 2044 32739 32744 2045
8 32434 32435 32440 32439 32739 32740 32745 32744
8 32435 32436 32441 32440 32740 32741 32746 32745
8 32436 32437 32442 32441 32741 32742 32747 32746
8 32437 32438 32443 32442 32742 32743 32748 32747
8 32438 8035 8034 32443 32743 7974 7973 32748
8 2106 32439 32444 2107 2045 32744 32749 2046
8 32439 32440 32445 32444 32744 32745 32750 32749
8 32440 32441 32446 32445 32745 32746 32751 32750
8 32441 32442 32447 32446 32746 32747 32752 32751
8 32442 32443 32448 32447 32747 32748 32753 32752
8 32443 8034 8033 32448 32748 7973 7972 32753
8 2107 32444 32449 2108 2046 32749 32754 2047
8 32444 32445 32450 32449 32749 32750 32755 32754
8 32445 32446 32451 32450 32750 32751 32756 32755
8 32446 32447 32452 32451 32751 32752 32757 32756
8 32447 32448 32453 32452 32752 32753 32758 32757
8 32448 8033 8032 32453 32753 7972 7971 32758
8 2108 32449 32454 2109 2047 32754 32759 2048
8 32449 32450 32455 32454 32754 32755 32760 32759
8 32450 32451 32456 32455 32755 32756 32761 32760
8 32451 32452 32457 32456 32756 32757 32762 32761
8 32452 32453 32458 32457 32757 32758 32763 32762
8 32453 8032 8031 32458 32758 7971 7970 32763
8 2109 32454 32459 2110 2048 32759 32764 2049
8 32454 32455 32460 32459 32759 32760 32765 32764
8 32455 32456 32461 32460 32760 32761 32766 32765
8 32456 32457 32462 32461 32761 32762 32767 32766
8 32457 32458 32463 32462 32762 32763 32768 32767
8 32458 8031 8030 32463 32763 7970 7969 32768
8 2110 32459 32464 2111 2049 32764 32769 2050
8 32459 32460 32465 32464 32764 32765 32770 32769
8 32460 32461 32466 32465 32765 32766 32771 32770
8 32461 32462 32467 32466 32766 32767 32772 32771
8 32462 32463 32468 32467 32767 32768 32773 32772
8 32463 8030 8029 32468 32768 7969 7968 32773
8 2111 32464 32469 2112 2050 32769 32774 2051
8 32464 32465 32470 32469 32769 32770 32775 32774
8 32465 32466 32471 32470 32770 32771 32776 32775
8 32466 32467 32472 32471 32771 32772 32777 32776
8 32467 32468 32473 32472 32772 32773 32778 32777
8 32468 8029 8028 32473 32773 7968 7967 32778
8 2112 32469 32474 2113 2051 32774 32779 2052
8 32469 32470 32475 32474 32774 32775 32780 32779
8 32470 32471 32476 32475 32775 32776 32781 32780
8 32471 32472 32477 32476 32776 32777 32782 32781
8 32472 32473 32478 32477 32777 32778 32783 32782
8 32473 8028 8027 32478 32778 7967 7966 32783
8 2113 32474 32479 2114 2052 32779 32784 2053
8 32474 32475 32480 32479 32779 32780 32785 32784
8 32475 32476 32481 32480 32780 32781 32786 32785
8 32476 32477 32482 32481 32781 32782 32787 32786
8 32477 32478 32483 32482 32782 32783 32788 32787
8 32478 8027 8026 32483 32783 7966 7965 32788
8 2114 32479 32484 2115 2053 32784 32789 2054
8 32479 32480 32485 32484 32784 32785 32790 32789
8 32480 32481 32486 32485 32785 32786 32791 32790
8 32481 32482 32487 32486 32786 32787 32792 32791
8 32482 32483 32488 32487 32787 32788 32793 32792
8 32483 8026 8025 32488 32788 7965 7964 32793
8 2115 32484 32489 2116 2054 32789 32794 2055
8 32484 32485 32490 32489 32789 32790 32795 32794
8 32485 32486 32491 32490 32790 32791 32796 32795
8 32486 32487 32492 32491 32791 32792 32797 32796
8 32487 32488 32493 32492 32792 32793 32798 32797
8 32488 8025 8024 32493 32793 7964 7963 32798
8 2116 32489 32494 2117 2055 32794 32799 2056
8 32489 32490 32495 32494 32794 32795 32800 32799
8 32490 32491 32496 32495 32795 32796 32801 32800
8 32491 32492 32497 32496 32796 32797 32802 32801
8 32492 32493 32498 32497 32797 32798 32803 32802
8 32493 8024 8023 32498 32798 7963 7962 32803
8 2117 32494 32499 2118 2056 32799 32804 2057
8 32494 32495 32500 32499 32799 32800 32805 32804
8 32495 32496 32501 32500 32800 32801 32806 32805
8 32496 32497 32502 32501 32801 32802 32807 32806
8 32497 32498 32503 32502 32802 32803 32808 32807
8 32498 8023 8022 32503 32803 7962 7961 32808
8 2118 32499 32504 2119 2057 32804 32809 2058
8 32499 32500 32505 32504 32804 32805 32810 32809
8 32500 32501 32506 32505 32805 32806 32811 32810
8 32501 32502 32507 32506 32806 32807 32812 32811
8 32502 32503 32508 32507 32807 32808 32813 32812
8 32503 8022 8021 32508 32808 7961 7960 32813
8 2119 32504 32509 2120 2058 32809 32814 2059
8 32504 32505 32510 32509 32809 32810 32815 32814
8 32505 32506 32511 32510 32810 32811 32816 32815
8 32506 32507 32512 32511 32811 32812 32817 32816
8 32507 32508 32513 32512 32812 32813 32818 32817
8 32508 8021 8020 32513 32813 7960 7959 32818
8 2120 32509 32514 2121 2059 32814 32819 2060
8 32509 32510 32515 32514 32814 32815 32820 32819
8 32510 32511 32516 32515 32815 32816 32821 32820
8 32511 32512 32517 32516 32816 32817 32822 32821
8 32512 32513 32518 32517 32817 32818 32823 32822
8 32513 8020 8019 32518 32818 7959 7958 32823
8 2121 32514 32519 2122 2060 32819 32824 2061
8 32514 32515 32520 32519 32819 32820 32825 32824
8 32515 32516 32521 32520 32820 32821 32826 32825
8 32516 32517 32522 32521 32821 32822 32827 32826
8 32517 32518 32523 32522 32822 32823 32828 32827
8 32518 8019 8018 32523 32823 7958 7957 32828
8 2122 32519 32524 2123 2061 32824 32829 2062
8 32519 32520 32525 32524 32824 32825 32830 32829
8 32520 32521 32526 32525 32825 32826 32831 32830
8 32521 32522 32527 32526 32826 32827 32832 32831
8 32522 32523 32528 32527 32827 32828 32833 32832
8 32523 8018 8017 32528 32828 7957 7956 32833
8 2123 32524 32529 2124 2062 32829 32834 2063
8 32524 32525 32530 32529 32829 32830 32835 32834
8 32525 32526 32531 32530 32830 32831 32836 32835
8 32526 32527 32532 32531 32831 32832 32837 32836
8 32527 32528 32533 32532 32832 32833 32838 32837
8 32528 8017 8016 32533 32833 7956 7955 32838
8 2124 32529 32534 2125 2063 32834 32839 2064
8 32529 32530 32535 32534 32834 32835 32840 32839
8 32530 32531 32536 32535 32835 32836 32841 32840
8 32531 32532 32537 32536 32836 32837 32842 32841
8 32532 32533 32538 32537 32837 32838 32843 32842
8 32533 8016 8015 32538 32838 7955 7954 32843
8 2125 32534 32539 2126 2064 32839 32844 2065
8 32534 32535 32540 32539 32839 32840 32845 32844
8 32535 32536 32541 32540 32840 32841 32846 32845
8 32536 32537 32542 32541 32841 32842 32847 32846
8 32537 32538 32543 32542 32842 32843 32848 32847
8 32538 8015 8014 32543 32843 7954 7953 32848
8 2126 32539 32544 2127 2065 32844 32849 2066
8 32539 32540 32545 32544 32844 32845 32850 32849
8 32540 32541 32546 32545 32845 32846 32851 32850
8 32541 32542 32547 32546 32846 32847 32852 32851
8 32542 32543 32548 32547 32847 32848 32853 32852
8 32543 8014 8013 32548 32848 7953 7952 32853
8 2127 32544 32549 2128 2066 32849 32854 2067
8 32544 32545 32550 32549 32849 32850 32855 32854
8 32545 32546 32551 32550 32850 32851 32856 32855
8 32546 32547 32552 32551 32851 32852 32857 32856
8 32547 32548 32553 32552 32852 32853 32858 32857
8 32548 8013 8012 32553 32853 7952 7951 32858
8 2128 32549 32554 2129 2067 32854 32859 2068
8 32549 32550 32555 32554 32854 32855 32860 32859
8 32550 32551 32556 32555 32855 32856 32861 32860
8 32551 32552 32557 32556 32856 32857 32862 32861
8 32552 32553 32558 32557 32857 32858 32863 32862
8 32553 8012 8011 32558 32858 7951 7950 32863
8 2129 32554 32559 2130 2068 32859 32864 2069
8 32554 32555 32560 32559 32859 32860 32865 32864
8 32555 32556 32561 32560 32860 32861 32866 32865
8 32556 32557 32562 32561 32861 32862 32867 32866
8 32557 32558 32563 32562 32862 32863 32868 32867
8 32558 8011 8010 32563 32863 7950 7949 32868
8 2130 32559 32564 2131 2069 32864 32869 2070
8 32559 32560 32565 32564 32864 32865 32870 32869
8 32560 32561 32566 32565 32865 32866 32871 32870
8 32561 32562 32567 32566 32866 32867 32872 32871
8 32562 32563 32568 32567 32867 32868 32873 32872
8 32563 8010 8009 32568 32868 7949 7948 32873
8 2131 32564 32569 2132 2070 32869 32874 2071
8 32564 32565 32570 32569 32869 32870 32875 32874
8 32565 32566 32571 32570 32870 32871 32876 32875
8 32566 32567 32572 32571 32871 32872 32877 32876
8 32567 32568 32573 32572 32872 32873 32878 32877
8 32568 8009 8008 32573 32873 7948 7947 32878
8 2132 32569 32574 2133 2071 32874 32879 2072
8 32569 32570 32575 32574 32874 32875 32880 32879
8 32570 32571 32576 32575 32875 32876 32881 32880
8 32571 32572 32577 32576 32876 32877 32882 32881
8 32572 32573 32578 32577 32877 32878 32883 32882
8 32573 8008 8007 32578 32878 7947 7946 32883
8 2133 32574 32579 2134 2072 32879 32884 2073
8 32574 32575 32580 32579 32879 32880 32885 32884
8 32575 32576 32581 32580 32880 32881 32886 32885
8 32576 32577 32582 32581 32881 32882 32887 32886
8 32577 32578 32583 32582 32882 32883 32888 32887
8 32578 8007 8006 32583 32883 7946 7945 32888
8 2134 32579 32584 2135 2073 32884 32889 2074
8 32579 32580 32585 32584 32884 32885 32890 32889
8 32580 32581 32586 32585 32885 32886 32891 32890
8 32581 32582 32587 32586 32886 32887 32892 32891
8 32582 32583 32588 32587 32887 32888 32893 32892
8 32583 8006 8005 32588 32888 7945 7944 32893
8 2135 32584 32589 2136 2074 32889 32894 2075
8 32584 32585 32590 32589 32889 32890 32895 32894
8 32585 32586 32591 32590 32890 32891 32896 32895
8 32586 32587 32592 32591 32891 32892 32897 32896
8 32587 32588 32593 32592 32892 32893 32898 32897
8 32588 8005 8004 32593 32893 7944 7943 32898
8 2136 32589 32594 2137 2075 32894 32899 2076
8 32589 32590 32595 32594 32894 32895 32900 32899
8 32590 32591 32596 32595 32895 32896 32901 32900
8 32591 32592 32597 32596 32896 32897 32902 32901
8 32592 32593 32598 32597 32897 32898 32903 32902
8 32593 8004 8003 32598 32898 7943 7942 32903
8 2137 32594 32599 2138 2076 32899 32904 2077
8 32594 32595 32600 32599 32899 32900 32905 32904
8 32595 32596 32601 32600 32900 32901 32906 32905
8 32596 32597 32602 32601 32901 32902 32907 32906
8 32597 32598 32603 32602 32902 32903 32908 32907
8 32598 8003 8002 32603 32903 7942 7941 32908
8 2138 32599 32604 2139 2077 32904 32909 2078
8 32599 32600 32605 32604 32904 32905 32910 32909
8 32600 32601 32606 32605 32905 32906 32911 32910
8 32601 32602 32607 32606 32906 32907 32912 32911
8 32602 32603 32608 32607 32907 32908 32913 32912
8 32603 8002 8001 32608 32908 7941 7940 32913
8 2139 32604 12774 93 2078 32909 12769 92
8 32604 32605 12775 12774 32909 32910 12770 12769
8 32605 32606 12776 12775 32910 32911 12771 12770
8 32606 32607 12777 12776 32911 32912 12772 12771
8 32607 32608 12778 12777 32912 32913 12773 12772
8 32608 8001 6202 12778 32913 7940 6203 12773
8 281 12169 32609 2018 282 12174 32914 1957
8 12169 12170 32610 32609 12174 12175 32915 32914
8 12170 12171 32611 32610 12175 12176 32916 32915
8 12171 12172 32612 32611 12176 12177 32917 32916
8 12172 12173 32613 32612 12177 12178 32918 32917
8 12173 6014 8000 32613 12178 6013 7939 32918
8 2018 32609 32614 2019 1957 32914 32919 1958
8 32609 32610 32615 32614 32914 32915 32920 32919
8 32610 32611 32616 32615 32915 32916 32921 32920
8 32611 32612 32617 32616 32916 32917 32922 32921
8 32612 32613 32618 32617 32917 32918 32923 32922
8 32613 8000 7999 32618 32918 7939 7938 32923
8 2019 32614 32619 2020 1958 32919 32924 1959
8 32614 32615 32620 32619 32919 32920 32925 32924
8 32615 32616 32621 32620 32920 32921 32926 32925
8 32616 32617 32622 32621 32921 32922 32927 32926
8 32617 32618 32623 32622 32922 32923 32928 32927
8 32618 7999 7998 32623 32923 7938 7937 32928
8 2020 32619 32624 2021 1959 32924 32929 1960
8 32619 32620 32625 32624 32924 32925 32930 32929
8 32620 32621 32626 32625 32925 32926 32931 32930
8 32621 32622 32627 32626 32926 32927 32932 32931
8 32622 32623 32628 32627 32927 32928 32933 32932
8 32623 7998 7997 32628 32928 7937 7936 32933
8 2021 32624 32629 2022 1960 32929 32934 1961
8 32624 32625 32630 32629 32929 32930 32935 32934
8 32625 32626 32631 32630 32930 32931 32936 32935
8 32626 32627 32632 32631 32931 32932 32937 32936
8 32627 32628 32633 32632 32932 32933 32938 32937
8 32628 7997 7996 32633 32933 7936 7935 32938
8 2022 32629 32634 2023 1961 32934 32939 1962
8 32629 32630 32635 32634 32934 32935 32940 32939
8 32630 32631 32636 32635 32935 32936 32941 32940
8 32631 32632 32637 32636 32936 32937 32942 32941
8 32632 32633 32638 32637 32937 32938 32943 32942
8 32633 7996 7995 32638 32938 7935 7934 32943
8 2023 32634 32639 2024 1962 32939 32944 1963
8 32634 32635 32640 32639 32939 32940 32945 32944
8 32635 32636 32641 32640 32940 32941 32946 32945
8 32636 32637 32642 32641 32941 32942 32947 32946
8 32637 32638 32643 32642 32942 32943 32948 32947
8 32638 7995 7994 32643 32943 7934 7933 32948
8 2024 32639 32644 2025 1963 32944 32949 1964
8 32639 32640 32645 32644 32944 32945 32950 32949
8 32640 32641 32646 32645 32945 32946 32951 32950
8 32641 32642 32647 32646 32946 32947 32952 32951
8 32642 32643 32648 32647 32947 32948 32953 32952
8 32643 7994 7993 32648 32948 7933 7932 32953
8 2025 32644 32649 2026 1964 32949 32954 1965
8 32644 32645 32650 32649 32949 32950 32955 32954
8 32645 32646 32651 32650 32950 32951 32956 32955
8 32646 32647 32652 32651 32951 32952 32957 32956
8 32647 32648 32653 32652 32952 32953 32958 32957
8 32648 7993 7992 32653 32953 7932 7931 32958
8 2026 32649 32654 2027 1965 32954 32959 1966
8 32649 32650 32655 32654 32954 32955 32960 32959
8 32650 32651 32656 32655 32955 32956 32961 32960
8 32651 32652 32657 32656 32956 32957 32962 32961
8 32652 32653 32658 32657 32957 32958 32963 32962
8 32653 7992 7991 32658 32958 7931 7930 32963
8 2027 32654 32659 2028 1966 32959 32964 1967
8 32654 32655 32660 32659 32959 32960 32965 32964
8 32655 32656 32661 32660 32960 32961 32966 32965
8 32656 32657 32662 32661 32961 32962 32967 32966
8 32657 32658 32663 32662 32962 32963 32968 32967
8 32658 7991 7990 32663 32963 7930 7929 32968
8 2028 32659 32664 2029 1967 32964 32969 1968
8 32659 32660 32665 32664 32964 32965 32970 32969
8 32660 32661 32666 32665 32965 32966 32971 32970
8 32661 32662 32667 32666 32966 32967 32972 32971
8 32662 32663 32668 32667 32967 32968 32973 32972
8 32663 7990 7989 32668 32968 7929 7928 32973
8 2029 32664 32669 2030 1968 32969 32974 1969
8 32664 32665 32670 32669 32969 32970 32975 32974
8 32665 32666 32671 32670 32970 32971 32976 32975
8 32666 32667 32672 32671 32971 32972 32977 32976
8 32667 32668 32673 32672 32972 32973 32978 32977
8 32668 7989 7988 32673 32973 7928 7927 32978
8 2030 32669 32674 2031 1969 32974 32979 1970
8 32669 32670 32675 32674 32974 32975 32980 32979
8 32670 32671 32676 32675 32975 32976 32981 32980
8 32671 32672 32677 32676 32976 32977 32982 32981
8 32672 32673 32678 32677 32977 32978 32983 32982
8 32673 7988 7987 32678 32978 7927 7926 32983
8 2031 32674 32679 2032 1970 32979 32984 1971
8 32674 32675 32680 32679 32979 32980 32985 32984
8 32675 32676 32681 32680 32980 32981 32986 32985
8 32676 32677 32682 32681 32981 32982 32987 32986
8 32677 32678 32683 32682 32982 32983 32988 32987
8 32678 7987 7986 32683 32983 7926 7925 32988
8 2032 32679 32684 2033 1971 32984 32989 1972
8 32679 32680 32685 32684 32984 32985 32990 32989
8 32680 32681 32686 32685 32985 32986 32991 32990
8 32681 32682 32687 32686 32986 32987 32992 32991
8 32682 32683 32688 32687 32987 32988 32993 32992
8 32683 7986 7985 32688 32988 7925 7924 32993
8 2033 32684 32689 2034 1972 32989 32994 1973
8 32684 32685 32690 32689 32989 32990 32995 32994
8 32685 32686 32691 32690 32990 32991 32996 32995
8 32686 32687 32692 32691 32991 32992 32997 32996
8 32687 32688 32693 32692 32992 32993 32998 32997
8 32688 7985 7984 32693 32993 7924 7923 32998
8 2034 32689 32694 2035 1973 32994 32999 1974
8 32689 32690 32695 32694 32994 32995 33000 32999
8 32690 32691 32696 32695 32995 32996 33001 33000
8 32691 32692 32697 32696 32996 32997 33002 33001
8 32692 32693 32698 32697 32997 32998 33003 33002
8 32693 7984 7983 32698 32998 7923 7922 33003
8 2035 32694 32699 2036 1974 32999 33004 1975
8 32694 32695 32700 32699 32999 33000 33005 33004
8 32695 32696 32701 32700 33000 33001 33006 33005
8 32696 32697 32702 32701 33001 33002 33007 33006
8 32697 32698 32703 32702 33002 33003 33008 33007
8 32698 7983 7982 32703 33003 7922 7921 33008
8 2036 32699 32704 2037 1975 33004 33009 1976
8 32699 32700 32705 32704 33004 33005 33010 33009
8 32700 32701 32706 32705 33005 33006 33011 33010
8 32701 32702 32707 32706 33006 33007 33012 33011
8 32702 32703 32708 32707 33007 33008 33013 33012
8 32703 7982 7981 32708 33008 7921 7920 33013
8 2037 32704 32709 2038 1976 33009 33014 1977
8 32704 32705 32710 32709 33009 33010 33015 33014
8 32705 32706 32711 32710 33010 33011 33016 33015
8 32706 32707 32712 32711 33011 33012 33017 33016
8 32707 32708 32713 32712 33012 33013 33018 33017
8 32708 7981 7980 32713 33013 7920 7919 33018
8 2038 32709 32714 2039 1977 33014 33019 1978
8 32709 32710 32715 32714 33014 33015 33020 33019
8 32710 32711 32716 32715 33015 33016 33021 33020
8 32711 32712 32717 32716 33016 33017 33022 33021
8 32712 32713 32718 32717 33017 33018 33023 33022
8 32713 7980 7979 32718 33018 7919 7918 33023
8 2039 32714 32719 2040 1978 33019 33024 1979
8 32714 32715 32720 32719 33019 33020 33025 33024
8 32715 32716 32721 32720 33020 33021 33026 33025
8 32716 32717 32722 32721 33021 33022 33027 33026
8 32717 32718 32723 32722 33022 33023 33028 33027
8 32718 7979 7978 32723 33023 7918 7917 33028
8 2040 32719 32724 2041 1979 33024 33029 1980
8 32719 32720 32725 32724 33024 33025 33030 33029
8 32720 32721 32726 32725 33025 33026 33031 33030
8 32721 32722 32727 32726 33026 33027 33032 33031
8 32722 32723 32728 32727 33027 33028 33033 33032
8 32723 7978 7977 32728 33028 7917 7916 33033
8 2041 32724 32729 2042 1980 33029 33034 1981
8 32724 32725 32730 32729 33029 33030 33035 33034
8 32725 32726 32731 32730 33030 33031 33036 33035
8 32726 32727 32732 32731 33031 33032 33037 33036
8 32727 32728 32733 32732 33032 33033 33038 33037
8 32728 7977 7976 32733 33033 7916 7915 33038
8 2042 32729 32734 2043 1981 33034 33039 1982
8 32729 32730 32735 32734 33034 33035 33040 33039
8 32730 32731 32736 32735 33035 33036 33041 33040
8 32731 32732 32737 32736 33036 33037 33042 33041
8 32732 32733 32738 32737 33037 33038 33043 33042
8 32733 7976 7975 32738 33038 7915 7914 33043
8 2043 32734 32739 2044 1982 33039 33044 1983
8 32734 32735 32740 32739 33039 33040 33045 33044
8 32735 32736 32741 32740 33040 33041 33046 33045
8 32736 32737 32742 32741 33041 33042 33047 33046
8 32737 32738 32743 32742 33042 33043 33048 33047
8 32738 7975 7974 32743 33043 7914 7913 33048
8 2044 32739 32744 2045 1983 33044 33049 1984
8 32739 32740 32745 32744 33044 33045 33050 33049
8 32740 32741 32746 32745 33045 33046 33051 33050
8 32741 32742 32747 32746 33046 33047 33052 33051
8 32742 32743 32748 32747 33047 33048 33053 33052
8 32743 7974 7973 32748 33048 7913 7912 33053
8 2045 32744 32749 2046 1984 33049 33054 1985
8 32744 32745 32750 32749 33049 33050 33055 33054
8 32745 32746 32751 32750 33050 33051 33056 33055
8 32746 32747 32752 32751 33051 33052 33057 33056
8 32747 32748 32753 32752 33052 33053 33058 33057
8 32748 7973 7972 32753 33053 7912 7911 33058
8 2046 32749 32754 2047 1985 33054 33059 1986
8 32749 32750 32755 32754 33054 33055 33060 33059
8 32750 32751 32756 32755 33055 33056 33061 33060
8 32751 32752 32757 32756 33056 33057 33062 33061
8 32752 32753 32758 32757 33057 33058 33063 33062
8 32753 7972 7971 32758 33058 7911 7910 33063
8 2047 32754 32759 2048 1986 33059 33064 1987
8 32754 32755 32760 32759 33059 33060 33065 33064
8 32755 32756 32761 32760 33060 33061 33066 33065
8 32756 32757 32762 32761 33061 33062 33067 33066
8 32757 32758 32763 32762 33062 33063 33068 33067
8 32758 7971 7970 32763 33063 7910 7909 33068
8 2048 32759 32764 2049 1987 33064 33069 1988
8 32759 32760 32765 32764 33064 33065 33070 33069
8 32760 32761 32766 32765 33065 33066 33071 33070
8 32761 32762 32767 32766 33066 33067 33072 33071
8 32762 32763 32768 32767 33067 33068 33073 33072
8 32763 7970 7969 32768 33068 7909 7908 33073
8 2049 32764 32769 2050 1988 33069 33074 1989
8 32764 32765 32770 32769 33069 33070 33075 33074
8 32765 32766 32771 32770 33070 33071 33076 33075
8 32766 32767 32772 32771 33071 33072 33077 33076
8 32767 32768 32773 32772 33072 33073 33078 33077
8 32768 7969 7968 32773 33073 7908 7907 33078
8 2050 32769 32774 2051 1989 33074 33079 1990
8 32769 32770 32775 32774 33074 33075 33080 33079
8 32770 32771 32776 32775 33075 33076 33081 33080
8 32771 32772 32777 32776 33076 33077 33082 33081
8 32772 32773 32778 32777 33077 33078 33083 33082
8 32773 7968 7967 32778 33078 7907 7906 33083
8 2051 32774 32779 2052 1990 33079 33084 1991
8 32774 32775 32780 32779 33079 33080 33085 33084
8 32775 32776 32781 32780 33080 33081 33086 33085
8 32776 32777 32782 32781 33081 33082 33087 33086
8 32777 32778 32783 32782 33082 33083 33088 33087
8 32778 7967 7966 32783 33083 7906 7905 33088
8 2052 32779 32784 2053 1991 33084 33089 1992
8 32779 32780 32785 32784 33084 33085 33090 33089
8 32780 32781 32786 32785 33085 33086 33091 33090
8 32781 32782 32787 32786 33086 33087 33092 33091
8 32782 32783 32788 32787 33087 33088 33093 33092
8 32783 7966 7965 32788 33088 7905 7904 33093
8 2053 32784 32789 2054 1992 33089 33094 1993
8 32784 32785 32790 32789 33089 33090 33095 33094
8 32785 32786 32791 32790 33090 33091 33096 33095
8 32786 32787 32792 32791 33091 33092 33097 33096
8 32787 32788 32793 32792 33092 33093 33098 33097
8 32788 7965 7964 32793 33093 7904 7903 33098
8 2054 32789 32794 2055 1993 33094 33099 1994
8 32789 32790 32795 32794 33094 33095 33100 33099
8 32790 32791 32796 32795 33095 33096 33101 33100
8 32791 32792 32797 32796 33096 33097 33102 33101
8 32792 32793 32798 32797 33097 33098 33103 33102
8 32793 7964 7963 32798 33098 7903 7902 33103
8 2055 32794 32799 2056 1994 33099 33104 1995
8 32794 32795 32800 32799 33099 33100 33105 33104
8 32795 32796 32801 32800 33100 33101 33106 33105
8 32796 32797 32802 32801 33101 33102 33107 33106
8 32797 32798 32803 32802 33102 33103 33108 33107
8 32798 7963 7962 32803 33103 7902 7901 33108
8 2056 32799 32804 2057 1995 33104 33109 1996
8 32799 32800 32805 32804 33104 33105 33110 33109
8 32800 32801 32806 32805 33105 33106 33111 33110
8 32801 32802 32807 32806 33106 33107 33112 33111
8 32802 32803 32808 32807 33107 33108 33113 33112
8 32803 7962 7961 32808 33108 7901 7900 33113
8 2057 32804 32809 2058 1996 33109 33114 1997
8 32804 32805 32810 32809 33109 33110 33115 33114
8 32805 32806 32811 32810 33110 33111 33116 33115
8 32806 32807 32812 32811 33111 33112 33117 33116
8 32807 32808 32813 32812 33112 33113 33118 33117
8 32808 7961 7960 32813 33113 7900 7899 33118
8 2058 32809 32814 2059 1997 33114 33119 1998
8 32809 32810 32815 32814 33114 33115 33120 33119
8 32810 32811 32816 32815 33115 33116 33121 33120
8 32811 32812 32817 32816 33116 33117 33122 33121
8 32812 32813 32818 32817 33117 33118 33123 33122
8 32813 7960 7959 32818 33118 7899 7898 33123
8 2059 32814 32819 2060 1998 33119 33124 1999
8 32814 32815 32820 32819 33119 33120 33125 33124
8 32815 32816 32821 32820 33120 33121 33126 33125
8 32816 32817 32822 32821 33121 33122 33127 33126
8 32817 32818 32823 32822 33122 33123 33128 33127
8 32818 7959 7958 32823 33123 7898 7897 33128
8 2060 32819 32824 2061 1999 33124 33129 2000
8 32819 32820 32825 32824 33124 33125 33130 33129
8 32820 32821 32826 32825 33125 33126 33131 33130
8 32821 32822 32827 32826 33126 33127 33132 33131
8 32822 32823 32828 32827 33127 33128 33133 33132
8 32823 7958 7957 32828 33128 7897 7896 33133
8 2061 32824 32829 2062 2000 33129 33134 2001
8 32824 32825 32830 32829 33129 33130 33135 33134
8 32825 32826 32831 32830 33130 33131 33136 33135
8 32826 32827 32832 32831 33131 33132 33137 33136
8 32827 32828 32833 32832 33132 33133 33138 33137
8 32828 7957 7956 32833 33133 7896 7895 33138
8 2062 32829 32834 2063 2001 33134 33139 2002
8 32829 32830 32835 32834 33134 33135 33140 33139
8 32830 32831 32836 32835 33135 33136 33141 33140
8 32831 32832 32837 32836 33136 33137 33142 33141
8 32832 32833 32838 32837 33137 33138 33143 33142
8 32833 7956 7955 32838 33138 7895 7894 33143
8 2063 32834 32839 2064 2002 33139 33144 2003
8 32834 32835 32840 32839 33139 33140 33145 33144
8 32835 32836 32841 32840 33140 33141 33146 33145
8 32836 32837 32842 32841 33141 33142 33147 33146
8 32837 32838 32843 32842 33142 33143 33148 33147
8 32838 7955 7954 32843 33143 7894 7893 33148
8 2064 32839 32844 2065 2003 33144 33149 2004
8 32839 32840 32845 32844 33144 33145 33150 33149
8 32840 32841 32846 32845 33145 33146 33151 33150
8 32841 32842 32847 32846 33146 33147 33152 33151
8 32842 32843 32848 32847 33147 33148 33153 33152
8 32843 7954 7953 32848 33148 7893 7892 33153
8 2065 32844 32849 2066 2004 33149 33154 2005
8 32844 32845 32850 32849 33149 33150 33155 33154
8 32845 32846 32851 32850 33150 33151 33156 33155
8 32846 32847 32852 32851 33151 33152 33157 33156
8 32847 32848 32853 32852 33152 33153 33158 33157
8 32848 7953 7952 32853 33153 7892 7891 33158
8 2066 32849 32854 2067 2005 33154 33159 2006
8 32849 32850 32855 32854 33154 33155 33160 33159
8 32850 32851 32856 32855 33155 33156 33161 33160
8 32851 32852 32857 32856 33156 33157 33162 33161
8 32852 32853 32858 32857 33157 33158 33163 33162
8 32853 7952 7951 32858 33158 7891 7890 33163
8 2067 32854 32859 2068 2006 33159 33164 2007
8 32854 32855 32860 32859 33159 33160 33165 33164
8 32855 32856 32861 32860 33160 33161 33166 33165
8 32856 32857 32862 32861 33161 33162 33167 33166
8 32857 32858 32863 32862 33162 33163 33168 33167
8 32858 7951 7950 32863 33163 7890 7889 33168
8 2068 32859 32864 2069 2007 33164 33169 2008
8 32859 32860 32865 32864 33164 33165 33170 33169
8 32860 32861 32866 32865 33165 33166 33171 33170
8 32861 32862 32867 32866 33166 33167 33172 33171
8 32862 32863 32868 32867 33167 33168 33173 33172
8 32863 7950 7949 32868 33168 7889 7888 33173
8 2069 32864 32869 2070 2008 33169 33174 2009
8 32864 32865 32870 32869 33169 33170 33175 33174
8 32865 32866 32871 32870 33170 33171 33176 33175
8 32866 32867 32872 32871 33171 33172 33177 33176
8 32867 32868 32873 32872 33172 33173 33178 33177
8 32868 7949 7948 32873 33173 7888 7887 33178
8 2070 32869 32874 2071 2009 33174 33179 2010
8 32869 32870 32875 32874 33174 33175 33180 33179
8 32870 32871 32876 32875 33175 33176 33181 33180
8 32871 32872 32877 32876 33176 33177 33182 33181
8 32872 32873 32878 32877 33177 33178 33183 33182
8 32873 7948 7947 32878 33178 7887 7886 33183
8 2071 32874 32879 2072 2010 33179 33184 2011
8 32874 32875 32880 32879 33179 33180 33185 33184
8 32875 32876 32881 32880 33180 33181 33186 33185
8 32876 32877 32882 32881 33181 33182 33187 33186
8 32877 32878 32883 32882 33182 33183 33188 33187
8 32878 7947 7946 32883 33183 7886 7885 33188
8 2072 32879 32884 2073 2011 33184 33189 2012
8 32879 32880 32885 32884 33184 33185 33190 33189
8 32880 32881 32886 32885 33185 33186 33191 33190
8 32881 32882 32887 32886 33186 33187 33192 33191
8 32882 32883 32888 32887 33187 33188 33193 33192
8 32883 7946 7945 32888 33188 7885 7884 33193
8 2073 32884 32889 2074 2012 33189 33194 2013
8 32884 32885 32890 32889 33189 33190 33195 33194
8 32885 32886 32891 32890 33190 33191 33196 33195
8 32886 32887 32892 32891 33191 33192 33197 33196
8 32887 32888 32893 32892 33192 33193 33198 33197
8 32888 7945 7944 32893 33193 7884 7883 33198
8 2074 32889 32894 2075 2013 33194 33199 2014
8 32889 32890 32895 32894 33194 33195 33200 33199
8 32890 32891 32896 32895 33195 33196 33201 33200
8 32891 32892 32897 32896 33196 33197 33202 33201
8 32892 32893 32898 32897 33197 33198 33203 33202
8 32893 7944 7943 32898 33198 7883 7882 33203
8 2075 32894 32899 2076 2014 33199 33204 2015
8 32894 32895 32900 32899 33199 33200 33205 33204
8 32895 32896 32901 32900 33200 33201 33206 33205
8 32896 32897 32902 32901 33201 33202 33207 33206
8 32897 32898 32903 32902 33202 33203 33208 33207
8 32898 7943 7942 32903 33203 7882 7881 33208
8 2076 32899 32904 2077 2015 33204 33209 2016
8 32899 32900 32905 32904 33204 33205 33210 33209
8 32900 32901 32906 32905 33205 33206 33211 33210
8 32901 32902 32907 32906 33206 33207 33212 33211
8 32902 32903 32908 32907 33207 33208 33213 33212
8 32903 7942 7941 32908 33208 7881 7880 33213
8 2077 32904 32909 2078 2016 33209 33214 2017
8 32904 32905 32910 32909 33209 33210 33215 33214
8 32905 32906 32911 32910 33210 33211 33216 33215
8 32906 32907 32912 32911 33211 33212 33217 33216
8 32907 32908 32913 32912 33212 33213 33218 33217
8 32908 7941 7940 32913 33213 7880 7879 33218
8 2078 32909 12769 92 2017 33214 12764 91
8 32909 32910 12770 12769 33214 33215 12765 12764
8 32910 32911 12771 12770 33215 33216 12766 12765
8 32911 32912 12772 12771 33216 33217 12767 12766
8 32912 32913 12773 12772 33217 33218 12768 12767
8 32913 7940 6203 12773 33218 7879 6204 12768
8 282 12174 32914 1957 283 12179 33219 1896
8 12174 12175 32915 32914 12179 12180 33220 33219
8 12175 12176 32916 32915 12180 12181 33221 33220
8 12176 12177 32917 32916 12181 12182 33222 33221
8 12177 12178 32918 32917 12182 12183 33223 33222
8 12178 6013 7939 32918 12183 6012 7878 33223
8 1957 32914 32919 1958 1896 33219 33224 1897
8 32914 32915 32920 32919 33219 33220 33225 33224
8 32915 32916 32921 32920 33220 33221 33226 33225
8 32916 32917 32922 32921 33221 33222 33227 33226
8 32917 32918 32923 32922 33222 33223 33228 33227
8 32918 7939 7938 32923 33223 7878 7877 33228
8 1958 32919 32924 1959 1897 33224 33229 1898
8 32919 32920 32925 32924 33224 33225 33230 33229
8 32920 32921 32926 32925 33225 33226 33231 33230
8 32921 32922 32927 32926 33226 33227 33232 33231
8 32922 32923 32928 32927 33227 33228 33233 33232
8 32923 7938 7937 32928 33228 7877 7876 33233
8 1959 32924 32929 1960 1898 33229 33234 1899
8 32924 32925 32930 32929 33229 33230 33235 33234
8 32925 32926 32931 32930 33230 33231 33236 33235
8 32926 32927 32932 32931 33231 33232 33237 33236
8 32927 32928 32933 32932 33232 33233 33238 33237
8 32928 7937 7936 32933 33233 7876 7875 33238
8 1960 32929 32934 1961 1899 33234 33239 1900
8 32929 32930 32935 32934 33234 33235 33240 33239
8 32930 32931 32936 32935 33235 33236 33241 33240
8 32931 32932 32937 32936 33236 33237 33242 33241
8 32932 32933 32938 32937 33237 33238 33243 33242
8 32933 7936 7935 32938 33238 7875 7874 33243
8 1961 32934 32939 1962 1900 33239 33244 1901
8 32934 32935 32940 32939 33239 33240 33245 33244
8 32935 32936 32941 32940 33240 33241 33246 33245
8 32936 32937 32942 32941 33241 33242 33247 33246
8 32937 32938 32943 32942 33242 33243 33248 33247
8 32938 7935 7934 32943 33243 7874 7873 33248
8 1962 32939 32944 1963 1901 33244 33249 1902
8 32939 32940 32945 32944 33244 33245 33250 33249
8 32940 32941 32946 32945 33245 33246 33251 33250
8 32941 32942 32947 32946 33246 33247 33252 33251
8 32942 32943 32948 32947 33247 33248 33253 33252
8 32943 7934 7933 32948 33248 7873 7872 33253
8 1963 32944 32949 1964 1902 33249 33254 1903
8 32944 32945 32950 32949 33249 33250 33255 33254
8 32945 32946 32951 32950 33250 33251 33256 33255
8 32946 32947 32952 32951 33251 33252 33257 33256
8 32947 32948 32953 32952 33252 33253 33258 33257
8 32948 7933 7932 32953 33253 7872 7871 33258
8 1964 32949 32954 1965 1903 33254 33259 1904
8 32949 32950 32955 32954 33254 33255 33260 33259
8 32950 32951 32956 32955 33255 33256 33261 33260
8 32951 32952 32957 32956 33256 33257 33262 33261
8 32952 32953 32958 32957 33257 33258 33263 33262
8 32953 7932 7931 32958 33258 7871 7870 33263
8 1965 32954 32959 1966 1904 33259 33264 1905
8 32954 32955 32960 32959 33259 33260 33265 33264
8 32955 32956 32961 32960 33260 33261 33266 33265
8 32956 32957 32962 32961 33261 33262 33267 33266
8 32957 32958 32963 32962 33262 33263 33268 33267
8 32958 7931 7930 32963 33263 7870 7869 33268
8 1966 32959 32964 1967 1905 33264 33269 1906
8 32959 32960 32965 32964 33264 33265 33270 33269
8 32960 32961 32966 32965 33265 33266 33271 33270
8 32961 32962 32967 32966 33266 33267 33272 33271
8 32962 32963 32968 32967 33267 33268 33273 33272
8 32963 7930 7929 32968 33268 7869 7868 33273
8 1967 32964 32969 1968 1906 33269 33274 1907
8 32964 32965 32970 32969 33269 33270 33275 33274
8 32965 32966 32971 32970 33270 33271 33276 33275
8 32966 32967 32972 32971 33271 33272 33277 33276
8 32967 32968 32973 32972 33272 33273 33278 33277
8 32968 7929 7928 32973 33273 7868 7867 33278
8 1968 32969 32974 1969 1907 33274 33279 1908
8 32969 32970 32975 32974 33274 33275 33280 33279
8 32970 32971 32976 32975 33275 33276 33281 33280
8 32971 32972 32977 32976 33276 33277 33282 33281
8 32972 32973 32978 32977 33277 33278 33283 33282
8 32973 7928 7927 32978 33278 7867 7866 33283
8 1969 32974 32979 1970 1908 33279 33284 1909
8 32974 32975 32980 32979 33279 33280 33285 33284
8 32975 32976 32981 32980 33280 33281 33286 33285
8 32976 32977 32982 32981 33281 33282 33287 33286
8 32977 32978 32983 32982 33282 33283 33288 33287
8 32978 7927 7926 32983 33283 7866 7865 33288
8 1970 32979 32984 1971 1909 33284 33289 1910
8 32979 32980 32985 32984 33284 33285 33290 33289
8 32980 32981 32986 32985 33285 33286 33291 33290
8 32981 32982 32987 32986 33286 33287 33292 33291
8 32982 32983 32988 32987 33287 33288 33293 33292
8 32983 7926 7925 32988 33288 7865 7864 33293
8 1971 32984 32989 1972 1910 33289 33294 1911
8 32984 32985 32990 32989 33289 33290 33295 33294
8 32985 32986 32991 32990 33290 33291 33296 33295
8 32986 32987 32992 32991 33291 33292 33297 33296
8 32987 32988 32993 32992 33292 33293 33298 33297
8 32988 7925 7924 32993 33293 7864 7863 33298
8 1972 32989 32994 1973 1911 33294 33299 1912
8 32989 32990 32995 32994 33294 33295 33300 33299
8 32990 32991 32996 32995 33295 33296 33301 33300
8 32991 32992 32997 32996 33296 33297 33302 33301
8 32992 32993 32998 32997 33297 33298 33303 33302
8 32993 7924 7923 32998 33298 7863 7862 33303
8 1973 32994 32999 1974 1912 33299 33304 1913
8 32994 32995 33000 32999 33299 33300 33305 33304
8 32995 32996 33001 33000 33300 33301 33306 33305
8 32996 32997 33002 33001 33301 33302 33307 33306
8 32997 32998 33003 33002 33302 33303 33308 33307
8 32998 7923 7922 33003 33303 7862 7861 33308
8 1974 32999 33004 1975 1913 33304 33309 1914
8 32999 33000 33005 33004 33304 33305 33310 33309
8 33000 33001 33006 33005 33305 33306 33311 33310
8 33001 33002 33007 33006 33306 33307 33312 33311
8 33002 33003 33008 33007 33307 33308 33313 33312
8 33003 7922 7921 33008 33308 7861 7860 33313
8 1975 33004 33009 1976 1914 33309 33314 1915
8 33004 33005 33010 33009 33309 33310 33315 33314
8 33005 33006 33011 33010 33310 33311 33316 33315
8 33006 33007 33012 33011 33311 33312 33317 33316
8 33007 33008 33013 33012 33312 33313 33318 33317
8 33008 7921 7920 33013 33313 7860 7859 33318
8 1976 33009 33014 1977 1915 33314 33319 1916
8 33009 33010 33015 33014 33314 33315 33320 33319
8 33010 33011 33016 33015 33315 33316 33321 33320
8 33011 33012 33017 33016 33316 33317 33322 33321
8 33012 33013 33018 33017 33317 33318 33323 33322
8 33013 7920 7919 33018 33318 7859 7858 33323
8 1977 33014 33019 1978 1916 33319 33324 1917
8 33014 33015 33020 33019 33319 33320 33325 33324
8 33015 33016 33021 33020 33320 33321 33326 33325
8 33016 33017 33022 33021 33321 33322 33327 33326
8 33017 33018 33023 33022 33322 33323 33328 33327
8 33018 7919 7918 33023 33323 7858 7857 33328
8 33019 33020 33025 33024 33324 33325 33330 33329
8 33020 33021 33026 33025 33325 33326 33331 33330
8 33021 33022 33027 33026 33326 33327 33332 33331
8 33022 33023 33028 33027 33327 33328 33333 33332
8 33023 7918 7917 33028 33328 7857 7856 33333
8 33024 33025 33030 33029 33329 33330 33335 33334
8 33025 33026 33031 33030 33330 33331 33336 33335
8 33026 33027 33032 33031 33331 33332 33337 33336
8 33027 33028 33033 33032 33332 33333 33338 33337
8 33028 7917 7916 33033 33333 7856 7855 33338
8 33029 33030 33035 33034 33334 33335 33340 33339
8 33030 33031 33036 33035 33335 33336 33341 33340
8 33031 33032 33037 33036 33336 33337 33342 33341
8 33032 33033 33038 33037 33337 33338 33343 33342
8 33033 7916 7915 33038 33338 7855 7854 33343
8 33034 33035 33040 33039 33339 33340 33345 33344
8 33035 33036 33041 33040 33340 33341 33346 33345
8 33036 33037 33042 33041 33341 33342 33347 33346
8 33037 33038 33043 33042 33342 33343 33348 33347
8 33038 7915 7914 33043 33343 7854 7853 33348
8 33039 33040 33045 33044 33344 33345 33350 33349
8 33040 33041 33046 33045 33345 33346 33351 33350
8 33041 33042 33047 33046 33346 33347 33352 33351
8 33042 33043 33048 33047 33347 33348 33353 33352
8 33043 7914 7913 33048 33348 7853 7852 33353
8 33044 33045 33050 33049 33349 33350 33355 33354
8 33045 33046 33051 33050 33350 33351 33356 33355
8 33046 33047 33052 33051 33351 33352 33357 33356
8 33047 33048 33053 33052 33352 33353 33358 33357
8 33048 7913 7912 33053 33353 7852 7851 33358
8 33049 33050 33055 33054 33354 33355 33360 33359
8 33050 33051 33056 33055 33355 33356 33361 33360
8 33051 33052 33057 33056 33356 33357 33362 33361
8 33052 33053 33058 33057 33357 33358 33363 33362
8 33053 7912 7911 33058 33358 7851 7850 33363
8 33054 33055 33060 33059 33359 33360 33365 33364
8 33055 33056 33061 33060 33360 33361 33366 33365
8 33056 33057 33062 33061 33361 33362 33367 33366
8 33057 33058 33063 33062 33362 33363 33368 33367
8 33058 7911 7910 33063 33363 7850 7849 33368
8 33059 33060 33065 33064 33364 33365 33370 33369
8 33060 33061 33066 33065 33365 33366 33371 33370
8 33061 33062 33067 33066 33366 33367 33372 33371
8 33062 33063 33068 33067 33367 33368 33373 33372
8 33063 7910 7909 33068 33368 7849 7848 33373
8 33064 33065 33070 33069 33369 33370 33375 33374
8 33065 33066 33071 33070 33370 33371 33376 33375
8 33066 33067 33072 33071 33371 33372 33377 33376
8 33067 33068 33073 33072 33372 33373 33378 33377
8 33068 7909 7908 33073 33373 7848 7847 33378
8 33069 33070 33075 33074 33374 33375 33380 33379
8 33070 33071 33076 33075 33375 33376 33381 33380
8 33071 33072 33077 33076 33376 33377 33382 33381
8 33072 33073 33078 33077 33377 33378 33383 33382
8 33073 7908 7907 33078 33378 7847 7846 33383
8 33074 33075 33080 33079 33379 33380 33385 33384
8 33075 33076 33081 33080 33380 33381 33386 33385
8 33076 33077 33082 33081 33381 33382 33387 33386
8 33077 33078 33083 33082 33382 33383 33388 33387
8 33078 7907 7906 33083 33383 7846 7845 33388
8 33079 33080 33085 33084 33384 33385 33390 33389
8 33080 33081 33086 33085 33385 33386 33391 33390
8 33081 33082 33087 33086 33386 33387 33392 33391
8 33082 33083 33088 33087 33387 33388 33393 33392
8 33083 7906 7905 33088 33388 7845 7844 33393
8 33084 33085 33090 33089 33389 33390 33395 33394
8 33085 33086 33091 33090 33390 33391 33396 33395
8 33086 33087 33092 33091 33391 33392 33397 33396
8 33087 33088 33093 33092 33392 33393 33398 33397
8 33088 7905 7904 33093 33393 7844 7843 33398
8 33089 33090 33095 33094 33394 33395 33400 33399
8 33090 33091 33096 33095 33395 33396 33401 33400
8 33091 33092 33097 33096 33396 33397 33402 33401
8 33092 33093 33098 33097 33397 33398 33403 33402
8 33093 7904 7903 33098 33398 7843 7842 33403
8 33094 33095 33100 33099 33399 33400 33405 33404
8 33095 33096 33101 33100 33400 33401 33406 33405
8 33096 33097 33102 33101 33401 33402 33407 33406
8 33097 33098 33103 33102 33402 33403 33408 33407
8 33098 7903 7902 33103 33403 7842 7841 33408
8 33099 33100 33105 33104 33404 33405 33410 33409
8 33100 33101 33106 33105 33405 33406 33411 33410
8 33101 33102 33107 33106 33406 33407 33412 33411
8 33102 33103 33108 33107 33407 33408 33413 33412
8 33103 7902 7901 33108 33408 7841 7840 33413
8 33104 33105 33110 33109 33409 33410 33415 33414
8 33105 33106 33111 33110 33410 33411 33416 33415
8 33106 33107 33112 33111 33411 33412 33417 33416
8 33107 33108 33113 33112 33412 33413 33418 33417
8 33108 7901 7900 33113 33413 7840 7839 33418
8 33109 33110 33115 33114 33414 33415 33420 33419
8 33110 33111 33116 33115 33415 33416 33421 33420
8 33111 33112 33117 33116 33416 33417 33422 33421
8 33112 33113 33118 33117 33417 33418 33423 33422
8 33113 7900 7899 33118 33418 7839 7838 33423
8 33114 33115 33120 33119 33419 33420 33425 33424
8 33115 33116 33121 33120 33420 33421 33426 33425
8 33116 33117 33122 33121 33421 33422 33427 33426
8 33117 33118 33123 33122 33422 33423 33428 33427
8 33118 7899 7898 33123 33423 7838 7837 33428
8 33119 33120 33125 33124 33424 33425 33430 33429
8 33120 33121 33126 33125 33425 33426 33431 33430
8 33121 33122 33127 33126 33426 33427 33432 33431
8 33122 33123 33128 33127 33427 33428 33433 33432
8 33123 7898 7897 33128 33428 7837 7836 33433
8 33124 33125 33130 33129 33429 33430 33435 33434
8 33125 33126 33131 33130 33430 33431 33436 33435
8 33126 33127 33132 33131 33431 33432 33437 33436
8 33127 33128 33133 33132 33432 33433 33438 33437
8 33128 7897 7896 33133 33433 7836 7835 33438
8 33129 33130 33135 33134 33434 33435 33440 33439
8 33130 33131 33136 33135 33435 33436 33441 33440
8 33131 33132 33137 33136 33436 33437 33442 33441
8 33132 33133 33138 33137 33437 33438 33443 33442
8 33133 7896 7895 33138 33438 7835 7834 33443
8 33134 33135 33140 33139 33439 33440 33445 33444
8 33135 33136 33141 33140 33440 33441 33446 33445
8 33136 33137 33142 33141 33441 33442 33447 33446
8 33137 33138 33143 33142 33442 33443 33448 33447
8 33138 7895 7894 33143 33443 7834 7833 33448
8 33139 33140 33145 33144 33444 33445 33450 33449
8 33140 33141 33146 33145 33445 33446 33451 33450
8 33141 33142 33147 33146 33446 33447 33452 33451
8 33142 33143 33148 33147 33447 33448 33453 33452
8 33143 7894 7893 33148 33448 7833 7832 33453
8 33144 33145 33150 33149 33449 33450 33455 33454
8 33145 33146 33151 33150 33450 33451 33456 33455
8 33146 33147 33152 33151 33451 33452 33457 33456
8 33147 33148 33153 33152 33452 33453 33458 33457
8 33148 7893 7892 33153 33453 7832 7831 33458
8 33149 33150 33155 33154 33454 33455 33460 33459
8 33150 33151 33156 33155 33455 33456 33461 33460
8 33151 33152 33157 33156 33456 33457 33462 33461
8 33152 33153 33158 33157 33457 33458 33463 33462
8 33153 7892 7891 33158 33458 7831 7830 33463
8 33154 33155 33160 33159 33459 33460 33465 33464
8 33155 33156 33161 33160 33460 33461 33466 33465
8 33156 33157 33162 33161 33461 33462 33467 33466
8 33157 33158 33163 33162 33462 33463 33468 33467
8 33158 7891 7890 33163 33463 7830 7829 33468
8 33159 33160 33165 33164 33464 33465 33470 33469
8 33160 33161 33166 33165 33465 33466 33471 33470
8 33161 33162 33167 33166 33466 33467 33472 33471
8 33162 33163 33168 33167 33467 33468 33473 33472
8 33163 7890 7889 33168 33468 7829 7828 33473
8 33164 33165 33170 33169 33469 33470 33475 33474
8 33165 33166 33171 33170 33470 33471 33476 33475
8 33166 33167 33172 33171 33471 33472 33477 33476
8 33167 33168 33173 33172 33472 33473 33478 33477
8 33168 7889 7888 33173 33473 7828 7827 33478
8 2008 33169 33174 2009 1947 33474 33479 1948
8 33169 33170 33175 33174 33474 33475 33480 33479
8 33170 33171 33176 33175 33475 33476 33481 33480
8 33171 33172 33177 33176 33476 33477 33482 33481
8 33172 33173 33178 33177 33477 33478 33483 33482
8 33173 7888 7887 33178 33478 7827 7826 33483
8 2009 33174 33179 2010 1948 33479 33484 1949
8 33174 33175 33180 33179 33479 33480 33485 33484
8 33175 33176 33181 33180 33480 33481 33486 33485
8 33176 33177 33182 33181 33481 33482 33487 33486
8 33177 33178 33183 33182 33482 33483 33488 33487
8 33178 7887 7886 33183 33483 7826 7825 33488
8 2010 33179 33184 2011 1949 33484 33489 1950
8 33179 33180 33185 33184 33484 33485 33490 33489
8 33180 33181 33186 33185 33485 33486 33491 33490
8 33181 33182 33187 33186 33486 33487 33492 33491
8 33182 33183 33188 33187 33487 33488 33493 33492
8 33183 7886 7885 33188 33488 7825 7824 33493
8 2011 33184 33189 2012 1950 33489 33494 1951
8 33184 33185 33190 33189 33489 33490 33495 33494
8 33185 33186 33191 33190 33490 33491 33496 33495
8 33186 33187 33192 33191 33491 33492 33497 33496
8 33187 33188 33193 33192 33492 33493 33498 33497
8 33188 7885 7884 33193 33493 7824 7823 33498
8 2012 33189 33194 2013 1951 33494 33499 1952
8 33189 33190 33195 33194 33494 33495 33500 33499
8 33190 33191 33196 33195 33495 33496 33501 33500
8 33191 33192 33197 33196 33496 33497 33502 33501
8 33192 33193 33198 33197 33497 33498 33503 33502
8 33193 7884 7883 33198 33498 7823 7822 33503
8 2013 33194 33199 2014 1952 33499 33504 1953
8 33194 33195 33200 33199 33499 33500 33505 33504
8 33195 33196 33201 33200 33500 33501 33506 33505
8 33196 33197 33202 33201 33501 33502 33507 33506
8 33197 33198 33203 33202 33502 33503 33508 33507
8 33198 7883 7882 33203 33503 7822 7821 33508
8 2014 33199 33204 2015 1953 33504 33509 1954
8 33199 33200 33205 33204 33504 33505 33510 33509
8 33200 33201 33206 33205 33505 33506 33511 33510
8 33201 33202 33207 33206 33506 33507 33512 33511
8 33202 33203 33208 33207 33507 33508 33513 33512
8 33203 7882 7881 33208 33508 7821 7820 33513
8 2015 33204 33209 2016 1954 33509 33514 1955
8 33204 33205 33210 33209 33509 33510 33515 33514
8 33205 33206 33211 33210 33510 33511 33516 33515
8 33206 33207 33212 33211 33511 33512 33517 33516
8 33207 33208 33213 33212 33512 33513 33518 33517
8 33208 7881 7880 33213 33513 7820 7819 33518
8 2016 33209 33214 2017 1955 33514 33519 1956
8 33209 33210 33215 33214 33514 33515 33520 33519
8 33210 33211 33216 33215 33515 33516 33521 33520
8 33211 33212 33217 33216 33516 33517 33522 33521
8 33212 33213 33218 33217 33517 33518 33523 33522
8 33213 7880 7879 33218 33518 7819 7818 33523
8 2017 33214 12764 91 1956 33519 12759 90
8 33214 33215 12765 12764 33519 33520 12760 12759
8 33215 33216 12766 12765 33520 33521 12761 12760
8 33216 33217 12767 12766 33521 33522 12762 12761
8 33217 33218 12768 12767 33522 33523 12763 12762
8 33218 7879 6204 12768 33523 7818 6205 12763
8 283 12179 33219 1896 284 12184 33524 1835
8 12179 12180 33220 33219 12184 12185 33525 33524
8 12180 12181 33221 33220 12185 12186 33526 33525
8 12181 12182 33222 33221 12186 12187 33527 33526
8 12182 12183 33223 33222 12187 12188 33528 33527
8 12183 6012 7878 33223 12188 6011 7817 33528
8 1896 33219 33224 1897 1835 33524 33529 1836
8 33219 33220 33225 33224 33524 33525 33530 33529
8 33220 33221 33226 33225 33525 33526 33531 33530
8 33221 33222 33227 33226 33526 33527 33532 33531
8 33222 33223 33228 33227 33527 33528 33533 33532
8 33223 7878 7877 33228 33528 7817 7816 33533
8 1897 33224 33229 1898 1836 33529 33534 1837
8 33224 33225 33230 33229 33529 33530 33535 33534
8 33225 33226 33231 33230 33530 33531 33536 33535
8 33226 33227 33232 33231 33531 33532 33537 33536
8 33227 33228 33233 33232 33532 33533 33538 33537
8 33228 7877 7876 33233 33533 7816 7815 33538
8 1898 33229 33234 1899 1837 33534 33539 1838
8 33229 33230 33235 33234 33534 33535 33540 33539
8 33230 33231 33236 33235 33535 33536 33541 33540
8 33231 33232 33237 33236 33536 33537 33542 33541
8 33232 33233 33238 33237 33537 33538 33543 33542
8 33233 7876 7875 33238 33538 7815 7814 33543
8 1899 33234 33239 1900 1838 33539 33544 1839
8 33234 33235 33240 33239 33539 33540 33545 33544
8 33235 33236 33241 33240 33540 33541 33546 33545
8 33236 33237 33242 33241 33541 33542 33547 33546
8 33237 33238 33243 33242 33542 33543 33548 33547
8 33238 7875 7874 33243 33543 7814 7813 33548
8 1900 33239 33244 1901 1839 33544 33549 1840
8 33239 33240 33245 33244 33544 33545 33550 33549
8 33240 33241 33246 33245 33545 33546 33551 33550
8 33241 33242 33247 33246 33546 33547 33552 33551
8 33242 33243 33248 33247 33547 33548 33553 33552
8 33243 7874 7873 33248 33548 7813 7812 33553
8 1901 33244 33249 1902 1840 33549 33554 1841
8 33244 33245 33250 33249 33549 33550 33555 33554
8 33245 33246 33251 33250 33550 33551 33556 33555
8 33246 33247 33252 33251 33551 33552 33557 33556
8 33247 33248 33253 33252 33552 33553 33558 33557
8 33248 7873 7872 33253 33553 7812 7811 33558
8 1902 33249 33254 1903 1841 33554 33559 1842
8 33249 33250 33255 33254 33554 33555 33560 33559
8 33250 33251 33256 33255 33555 33556 33561 33560
8 33251 33252 33257 33256 33556 33557 33562 33561
8 33252 33253 33258 33257 33557 33558 33563 33562
8 33253 7872 7871 33258 33558 7811 7810 33563
8 1903 33254 33259 1904 1842 33559 33564 1843
8 33254 33255 33260 33259 33559 33560 33565 33564
8 33255 33256 33261 33260 33560 33561 33566 33565
8 33256 33257 33262 33261 33561 33562 33567 33566
8 33257 33258 33263 33262 33562 33563 33568 33567
8 33258 7871 7870 33263 33563 7810 7809 33568
8 1904 33259 33264 1905 1843 33564 33569 1844
8 33259 33260 33265 33264 33564 33565 33570 33569
8 33260 33261 33266 33265 33565 33566 33571 33570
8 33261 33262 33267 33266 33566 33567 33572 33571
8 33262 33263 33268 33267 33567 33568 33573 33572
8 33263 7870 7869 33268 33568 7809 7808 33573
8 1905 33264 33269 1906 1844 33569 33574 1845
8 33264 33265 33270 33269 33569 33570 33575 33574
8 33265 33266 33271 33270 33570 33571 33576 33575
8 33266 33267 33272 33271 33571 33572 33577 33576
8 33267 33268 33273 33272 33572 33573 33578 33577
8 33268 7869 7868 33273 33573 7808 7807 33578
8 1906 33269 33274 1907 1845 33574 33579 1846
8 33269 33270 33275 33274 33574 33575 33580 33579
8 33270 33271 33276 33275 33575 33576 33581 33580
8 33271 33272 33277 33276 33576 33577 33582 33581
8 33272 33273 33278 33277 33577 33578 33583 33582
8 33273 7868 7867 33278 33578 7807 7806 33583
8 1907 33274 33279 1908 1846 33579 33584 1847
8 33274 33275 33280 33279 33579 33580 33585 33584
8 33275 33276 33281 33280 33580 33581 33586 33585
8 33276 33277 33282 33281 33581 33582 33587 33586
8 33277 33278 33283 33282 33582 33583 33588 33587
8 33278 7867 7866 33283 33583 7806 7805 33588
8 1908 33279 33284 1909 1847 33584 33589 1848
8 33279 33280 33285 33284 33584 33585 33590 33589
8 33280 33281 33286 33285 33585 33586 33591 33590
8 33281 33282 33287 33286 33586 33587 33592 33591
8 33282 33283 33288 33287 33587 33588 33593 33592
8 33283 7866 7865 33288 33588 7805 7804 33593
8 1909 33284 33289 1910 1848 33589 33594 1849
8 33284 33285 33290 33289 33589 33590 33595 33594
8 33285 33286 33291 33290 33590 33591 33596 33595
8 33286 33287 33292 33291 33591 33592 33597 33596
8 33287 33288 33293 33292 33592 33593 33598 33597
8 33288 7865 7864 33293 33593 7804 7803 33598
8 1910 33289 33294 1911 1849 33594 33599 1850
8 33289 33290 33295 33294 33594 33595 33600 33599
8 33290 33291 33296 33295 33595 33596 33601 33600
8 33291 33292 33297 33296 33596 33597 33602 33601
8 33292 33293 33298 33297 33597 33598 33603 33602
8 33293 7864 7863 33298 33598 7803 7802 33603
8 1911 33294 33299 1912 1850 33599 33604 1851
8 33294 33295 33300 33299 33599 33600 33605 33604
8 33295 33296 33301 33300 33600 33601 33606 33605
8 33296 33297 33302 33301 33601 33602 33607 33606
8 33297 33298 33303 33302 33602 33603 33608 33607
8 33298 7863 7862 33303 33603 7802 7801 33608
8 1912 33299 33304 1913 1851 33604 33609 1852
8 33299 33300 33305 33304 33604 33605 33610 33609
8 33300 33301 33306 33305 33605 33606 33611 33610
8 33301 33302 33307 33306 33606 33607 33612 33611
8 33302 33303 33308 33307 33607 33608 33613 33612
8 33303 7862 7861 33308 33608 7801 7800 33613
8 1913 33304 33309 1914 1852 33609 33614 1853
8 33304 33305 33310 33309 33609 33610 33615 33614
8 33305 33306 33311 33310 33610 33611 33616 33615
8 33306 33307 33312 33311 33611 33612 33617 33616
8 33307 33308 33313 33312 33612 33613 33618 33617
8 33308 7861 7860 33313 33613 7800 7799 33618
8 1914 33309 33314 1915 1853 33614 33619 1854
8 33309 33310 33315 33314 33614 33615 33620 33619
8 33310 33311 33316 33315 33615 33616 33621 33620
8 33311 33312 33317 33316 33616 33617 33622 33621
8 33312 33313 33318 33317 33617 33618 33623 33622
8 33313 7860 7859 33318 33618 7799 7798 33623
8 1915 33314 33319 1916 1854 33619 33624 1855
8 33314 33315 33320 33319 33619 33620 33625 33624
8 33315 33316 33321 33320 33620 33621 33626 33625
8 33316 33317 33322 33321 33621 33622 33627 33626
8 33317 33318 33323 33322 33622 33623 33628 33627
8 33318 7859 7858 33323 33623 7798 7797 33628
8 1916 33319 33324 1917 1855 33624 33629 1856
8 33319 33320 33325 33324 33624 33625 33630 33629
8 33320 33321 33326 33325 33625 33626 33631 33630
8 33321 33322 33327 33326 33626 33627 33632 33631
8 33322 33323 33328 33327 33627 33628 33633 33632
8 33323 7858 7857 33328 33628 7797 7796 33633
8 33324 33325 33330 33329 33629 33630 33635 33634
8 33325 33326 33331 33330 33630 33631 33636 33635
8 33326 33327 33332 33331 33631 33632 33637 33636
8 33327 33328 33333 33332 33632 33633 33638 33637
8 33328 7857 7856 33333 33633 7796 7795 33638
8 33329 33330 33335 33334 33634 33635 33640 33639
8 33330 33331 33336 33335 33635 33636 33641 33640
8 33331 33332 33337 33336 33636 33637 33642 33641
8 33332 33333 33338 33337 33637 33638 33643 33642
8 33333 7856 7855 33338 33638 7795 7794 33643
8 33334 33335 33340 33339 33639 33640 33645 33644
8 33335 33336 33341 33340 33640 33641 33646 33645
8 33336 33337 33342 33341 33641 33642 33647 33646
8 33337 33338 33343 33342 33642 33643 33648 33647
8 33338 7855 7854 33343 33643 7794 7793 33648
8 33339 33340 33345 33344 33644 33645 33650 33649
8 33340 33341 33346 33345 33645 33646 33651 33650
8 33341 33342 33347 33346 33646 33647 33652 33651
8 33342 33343 33348 33347 33647 33648 33653 33652
8 33343 7854 7853 33348 33648 7793 7792 33653
8 33344 33345 33350 33349 33649 33650 33655 33654
8 33345 33346 33351 33350 33650 33651 33656 33655
8 33346 33347 33352 33351 33651 33652 33657 33656
8 33347 33348 33353 33352 33652 33653 33658 33657
8 33348 7853 7852 33353 33653 7792 7791 33658
8 33349 33350 33355 33354 33654 33655 33660 33659
8 33350 33351 33356 33355 33655 33656 33661 33660
8 33351 33352 33357 33356 33656 33657 33662 33661
8 33352 33353 33358 33357 33657 33658 33663 33662
8 33353 7852 7851 33358 33658 7791 7790 33663
8 33354 33355 33360 33359 33659 33660 33665 33664
8 33355 33356 33361 33360 33660 33661 33666 33665
8 33356 33357 33362 33361 33661 33662 33667 33666
8 33357 33358 33363 33362 33662 33663 33668 33667
8 33358 7851 7850 33363 33663 7790 7789 33668
8 33359 33360 33365 33364 33664 33665 33670 33669
8 33360 33361 33366 33365 33665 33666 33671 33670
8 33361 33362 33367 33366 33666 33667 33672 33671
8 33362 33363 33368 33367 33667 33668 33673 33672
8 33363 7850 7849 33368 33668 7789 7788 33673
8 33364 33365 33370 33369 33669 33670 33675 33674
8 33365 33366 33371 33370 33670 33671 33676 33675
8 33366 33367 33372 33371 33671 33672 33677 33676
8 33367 33368 33373 33372 33672 33673 33678 33677
8 33368 7849 7848 33373 33673 7788 7787 33678
8 33369 33370 33375 33374 33674 33675 33680 33679
8 33370 33371 33376 33375 33675 33676 33681 33680
8 33371 33372 33377 33376 33676 33677 33682 33681
8 33372 33373 33378 33377 33677 33678 33683 33682
8 33373 7848 7847 33378 33678 7787 7786 33683
8 33374 33375 33380 33379 33679 33680 33685 33684
8 33375 33376 33381 33380 33680 33681 33686 33685
8 33376 33377 33382 33381 33681 33682 33687 33686
8 33377 33378 33383 33382 33682 33683 33688 33687
8 33378 7847 7846 33383 33683 7786 7785 33688
8 33379 33380 33385 33384 33684 33685 33690 33689
8 33380 33381 33386 33385 33685 33686 33691 33690
8 33381 33382 33387 33386 33686 33687 33692 33691
8 33382 33383 33388 33387 33687 33688 33693 33692
8 33383 7846 7845 33388 33688 7785 7784 33693
8 33384 33385 33390 33389 33689 33690 33695 33694
8 33385 33386 33391 33390 33690 33691 33696 33695
8 33386 33387 33392 33391 33691 33692 33697 33696
8 33387 33388 33393 33392 33692 33693 33698 33697
8 33388 7845 7844 33393 33693 7784 7783 33698
8 33389 33390 33395 33394 33694 33695 33700 33699
8 33390 33391 33396 33395 33695 33696 33701 33700
8 33391 33392 33397 33396 33696 33697 33702 33701
8 33392 33393 33398 33397 33697 33698 33703 33702
8 33393 7844 7843 33398 33698 7783 7782 33703
8 33394 33395 33400 33399 33699 33700 33705 33704
8 33395 33396 33401 33400 33700 33701 33706 33705
8 33396 33397 33402 33401 33701 33702 33707 33706
8 33397 33398 33403 33402 33702 33703 33708 33707
8 33398 7843 7842 33403 33703 7782 7781 33708
8 33399 33400 33405 33404 33704 33705 33710 33709
8 33400 33401 33406 33405 33705 33706 33711 33710
8 33401 33402 33407 33406 33706 33707 33712 33711
8 33402 33403 33408 33407 33707 33708 33713 33712
8 33403 7842 7841 33408 33708 7781 7780 33713
8 33404 33405 33410 33409 33709 33710 33715 33714
8 33405 33406 33411 33410 33710 33711 33716 33715
8 33406 33407 33412 33411 33711 33712 33717 33716
8 33407 33408 33413 33412 33712 33713 33718 33717
8 33408 7841 7840 33413 33713 7780 7779 33718
8 33409 33410 33415 33414 33714 33715 33720 33719
8 33410 33411 33416 33415 33715 33716 33721 33720
8 33411 33412 33417 33416 33716 33717 33722 33721
8 33412 33413 33418 33417 33717 33718 33723 33722
8 33413 7840 7839 33418 33718 7779 7778 33723
8 33414 33415 33420 33419 33719 33720 33725 33724
8 33415 33416 33421 33420 33720 33721 33726 33725
8 33416 33417 33422 33421 33721 33722 33727 33726
8 33417 33418 33423 33422 33722 33723 33728 33727
8 33418 7839 7838 33423 33723 7778 7777 33728
8 33419 33420 33425 33424 33724 33725 33730 33729
8 33420 33421 33426 33425 33725 33726 33731 33730
8 33421 33422 33427 33426 33726 33727 33732 33731
8 33422 33423 33428 33427 33727 33728 33733 33732
8 33423 7838 7837 33428 33728 7777 7776 33733
8 33424 33425 33430 33429 33729 33730 33735 33734
8 33425 33426 33431 33430 33730 33731 33736 33735
8 33426 33427 33432 33431 33731 33732 33737 33736
8 33427 33428 33433 33432 33732 33733 33738 33737
8 33428 7837 7836 33433 33733 7776 7775 33738
8 33429 33430 33435 33434 33734 33735 33740 33739
8 33430 33431 33436 33435 33735 33736 33741 33740
8 33431 33432 33437 33436 33736 33737 33742 33741
8 33432 33433 33438 33437 33737 33738 33743 33742
8 33433 7836 7835 33438 33738 7775 7774 33743
8 33434 33435 33440 33439 33739 33740 33745 33744
8 33435 33436 33441 33440 33740 33741 33746 33745
8 33436 33437 33442 33441 33741 33742 33747 33746
8 33437 33438 33443 33442 33742 33743 33748 33747
8 33438 7835 7834 33443 33743 7774 7773 33748
8 33439 33440 33445 33444 33744 33745 33750 33749
8 33440 33441 33446 33445 33745 33746 33751 33750
8 33441 33442 33447 33446 33746 33747 33752 33751
8 33442 33443 33448 33447 33747 33748 33753 33752
8 33443 7834 7833 33448 33748 7773 7772 33753
8 33444 33445 33450 33449 33749 33750 33755 33754
8 33445 33446 33451 33450 33750 33751 33756 33755
8 33446 33447 33452 33451 33751 33752 33757 33756
8 33447 33448 33453 33452 33752 33753 33758 33757
8 33448 7833 7832 33453 33753 7772 7771 33758
8 33449 33450 33455 33454 33754 33755 33760 33759
8 33450 33451 33456 33455 33755 33756 33761 33760
8 33451 33452 33457 33456 33756 33757 33762 33761
8 33452 33453 33458 33457 33757 33758 33763 33762
8 33453 7832 7831 33458 33758 7771 7770 33763
8 33454 33455 33460 33459 33759 33760 33765 33764
8 33455 33456 33461 33460 33760 33761 33766 33765
8 33456 33457 33462 33461 33761 33762 33767 33766
8 33457 33458 33463 33462 33762 33763 33768 33767
8 33458 7831 7830 33463 33763 7770 7769 33768
8 33459 33460 33465 33464 33764 33765 33770 33769
8 33460 33461 33466 33465 33765 33766 33771 33770
8 33461 33462 33467 33466 33766 33767 33772 33771
8 33462 33463 33468 33467 33767 33768 33773 33772
8 33463 7830 7829 33468 33768 7769 7768 33773
8 33464 33465 33470 33469 33769 33770 33775 33774
8 33465 33466 33471 33470 33770 33771 33776 33775
8 33466 33467 33472 33471 33771 33772 33777 33776
8 33467 33468 33473 33472 33772 33773 33778 33777
8 33468 7829 7828 33473 33773 7768 7767 33778
8 33469 33470 33475 33474 33774 33775 33780 33779
8 33470 33471 33476 33475 33775 33776 33781 33780
8 33471 33472 33477 33476 33776 33777 33782 33781
8 33472 33473 33478 33477 33777 33778 33783 33782
8 33473 7828 7827 33478 33778 7767 7766 33783
8 1947 33474 33479 1948 1886 33779 33784 1887
8 33474 33475 33480 33479 33779 33780 33785 33784
8 33475 33476 33481 33480 33780 33781 33786 33785
8 33476 33477 33482 33481 33781 33782 33787 33786
8 33477 33478 33483 33482 33782 33783 33788 33787
8 33478 7827 7826 33483 33783 7766 7765 33788
8 1948 33479 33484 1949 1887 33784 33789 1888
8 33479 33480 33485 33484 33784 33785 33790 33789
8 33480 33481 33486 33485 33785 33786 33791 33790
8 33481 33482 33487 33486 33786 33787 33792 33791
8 33482 33483 33488 33487 33787 33788 33793 33792
8 33483 7826 7825 33488 33788 7765 7764 33793
8 1949 33484 33489 1950 1888 33789 33794 1889
8 33484 33485 33490 33489 33789 33790 33795 33794
8 33485 33486 33491 33490 33790 33791 33796 33795
8 33486 33487 33492 33491 33791 33792 33797 33796
8 33487 33488 33493 33492 33792 33793 33798 33797
8 33488 7825 7824 33493 33793 7764 7763 33798
8 1950 33489 33494 1951 1889 33794 33799 1890
8 33489 33490 33495 33494 33794 33795 33800 33799
8 33490 33491 33496 33495 33795 33796 33801 33800
8 33491 33492 33497 33496 33796 33797 33802 33801
8 33492 33493 33498 33497 33797 33798 33803 33802
8 33493 7824 7823 33498 33798 7763 7762 33803
8 1951 33494 33499 1952 1890 33799 33804 1891
8 33494 33495 33500 33499 33799 33800 33805 33804
8 33495 33496 33501 33500 33800 33801 33806 33805
8 33496 33497 33502 33501 33801 33802 33807 33806
8 33497 33498 33503 33502 33802 33803 33808 33807
8 33498 7823 7822 33503 33803 7762 7761 33808
8 1952 33499 33504 1953 1891 33804 33809 1892
8 33499 33500 33505 33504 33804 33805 33810 33809
8 33500 33501 33506 33505 33805 33806 33811 33810
8 33501 33502 33507 33506 33806 33807 33812 33811
8 33502 33503 33508 33507 33807 33808 33813 33812
8 33503 7822 7821 33508 33808 7761 7760 33813
8 1953 33504 33509 1954 1892 33809 33814 1893
8 33504 33505 33510 33509 33809 33810 33815 33814
8 33505 33506 33511 33510 33810 33811 33816 33815
8 33506 33507 33512 33511 33811 33812 33817 33816
8 33507 33508 33513 33512 33812 33813 33818 33817
8 33508 7821 7820 33513 33813 7760 7759 33818
8 1954 33509 33514 1955 1893 33814 33819 1894
8 33509 33510 33515 33514 33814 33815 33820 33819
8 33510 33511 33516 33515 33815 33816 33821 33820
8 33511 33512 33517 33516 33816 33817 33822 33821
8 33512 33513 33518 33517 33817 33818 33823 33822
8 33513 7820 7819 33518 33818 7759 7758 33823
8 1955 33514 33519 1956 1894 33819 33824 1895
8 33514 33515 33520 33519 33819 33820 33825 33824
8 33515 33516 33521 33520 33820 33821 33826 33825
8 33516 33517 33522 33521 33821 33822 33827 33826
8 33517 33518 33523 33522 33822 33823 33828 33827
8 33518 7819 7818 33523 33823 7758 7757 33828
8 1956 33519 12759 90 1895 33824 12754 89
8 33519 33520 12760 12759 33824 33825 12755 12754
8 33520 33521 12761 12760 33825 33826 12756 12755
8 33521 33522 12762 12761 33826 33827 12757 12756
8 33522 33523 12763 12762 33827 33828 12758 12757
8 33523 7818 6205 12763 33828 7757 6206 12758
8 284 12184 33524 1835 285 12189 33829 1774
8 12184 12185 33525 33524 12189 12190 33830 33829
8 12185 12186 33526 33525 12190 12191 33831 33830
8 12186 12187 33527 33526 12191 12192 33832 33831
8 12187 12188 33528 33527 12192 12193 33833 33832
8 12188 6011 7817 33528 12193 6010 7756 33833
8 1835 33524 33529 1836 1774 33829 33834 1775
8 33524 33525 33530 33529 33829 33830 33835 33834
8 33525 33526 33531 33530 33830 33831 33836 33835
8 33526 33527 33532 33531 33831 33832 33837 33836
8 33527 33528 33533 33532 33832 33833 33838 33837
8 33528 7817 7816 33533 33833 7756 7755 33838
8 1836 33529 33534 1837 1775 33834 33839 1776
8 33529 33530 33535 33534 33834 33835 33840 33839
8 33530 33531 33536 33535 33835 33836 33841 33840
8 33531 33532 33537 33536 33836 33837 33842 33841
8 33532 33533 33538 33537 33837 33838 33843 33842
8 33533 7816 7815 33538 33838 7755 7754 33843
8 1837 33534 33539 1838 1776 33839 33844 1777
8 33534 33535 33540 33539 33839 33840 33845 33844
8 33535 33536 33541 33540 33840 33841 33846 33845
8 33536 33537 33542 33541 33841 33842 33847 33846
8 33537 33538 33543 33542 33842 33843 33848 33847
8 33538 7815 7814 33543 33843 7754 7753 33848
8 1838 33539 33544 1839 1777 33844 33849 1778
8 33539 33540 33545 33544 33844 33845 33850 33849
8 33540 33541 33546 33545 33845 33846 33851 33850
8 33541 33542 33547 33546 33846 33847 33852 33851
8 33542 33543 33548 33547 33847 33848 33853 33852
8 33543 7814 7813 33548 33848 7753 7752 33853
8 1839 33544 33549 1840 1778 33849 33854 1779
8 33544 33545 33550 33549 33849 33850 33855 33854
8 33545 33546 33551 33550 33850 33851 33856 33855
8 33546 33547 33552 33551 33851 33852 33857 33856
8 33547 33548 33553 33552 33852 33853 33858 33857
8 33548 7813 7812 33553 33853 7752 7751 33858
8 1840 33549 33554 1841 1779 33854 33859 1780
8 33549 33550 33555 33554 33854 33855 33860 33859
8 33550 33551 33556 33555 33855 33856 33861 33860
8 33551 33552 33557 33556 33856 33857 33862 33861
8 33552 33553 33558 33557 33857 33858 33863 33862
8 33553 7812 7811 33558 33858 7751 7750 33863
8 1841 33554 33559 1842 1780 33859 33864 1781
8 33554 33555 33560 33559 33859 33860 33865 33864
8 33555 33556 33561 33560 33860 33861 33866 33865
8 33556 33557 33562 33561 33861 33862 33867 33866
8 33557 33558 33563 33562 33862 33863 33868 33867
8 33558 7811 7810 33563 33863 7750 7749 33868
8 1842 33559 33564 1843 1781 33864 33869 1782
8 33559 33560 33565 33564 33864 33865 33870 33869
8 33560 33561 33566 33565 33865 33866 33871 33870
8 33561 33562 33567 33566 33866 33867 33872 33871
8 33562 33563 33568 33567 33867 33868 33873 33872
8 33563 7810 7809 33568 33868 7749 7748 33873
8 1843 33564 33569 1844 1782 33869 33874 1783
8 33564 33565 33570 33569 33869 33870 33875 33874
8 33565 33566 33571 33570 33870 33871 33876 33875
8 33566 33567 33572 33571 33871 33872 33877 33876
8 33567 33568 33573 33572 33872 33873 33878 33877
8 33568 7809 7808 33573 33873 7748 7747 33878
8 1844 33569 33574 1845 1783 33874 33879 1784
8 33569 33570 33575 33574 33874 33875 33880 33879
8 33570 33571 33576 33575 33875 33876 33881 33880
8 33571 33572 33577 33576 33876 33877 33882 33881
8 33572 33573 33578 33577 33877 33878 33883 33882
8 33573 7808 7807 33578 33878 7747 7746 33883
8 1845 33574 33579 1846 1784 33879 33884 1785
8 33574 33575 33580 33579 33879 33880 33885 33884
8 33575 33576 33581 33580 33880 33881 33886 33885
8 33576 33577 33582 33581 33881 33882 33887 33886
8 33577 33578 33583 33582 33882 33883 33888 33887
8 33578 7807 7806 33583 33883 7746 7745 33888
8 1846 33579 33584 1847 1785 33884 33889 1786
8 33579 33580 33585 33584 33884 33885 33890 33889
8 33580 33581 33586 33585 33885 33886 33891 33890
8 33581 33582 33587 33586 33886 33887 33892 33891
8 33582 33583 33588 33587 33887 33888 33893 33892
8 33583 7806 7805 33588 33888 7745 7744 33893
8 1847 33584 33589 1848 1786 33889 33894 1787
8 33584 33585 33590 33589 33889 33890 33895 33894
8 33585 33586 33591 33590 33890 33891 33896 33895
8 33586 33587 33592 33591 33891 33892 33897 33896
8 33587 33588 33593 33592 33892 33893 33898 33897
8 33588 7805 7804 33593 33893 7744 7743 33898
8 1848 33589 33594 1849 1787 33894 33899 1788
8 33589 33590 33595 33594 33894 33895 33900 33899
8 33590 33591 33596 33595 33895 33896 33901 33900
8 33591 33592 33597 33596 33896 33897 33902 33901
8 33592 33593 33598 33597 33897 33898 33903 33902
8 33593 7804 7803 33598 33898 7743 7742 33903
8 1849 33594 33599 1850 1788 33899 33904 1789
8 33594 33595 33600 33599 33899 33900 33905 33904
8 33595 33596 33601 33600 33900 33901 33906 33905
8 33596 33597 33602 33601 33901 33902 33907 33906
8 33597 33598 33603 33602 33902 33903 33908 33907
8 33598 7803 7802 33603 33903 7742 7741 33908
8 1850 33599 33604 1851 1789 33904 33909 1790
8 33599 33600 33605 33604 33904 33905 33910 33909
8 33600 33601 33606 33605 33905 33906 33911 33910
8 33601 33602 33607 33606 33906 33907 33912 33911
8 33602 33603 33608 33607 33907 33908 33913 33912
8 33603 7802 7801 33608 33908 7741 7740 33913
8 1851 33604 33609 1852 1790 33909 33914 1791
8 33604 33605 33610 33609 33909 33910 33915 33914
8 33605 33606 33611 33610 33910 33911 33916 33915
8 33606 33607 33612 33611 33911 33912 33917 33916
8 33607 33608 33613 33612 33912 33913 33918 33917
8 33608 7801 7800 33613 33913 7740 7739 33918
8 1852 33609 33614 1853 1791 33914 33919 1792
8 33609 33610 33615 33614 33914 33915 33920 33919
8 33610 33611 33616 33615 33915 33916 33921 33920
8 33611 33612 33617 33616 33916 33917 33922 33921
8 33612 33613 33618 33617 33917 33918 33923 33922
8 33613 7800 7799 33618 33918 7739 7738 33923
8 1853 33614 33619 1854 1792 33919 33924 1793
8 33614 33615 33620 33619 33919 33920 33925 33924
8 33615 33616 33621 33620 33920 33921 33926 33925
8 33616 33617 33622 33621 33921 33922 33927 33926
8 33617 33618 33623 33622 33922 33923 33928 33927
8 33618 7799 7798 33623 33923 7738 7737 33928
8 1854 33619 33624 1855 1793 33924 33929 1794
8 33619 33620 33625 33624 33924 33925 33930 33929
8 33620 33621 33626 33625 33925 33926 33931 33930
8 33621 33622 33627 33626 33926 33927 33932 33931
8 33622 33623 33628 33627 33927 33928 33933 33932
8 33623 7798 7797 33628 33928 7737 7736 33933
8 1855 33624 33629 1856 1794 33929 33934 1795
8 33624 33625 33630 33629 33929 33930 33935 33934
8 33625 33626 33631 33630 33930 33931 33936 33935
8 33626 33627 33632 33631 33931 33932 33937 33936
8 33627 33628 33633 33632 33932 33933 33938 33937
8 33628 7797 7796 33633 33933 7736 7735 33938
8 33629 33630 33635 33634 33934 33935 33940 33939
8 33630 33631 33636 33635 33935 33936 33941 33940
8 33631 33632 33637 33636 33936 33937 33942 33941
8 33632 33633 33638 33637 33937 33938 33943 33942
8 33633 7796 7795 33638 33938 7735 7734 33943
8 33634 33635 33640 33639 33939 33940 33945 33944
8 33635 33636 33641 33640 33940 33941 33946 33945
8 33636 33637 33642 33641 33941 33942 33947 33946
8 33637 33638 33643 33642 33942 33943 33948 33947
8 33638 7795 7794 33643 33943 7734 7733 33948
8 33639 33640 33645 33644 33944 33945 33950 33949
8 33640 33641 33646 33645 33945 33946 33951 33950
8 33641 33642 33647 33646 33946 33947 33952 33951
8 33642 33643 33648 33647 33947 33948 33953 33952
8 33643 7794 7793 33648 33948 7733 7732 33953
8 33644 33645 33650 33649 33949 33950 33955 33954
8 33645 33646 33651 33650 33950 33951 33956 33955
8 33646 33647 33652 33651 33951 33952 33957 33956
8 33647 33648 33653 33652 33952 33953 33958 33957
8 33648 7793 7792 33653 33953 7732 7731 33958
8 33649 33650 33655 33654 33954 33955 33960 33959
8 33650 33651 33656 33655 33955 33956 33961 33960
8 33651 33652 33657 33656 33956 33957 33962 33961
8 33652 33653 33658 33657 33957 33958 33963 33962
8 33653 7792 7791 33658 33958 7731 7730 33963
8 33654 33655 33660 33659 33959 33960 33965 33964
8 33655 33656 33661 33660 33960 33961 33966 33965
8 33656 33657 33662 33661 33961 33962 33967 33966
8 33657 33658 33663 33662 33962 33963 33968 33967
8 33658 7791 7790 33663 33963 7730 7729 33968
8 33659 33660 33665 33664 33964 33965 33970 33969
8 33660 33661 33666 33665 33965 33966 33971 33970
8 33661 33662 33667 33666 33966 33967 33972 33971
8 33662 33663 33668 33667 33967 33968 33973 33972
8 33663 7790 7789 33668 33968 7729 7728 33973
8 33664 33665 33670 33669 33969 33970 33975 33974
8 33665 33666 33671 33670 33970 33971 33976 33975
8 33666 33667 33672 33671 33971 33972 33977 33976
8 33667 33668 33673 33672 33972 33973 33978 33977
8 33668 7789 7788 33673 33973 7728 7727 33978
8 33669 33670 33675 33674 33974 33975 33980 33979
8 33670 33671 33676 33675 33975 33976 33981 33980
8 33671 33672 33677 33676 33976 33977 33982 33981
8 33672 33673 33678 33677 33977 33978 33983 33982
8 33673 7788 7787 33678 33978 7727 7726 33983
8 33674 33675 33680 33679 33979 33980 33985 33984
8 33675 33676 33681 33680 33980 33981 33986 33985
8 33676 33677 33682 33681 33981 33982 33987 33986
8 33677 33678 33683 33682 33982 33983 33988 33987
8 33678 7787 7786 33683 33983 7726 7725 33988
8 33679 33680 33685 33684 33984 33985 33990 33989
8 33680 33681 33686 33685 33985 33986 33991 33990
8 33681 33682 33687 33686 33986 33987 33992 33991
8 33682 33683 33688 33687 33987 33988 33993 33992
8 33683 7786 7785 33688 33988 7725 7724 33993
8 33684 33685 33690 33689 33989 33990 33995 33994
8 33685 33686 33691 33690 33990 33991 33996 33995
8 33686 33687 33692 33691 33991 33992 33997 33996
8 33687 33688 33693 33692 33992 33993 33998 33997
8 33688 7785 7784 33693 33993 7724 7723 33998
8 33689 33690 33695 33694 33994 33995 34000 33999
8 33690 33691 33696 33695 33995 33996 34001 34000
8 33691 33692 33697 33696 33996 33997 34002 34001
8 33692 33693 33698 33697 33997 33998 34003 34002
8 33693 7784 7783 33698 33998 7723 7722 34003
8 33694 33695 33700 33699 33999 34000 34005 34004
8 33695 33696 33701 33700 34000 34001 34006 34005
8 33696 33697 33702 33701 34001 34002 34007 34006
8 33697 33698 33703 33702 34002 34003 34008 34007
8 33698 7783 7782 33703 34003 7722 7721 34008
8 33699 33700 33705 33704 34004 34005 34010 34009
8 33700 33701 33706 33705 34005 34006 34011 34010
8 33701 33702 33707 33706 34006 34007 34012 34011
8 33702 33703 33708 33707 34007 34008 34013 34012
8 33703 7782 7781 33708 34008 7721 7720 34013
8 33704 33705 33710 33709 34009 34010 34015 34014
8 33705 33706 33711 33710 34010 34011 34016 34015
8 33706 33707 33712 33711 34011 34012 34017 34016
8 33707 33708 33713 33712 34012 34013 34018 34017
8 33708 7781 7780 33713 34013 7720 7719 34018
8 33709 33710 33715 33714 34014 34015 34020 34019
8 33710 33711 33716 33715 34015 34016 34021 34020
8 33711 33712 33717 33716 34016 34017 34022 34021
8 33712 33713 33718 33717 34017 34018 34023 34022
8 33713 7780 7779 33718 34018 7719 7718 34023
8 33714 33715 33720 33719 34019 34020 34025 34024
8 33715 33716 33721 33720 34020 34021 34026 34025
8 33716 33717 33722 33721 34021 34022 34027 34026
8 33717 33718 33723 33722 34022 34023 34028 34027
8 33718 7779 7778 33723 34023 7718 7717 34028
8 33719 33720 33725 33724 34024 34025 34030 34029
8 33720 33721 33726 33725 34025 34026 34031 34030
8 33721 33722 33727 33726 34026 34027 34032 34031
8 33722 33723 33728 33727 34027 34028 34033 34032
8 33723 7778 7777 33728 34028 7717 7716 34033
8 33724 33725 33730 33729 34029 34030 34035 34034
8 33725 33726 33731 33730 34030 34031 34036 34035
8 33726 33727 33732 33731 34031 34032 34037 34036
8 33727 33728 33733 33732 34032 34033 34038 34037
8 33728 7777 7776 33733 34033 7716 7715 34038
8 33729 33730 33735 33734 34034 34035 34040 34039
8 33730 33731 33736 33735 34035 34036 34041 34040
8 33731 33732 33737 33736 34036 34037 34042 34041
8 33732 33733 33738 33737 34037 34038 34043 34042
8 33733 7776 7775 33738 34038 7715 7714 34043
8 33734 33735 33740 33739 34039 34040 34045 34044
8 33735 33736 33741 33740 34040 34041 34046 34045
8 33736 33737 33742 33741 34041 34042 34047 34046
8 33737 33738 33743 33742 34042 34043 34048 34047
8 33738 7775 7774 33743 34043 7714 7713 34048
8 33739 33740 33745 33744 34044 34045 34050 34049
8 33740 33741 33746 33745 34045 34046 34051 34050
8 33741 33742 33747 33746 34046 34047 34052 34051
8 33742 33743 33748 33747 34047 34048 34053 34052
8 33743 7774 7773 33748 34048 7713 7712 34053
8 33744 33745 33750 33749 34049 34050 34055 34054
8 33745 33746 33751 33750 34050 34051 34056 34055
8 33746 33747 33752 33751 34051 34052 34057 34056
8 33747 33748 33753 33752 34052 34053 34058 34057
8 33748 7773 7772 33753 34053 7712 7711 34058
8 33749 33750 33755 33754 34054 34055 34060 34059
8 33750 33751 33756 33755 34055 34056 34061 34060
8 33751 33752 33757 33756 34056 34057 34062 34061
8 33752 33753 33758 33757 34057 34058 34063 34062
8 33753 7772 7771 33758 34058 7711 7710 34063
8 33754 33755 33760 33759 34059 34060 34065 34064
8 33755 33756 33761 33760 34060 34061 34066 34065
8 33756 33757 33762 33761 34061 34062 34067 34066
8 33757 33758 33763 33762 34062 34063 34068 34067
8 33758 7771 7770 33763 34063 7710 7709 34068
8 33759 33760 33765 33764 34064 34065 34070 34069
8 33760 33761 33766 33765 34065 34066 34071 34070
8 33761 33762 33767 33766 34066 34067 34072 34071
8 33762 33763 33768 33767 34067 34068 34073 34072
8 33763 7770 7769 33768 34068 7709 7708 34073
8 33764 33765 33770 33769 34069 34070 34075 34074
8 33765 33766 33771 33770 34070 34071 34076 34075
8 33766 33767 33772 33771 34071 34072 34077 34076
8 33767 33768 33773 33772 34072 34073 34078 34077
8 33768 7769 7768 33773 34073 7708 7707 34078
8 33769 33770 33775 33774 34074 34075 34080 34079
8 33770 33771 33776 33775 34075 34076 34081 34080
8 33771 33772 33777 33776 34076 34077 34082 34081
8 33772 33773 33778 33777 34077 34078 34083 34082
8 33773 7768 7767 33778 34078 7707 7706 34083
8 33774 33775 33780 33779 34079 34080 34085 34084
8 33775 33776 33781 33780 34080 34081 34086 34085
8 33776 33777 33782 33781 34081 34082 34087 34086
8 33777 33778 33783 33782 34082 34083 34088 34087
8 33778 7767 7766 33783 34083 7706 7705 34088
8 1886 33779 33784 1887 1825 34084 34089 1826
8 33779 33780 33785 33784 34084 34085 34090 34089
8 33780 33781 33786 33785 34085 34086 34091 34090
8 33781 33782 33787 33786 34086 34087 34092 34091
8 33782 33783 33788 33787 34087 34088 34093 34092
8 33783 7766 7765 33788 34088 7705 7704 34093
8 1887 33784 33789 1888 1826 34089 34094 1827
8 33784 33785 33790 33789 34089 34090 34095 34094
8 33785 33786 33791 33790 34090 34091 34096 34095
8 33786 33787 33792 33791 34091 34092 34097 34096
8 33787 33788 33793 33792 34092 34093 34098 34097
8 33788 7765 7764 33793 34093 7704 7703 34098
8 1888 33789 33794 1889 1827 34094 34099 1828
8 33789 33790 33795 33794 34094 34095 34100 34099
8 33790 33791 33796 33795 34095 34096 34101 34100
8 33791 33792 33797 33796 34096 34097 34102 34101
8 33792 33793 33798 33797 34097 34098 34103 34102
8 33793 7764 7763 33798 34098 7703 7702 34103
8 1889 33794 33799 1890 1828 34099 34104 1829
8 33794 33795 33800 33799 34099 34100 34105 34104
8 33795 33796 33801 33800 34100 34101 34106 34105
8 33796 33797 33802 33801 34101 34102 34107 34106
8 33797 33798 33803 33802 34102 34103 34108 34107
8 33798 7763 7762 33803 34103 7702 7701 34108
8 1890 33799 33804 1891 1829 34104 34109 1830
8 33799 33800 33805 33804 34104 34105 34110 34109
8 33800 33801 33806 33805 34105 34106 34111 34110
8 33801 33802 33807 33806 34106 34107 34112 34111
8 33802 33803 33808 33807 34107 34108 34113 34112
8 33803 7762 7761 33808 34108 7701 7700 34113
8 1891 33804 33809 1892 1830 34109 34114 1831
8 33804 33805 33810 33809 34109 34110 34115 34114
8 33805 33806 33811 33810 34110 34111 34116 34115
8 33806 33807 33812 33811 34111 34112 34117 34116
8 33807 33808 33813 33812 34112 34113 34118 34117
8 33808 7761 7760 33813 34113 7700 7699 34118
8 1892 33809 33814 1893 1831 34114 34119 1832
8 33809 33810 33815 33814 34114 34115 34120 34119
8 33810 33811 33816 33815 34115 34116 34121 34120
8 33811 33812 33817 33816 34116 34117 34122 34121
8 33812 33813 33818 33817 34117 34118 34123 34122
8 33813 7760 7759 33818 34118 7699 7698 34123
8 1893 33814 33819 1894 1832 34119 34124 1833
8 33814 33815 33820 33819 34119 34120 34125 34124
8 33815 33816 33821 33820 34120 34121 34126 34125
8 33816 33817 33822 33821 34121 34122 34127 34126
8 33817 33818 33823 33822 34122 34123 34128 34127
8 33818 7759 7758 33823 34123 7698 7697 34128
8 1894 33819 33824 1895 1833 34124 34129 1834
8 33819 33820 33825 33824 34124 34125 34130 34129
8 33820 33821 33826 33825 34125 34126 34131 34130
8 33821 33822 33827 33826 34126 34127 34132 34131
8 33822 33823 33828 33827 34127 34128 34133 34132
8 33823 7758 7757 33828 34128 7697 7696 34133
8 1895 33824 12754 89 1834 34129 12749 88
8 33824 33825 12755 12754 34129 34130 12750 12749
8 33825 33826 12756 12755 34130 34131 12751 12750
8 33826 33827 12757 12756 34131 34132 12752 12751
8 33827 33828 12758 12757 34132 34133 12753 12752
8 33828 7757 6206 12758 34133 7696 6207 12753
8 285 12189 33829 1774 286 12194 34134 1713
8 12189 12190 33830 33829 12194 12195 34135 34134
8 12190 12191 33831 33830 12195 12196 34136 34135
8 12191 12192 33832 33831 12196 12197 34137 34136
8 12192 12193 33833 33832 12197 12198 34138 34137
8 12193 6010 7756 33833 12198 6009 7695 34138
8 1774 33829 33834 1775 1713 34134 34139 1714
8 33829 33830 33835 33834 34134 34135 34140 34139
8 33830 33831 33836 33835 34135 34136 34141 34140
8 33831 33832 33837 33836 34136 34137 34142 34141
8 33832 33833 33838 33837 34137 34138 34143 34142
8 33833 7756 7755 33838 34138 7695 7694 34143
8 1775 33834 33839 1776 1714 34139 34144 1715
8 33834 33835 33840 33839 34139 34140 34145 34144
8 33835 33836 33841 33840 34140 34141 34146 34145
8 33836 33837 33842 33841 34141 34142 34147 34146
8 33837 33838 33843 33842 34142 34143 34148 34147
8 33838 7755 7754 33843 34143 7694 7693 34148
8 1776 33839 33844 1777 1715 34144 34149 1716
8 33839 33840 33845 33844 34144 34145 34150 34149
8 33840 33841 33846 33845 34145 34146 34151 34150
8 33841 33842 33847 33846 34146 34147 34152 34151
8 33842 33843 33848 33847 34147 34148 34153 34152
8 33843 7754 7753 33848 34148 7693 7692 34153
8 1777 33844 33849 1778 1716 34149 34154 1717
8 33844 33845 33850 33849 34149 34150 34155 34154
8 33845 33846 33851 33850 34150 34151 34156 34155
8 33846 33847 33852 33851 34151 34152 34157 34156
8 33847 33848 33853 33852 34152 34153 34158 34157
8 33848 7753 7752 33853 34153 7692 7691 34158
8 1778 33849 33854 1779 1717 34154 34159 1718
8 33849 33850 33855 33854 34154 34155 34160 34159
8 33850 33851 33856 33855 34155 34156 34161 34160
8 33851 33852 33857 33856 34156 34157 34162 34161
8 33852 33853 33858 33857 34157 34158 34163 34162
8 33853 7752 7751 33858 34158 7691 7690 34163
8 1779 33854 33859 1780 1718 34159 34164 1719
8 33854 33855 33860 33859 34159 34160 34165 34164
8 33855 33856 33861 33860 34160 34161 34166 34165
8 33856 33857 33862 33861 34161 34162 34167 34166
8 33857 33858 33863 33862 34162 34163 34168 34167
8 33858 7751 7750 33863 34163 7690 7689 34168
8 1780 33859 33864 1781 1719 34164 34169 1720
8 33859 33860 33865 33864 34164 34165 34170 34169
8 33860 33861 33866 33865 34165 34166 34171 34170
8 33861 33862 33867 33866 34166 34167 34172 34171
8 33862 33863 33868 33867 34167 34168 34173 34172
8 33863 7750 7749 33868 34168 7689 7688 34173
8 1781 33864 33869 1782 1720 34169 34174 1721
8 33864 33865 33870 33869 34169 34170 34175 34174
8 33865 33866 33871 33870 34170 34171 34176 34175
8 33866 33867 33872 33871 34171 34172 34177 34176
8 33867 33868 33873 33872 34172 34173 34178 34177
8 33868 7749 7748 33873 34173 7688 7687 34178
8 1782 33869 33874 1783 1721 34174 34179 1722
8 33869 33870 33875 33874 34174 34175 34180 34179
8 33870 33871 33876 33875 34175 34176 34181 34180
8 33871 33872 33877 33876 34176 34177 34182 34181
8 33872 33873 33878 33877 34177 34178 34183 34182
8 33873 7748 7747 33878 34178 7687 7686 34183
8 1783 33874 33879 1784 1722 34179 34184 1723
8 33874 33875 33880 33879 34179 34180 34185 34184
8 33875 33876 33881 33880 34180 34181 34186 34185
8 33876 33877 33882 33881 34181 34182 34187 34186
8 33877 33878 33883 33882 34182 34183 34188 34187
8 33878 7747 7746 33883 34183 7686 7685 34188
8 1784 33879 33884 1785 1723 34184 34189 1724
8 33879 33880 33885 33884 34184 34185 34190 34189
8 33880 33881 33886 33885 34185 34186 34191 34190
8 33881 33882 33887 33886 34186 34187 34192 34191
8 33882 33883 33888 33887 34187 34188 34193 34192
8 33883 7746 7745 33888 34188 7685 7684 34193
8 1785 33884 33889 1786 1724 34189 34194 1725
8 33884 33885 33890 33889 34189 34190 34195 34194
8 33885 33886 33891 33890 34190 34191 34196 34195
8 33886 33887 33892 33891 34191 34192 34197 34196
8 33887 33888 33893 33892 34192 34193 34198 34197
8 33888 7745 7744 33893 34193 7684 7683 34198
8 1786 33889 33894 1787 1725 34194 34199 1726
8 33889 33890 33895 33894 34194 34195 34200 34199
8 33890 33891 33896 33895 34195 34196 34201 34200
8 33891 33892 33897 33896 34196 34197 34202 34201
8 33892 33893 33898 33897 34197 34198 34203 34202
8 33893 7744 7743 33898 34198 7683 7682 34203
8 1787 33894 33899 1788 1726 34199 34204 1727
8 33894 33895 33900 33899 34199 34200 34205 34204
8 33895 33896 33901 33900 34200 34201 34206 34205
8 33896 33897 33902 33901 34201 34202 34207 34206
8 33897 33898 33903 33902 34202 34203 34208 34207
8 33898 7743 7742 33903 34203 7682 7681 34208
8 1788 33899 33904 1789 1727 34204 34209 1728
8 33899 33900 33905 33904 34204 34205 34210 34209
8 33900 33901 33906 33905 34205 34206 34211 34210
8 33901 33902 33907 33906 34206 34207 34212 34211
8 33902 33903 33908 33907 34207 34208 34213 34212
8 33903 7742 7741 33908 34208 7681 7680 34213
8 1789 33904 33909 1790 1728 34209 34214 1729
8 33904 33905 33910 33909 34209 34210 34215 34214
8 33905 33906 33911 33910 34210 34211 34216 34215
8 33906 33907 33912 33911 34211 34212 34217 34216
8 33907 33908 33913 33912 34212 34213 34218 34217
8 33908 7741 7740 33913 34213 7680 7679 34218
8 1790 33909 33914 1791 1729 34214 34219 1730
8 33909 33910 33915 33914 34214 34215 34220 34219
8 33910 33911 33916 33915 34215 34216 34221 34220
8 33911 33912 33917 33916 34216 34217 34222 34221
8 33912 33913 33918 33917 34217 34218 34223 34222
8 33913 7740 7739 33918 34218 7679 7678 34223
8 1791 33914 33919 1792 1730 34219 34224 1731
8 33914 33915 33920 33919 34219 34220 34225 34224
8 33915 33916 33921 33920 34220 34221 34226 34225
8 33916 33917 33922 33921 34221 34222 34227 34226
8 33917 33918 33923 33922 34222 34223 34228 34227
8 33918 7739 7738 33923 34223 7678 7677 34228
8 1792 33919 33924 1793 1731 34224 34229 1732
8 33919 33920 33925 33924 34224 34225 34230 34229
8 33920 33921 33926 33925 34225 34226 34231 34230
8 33921 33922 33927 33926 34226 34227 34232 34231
8 33922 33923 33928 33927 34227 34228 34233 34232
8 33923 7738 7737 33928 34228 7677 7676 34233
8 1793 33924 33929 1794 1732 34229 34234 1733
8 33924 33925 33930 33929 34229 34230 34235 34234
8 33925 33926 33931 33930 34230 34231 34236 34235
8 33926 33927 33932 33931 34231 34232 34237 34236
8 33927 33928 33933 33932 34232 34233 34238 34237
8 33928 7737 7736 33933 34233 7676 7675 34238
8 1794 33929 33934 1795 1733 34234 34239 1734
8 33929 33930 33935 33934 34234 34235 34240 34239
8 33930 33931 33936 33935 34235 34236 34241 34240
8 33931 33932 33937 33936 34236 34237 34242 34241
8 33932 33933 33938 33937 34237 34238 34243 34242
8 33933 7736 7735 33938 34238 7675 7674 34243
8 33934 33935 33940 33939 34239 34240 34245 34244
8 33935 33936 33941 33940 34240 34241 34246 34245
8 33936 33937 33942 33941 34241 34242 34247 34246
8 33937 33938 33943 33942 34242 34243 34248 34247
8 33938 7735 7734 33943 34243 7674 7673 34248
8 33939 33940 33945 33944 34244 34245 34250 34249
8 33940 33941 33946 33945 34245 34246 34251 34250
8 33941 33942 33947 33946 34246 34247 34252 34251
8 33942 33943 33948 33947 34247 34248 34253 34252
8 33943 7734 7733 33948 34248 7673 7672 34253
8 33944 33945 33950 33949 34249 34250 34255 34254
8 33945 33946 33951 33950 34250 34251 34256 34255
8 33946 33947 33952 33951 34251 34252 34257 34256
8 33947 33948 33953 33952 34252 34253 34258 34257
8 33948 7733 7732 33953 34253 7672 7671 34258
8 33949 33950 33955 33954 34254 34255 34260 34259
8 33950 33951 33956 33955 34255 34256 34261 34260
8 33951 33952 33957 33956 34256 34257 34262 34261
8 33952 33953 33958 33957 34257 34258 34263 34262
8 33953 7732 7731 33958 34258 7671 7670 34263
8 33954 33955 33960 33959 34259 34260 34265 34264
8 33955 33956 33961 33960 34260 34261 34266 34265
8 33956 33957 33962 33961 34261 34262 34267 34266
8 33957 33958 33963 33962 34262 34263 34268 34267
8 33958 7731 7730 33963 34263 7670 7669 34268
8 33959 33960 33965 33964 34264 34265 34270 34269
8 33960 33961 33966 33965 34265 34266 34271 34270
8 33961 33962 33967 33966 34266 34267 34272 34271
8 33962 33963 33968 33967 34267 34268 34273 34272
8 33963 7730 7729 33968 34268 7669 7668 34273
8 33964 33965 33970 33969 34269 34270 34275 34274
8 33965 33966 33971 33970 34270 34271 34276 34275
8 33966 33967 33972 33971 34271 34272 34277 34276
8 33967 33968 33973 33972 34272 34273 34278 34277
8 33968 7729 7728 33973 34273 7668 7667 34278
8 33969 33970 33975 33974 34274 34275 34280 34279
8 33970 33971 33976 33975 34275 34276 34281 34280
8 33971 33972 33977 33976 34276 34277 34282 34281
8 33972 33973 33978 33977 34277 34278 34283 34282
8 33973 7728 7727 33978 34278 7667 7666 34283
8 33974 33975 33980 33979 34279 34280 34285 34284
8 33975 33976 33981 33980 34280 34281 34286 34285
8 33976 33977 33982 33981 34281 34282 34287 34286
8 33977 33978 33983 33982 34282 34283 34288 34287
8 33978 7727 7726 33983 34283 7666 7665 34288
8 33979 33980 33985 33984 34284 34285 34290 34289
8 33980 33981 33986 33985 34285 34286 34291 34290
8 33981 33982 33987 33986 34286 34287 34292 34291
8 33982 33983 33988 33987 34287 34288 34293 34292
8 33983 7726 7725 33988 34288 7665 7664 34293
8 33984 33985 33990 33989 34289 34290 34295 34294
8 33985 33986 33991 33990 34290 34291 34296 34295
8 33986 33987 33992 33991 34291 34292 34297 34296
8 33987 33988 33993 33992 34292 34293 34298 34297
8 33988 7725 7724 33993 34293 7664 7663 34298
8 33989 33990 33995 33994 34294 34295 34300 34299
8 33990 33991 33996 33995 34295 34296 34301 34300
8 33991 33992 33997 33996 34296 34297 34302 34301
8 33992 33993 33998 33997 34297 34298 34303 34302
8 33993 7724 7723 33998 34298 7663 7662 34303
8 33994 33995 34000 33999 34299 34300 34305 34304
8 33995 33996 34001 34000 34300 34301 34306 34305
8 33996 33997 34002 34001 34301 34302 34307 34306
8 33997 33998 34003 34002 34302 34303 34308 34307
8 33998 7723 7722 34003 34303 7662 7661 34308
8 33999 34000 34005 34004 34304 34305 34310 34309
8 34000 34001 34006 34005 34305 34306 34311 34310
8 34001 34002 34007 34006 34306 34307 34312 34311
8 34002 34003 34008 34007 34307 34308 34313 34312
8 34003 7722 7721 34008 34308 7661 7660 34313
8 34004 34005 34010 34009 34309 34310 34315 34314
8 34005 34006 34011 34010 34310 34311 34316 34315
8 34006 34007 34012 34011 34311 34312 34317 34316
8 34007 34008 34013 34012 34312 34313 34318 34317
8 34008 7721 7720 34013 34313 7660 7659 34318
8 34009 34010 34015 34014 34314 34315 34320 34319
8 34010 34011 34016 34015 34315 34316 34321 34320
8 34011 34012 34017 34016 34316 34317 34322 34321
8 34012 34013 34018 34017 34317 34318 34323 34322
8 34013 7720 7719 34018 34318 7659 7658 34323
8 34014 34015 34020 34019 34319 34320 34325 34324
8 34015 34016 34021 34020 34320 34321 34326 34325
8 34016 34017 34022 34021 34321 34322 34327 34326
8 34017 34018 34023 34022 34322 34323 34328 34327
8 34018 7719 7718 34023 34323 7658 7657 34328
8 34019 34020 34025 34024 34324 34325 34330 34329
8 34020 34021 34026 34025 34325 34326 34331 34330
8 34021 34022 34027 34026 34326 34327 34332 34331
8 34022 34023 34028 34027 34327 34328 34333 34332
8 34023 7718 7717 34028 34328 7657 7656 34333
8 34024 34025 34030 34029 34329 34330 34335 34334
8 34025 34026 34031 34030 34330 34331 34336 34335
8 34026 34027 34032 34031 34331 34332 34337 34336
8 34027 34028 34033 34032 34332 34333 34338 34337
8 34028 7717 7716 34033 34333 7656 7655 34338
8 34029 34030 34035 34034 34334 34335 34340 34339
8 34030 34031 34036 34035 34335 34336 34341 34340
8 34031 34032 34037 34036 34336 34337 34342 34341
8 34032 34033 34038 34037 34337 34338 34343 34342
8 34033 7716 7715 34038 34338 7655 7654 34343
8 34034 34035 34040 34039 34339 34340 34345 34344
8 34035 34036 34041 34040 34340 34341 34346 34345
8 34036 34037 34042 34041 34341 34342 34347 34346
8 34037 34038 34043 34042 34342 34343 34348 34347
8 34038 7715 7714 34043 34343 7654 7653 34348
8 34039 34040 34045 34044 34344 34345 34350 34349
8 34040 34041 34046 34045 34345 34346 34351 34350
8 34041 34042 34047 34046 34346 34347 34352 34351
8 34042 34043 34048 34047 34347 34348 34353 34352
8 34043 7714 7713 34048 34348 7653 7652 34353
8 34044 34045 34050 34049 34349 34350 34355 34354
8 34045 34046 34051 34050 34350 34351 34356 34355
8 34046 34047 34052 34051 34351 34352 34357 34356
8 34047 34048 34053 34052 34352 34353 34358 34357
8 34048 7713 7712 34053 34353 7652 7651 34358
8 34049 34050 34055 34054 34354 34355 34360 34359
8 34050 34051 34056 34055 34355 34356 34361 34360
8 34051 34052 34057 34056 34356 34357 34362 34361
8 34052 34053 34058 34057 34357 34358 34363 34362
8 34053 7712 7711 34058 34358 7651 7650 34363
8 34054 34055 34060 34059 34359 34360 34365 34364
8 34055 34056 34061 34060 34360 34361 34366 34365
8 34056 34057 34062 34061 34361 34362 34367 34366
8 34057 34058 34063 34062 34362 34363 34368 34367
8 34058 7711 7710 34063 34363 7650 7649 34368
8 34059 34060 34065 34064 34364 34365 34370 34369
8 34060 34061 34066 34065 34365 34366 34371 34370
8 34061 34062 34067 34066 34366 34367 34372 34371
8 34062 34063 34068 34067 34367 34368 34373 34372
8 34063 7710 7709 34068 34368 7649 7648 34373
8 34064 34065 34070 34069 34369 34370 34375 34374
8 34065 34066 34071 34070 34370 34371 34376 34375
8 34066 34067 34072 34071 34371 34372 34377 34376
8 34067 34068 34073 34072 34372 34373 34378 34377
8 34068 7709 7708 34073 34373 7648 7647 34378
8 34069 34070 34075 34074 34374 34375 34380 34379
8 34070 34071 34076 34075 34375 34376 34381 34380
8 34071 34072 34077 34076 34376 34377 34382 34381
8 34072 34073 34078 34077 34377 34378 34383 34382
8 34073 7708 7707 34078 34378 7647 7646 34383
8 34074 34075 34080 34079 34379 34380 34385 34384
8 34075 34076 34081 34080 34380 34381 34386 34385
8 34076 34077 34082 34081 34381 34382 34387 34386
8 34077 34078 34083 34082 34382 34383 34388 34387
8 34078 7707 7706 34083 34383 7646 7645 34388
8 34079 34080 34085 34084 34384 34385 34390 34389
8 34080 34081 34086 34085 34385 34386 34391 34390
8 34081 34082 34087 34086 34386 34387 34392 34391
8 34082 34083 34088 34087 34387 34388 34393 34392
8 34083 7706 7705 34088 34388 7645 7644 34393
8 1825 34084 34089 1826 1764 34389 34394 1765
8 34084 34085 34090 34089 34389 34390 34395 34394
8 34085 34086 34091 34090 34390 34391 34396 34395
8 34086 34087 34092 34091 34391 34392 34397 34396
8 34087 34088 34093 34092 34392 34393 34398 34397
8 34088 7705 7704 34093 34393 7644 7643 34398
8 1826 34089 34094 1827 1765 34394 34399 1766
8 34089 34090 34095 34094 34394 34395 34400 34399
8 34090 34091 34096 34095 34395 34396 34401 34400
8 34091 34092 34097 34096 34396 34397 34402 34401
8 34092 34093 34098 34097 34397 34398 34403 34402
8 34093 7704 7703 34098 34398 7643 7642 34403
8 1827 34094 34099 1828 1766 34399 34404 1767
8 34094 34095 34100 34099 34399 34400 34405 34404
8 34095 34096 34101 34100 34400 34401 34406 34405
8 34096 34097 34102 34101 34401 34402 34407 34406
8 34097 34098 34103 34102 34402 34403 34408 34407
8 34098 7703 7702 34103 34403 7642 7641 34408
8 1828 34099 34104 1829 1767 34404 34409 1768
8 34099 34100 34105 34104 34404 34405 34410 34409
8 34100 34101 34106 34105 34405 34406 34411 34410
8 34101 34102 34107 34106 34406 34407 34412 34411
8 34102 34103 34108 34107 34407 34408 34413 34412
8 34103 7702 7701 34108 34408 7641 7640 34413
8 1829 34104 34109 1830 1768 34409 34414 1769
8 34104 34105 34110 34109 34409 34410 34415 34414
8 34105 34106 34111 34110 34410 34411 34416 34415
8 34106 34107 34112 34111 34411 34412 34417 34416
8 34107 34108 34113 34112 34412 34413 34418 34417
8 34108 7701 7700 34113 34413 7640 7639 34418
8 1830 34109 34114 1831 1769 34414 34419 1770
8 34109 34110 34115 34114 34414 34415 34420 34419
8 34110 34111 34116 34115 34415 34416 34421 34420
8 34111 34112 34117 34116 34416 34417 34422 34421
8 34112 34113 34118 34117 34417 34418 34423 34422
8 34113 7700 7699 34118 34418 7639 7638 34423
8 1831 34114 34119 1832 1770 34419 34424 1771
8 34114 34115 34120 34119 34419 34420 34425 34424
8 34115 34116 34121 34120 34420 34421 34426 34425
8 34116 34117 34122 34121 34421 34422 34427 34426
8 34117 34118 34123 34122 34422 34423 34428 34427
8 34118 7699 7698 34123 34423 7638 7637 34428
8 1832 34119 34124 1833 1771 34424 34429 1772
8 34119 34120 34125 34124 34424 34425 34430 34429
8 34120 34121 34126 34125 34425 34426 34431 34430
8 34121 34122 34127 34126 34426 34427 34432 34431
8 34122 34123 34128 34127 34427 34428 34433 34432
8 34123 7698 7697 34128 34428 7637 7636 34433
8 1833 34124 34129 1834 1772 34429 34434 1773
8 34124 34125 34130 34129 34429 34430 34435 34434
8 34125 34126 34131 34130 34430 34431 34436 34435
8 34126 34127 34132 34131 34431 34432 34437 34436
8 34127 34128 34133 34132 34432 34433 34438 34437
8 34128 7697 7696 34133 34433 7636 7635 34438
8 1834 34129 12749 88 1773 34434 12744 87
8 34129 34130 12750 12749 34434 34435 12745 12744
8 34130 34131 12751 12750 34435 34436 12746 12745
8 34131 34132 12752 12751 34436 34437 12747 12746
8 34132 34133 12753 12752 34437 34438 12748 12747
8 34133 7696 6207 12753 34438 7635 6208 12748
8 286 12194 34134 1713 287 12199 34439 1652
8 12194 12195 34135 34134 12199 12200 34440 34439
8 12195 12196 34136 34135 12200 12201 34441 34440
8 12196 12197 34137 34136 12201 12202 34442 34441
8 12197 12198 34138 34137 12202 12203 34443 34442
8 12198 6009 7695 34138 12203 6008 7634 34443
8 1713 34134 34139 1714 1652 34439 34444 1653
8 34134 34135 34140 34139 34439 34440 34445 34444
8 34135 34136 34141 34140 34440 34441 34446 34445
8 34136 34137 34142 34141 34441 34442 34447 34446
8 34137 34138 34143 34142 34442 34443 34448 34447
8 34138 7695 7694 34143 34443 7634 7633 34448
8 1714 34139 34144 1715 1653 34444 34449 1654
8 34139 34140 34145 34144 34444 34445 34450 34449
8 34140 34141 34146 34145 34445 34446 34451 34450
8 34141 34142 34147 34146 34446 34447 34452 34451
8 34142 34143 34148 34147 34447 34448 34453 34452
8 34143 7694 7693 34148 34448 7633 7632 34453
8 1715 34144 34149 1716 1654 34449 34454 1655
8 34144 34145 34150 34149 34449 34450 34455 34454
8 34145 34146 34151 34150 34450 34451 34456 34455
8 34146 34147 34152 34151 34451 34452 34457 34456
8 34147 34148 34153 34152 34452 34453 34458 34457
8 34148 7693 7692 34153 34453 7632 7631 34458
8 1716 34149 34154 1717 1655 34454 34459 1656
8 34149 34150 34155 34154 34454 34455 34460 34459
8 34150 34151 34156 34155 34455 34456 34461 34460
8 34151 34152 34157 34156 34456 34457 34462 34461
8 34152 34153 34158 34157 34457 34458 34463 34462
8 34153 7692 7691 34158 34458 7631 7630 34463
8 1717 34154 34159 1718 1656 34459 34464 1657
8 34154 34155 34160 34159 34459 34460 34465 34464
8 34155 34156 34161 34160 34460 34461 34466 34465
8 34156 34157 34162 34161 34461 34462 34467 34466
8 34157 34158 34163 34162 34462 34463 34468 34467
8 34158 7691 7690 34163 34463 7630 7629 34468
8 1718 34159 34164 1719 1657 34464 34469 1658
8 34159 34160 34165 34164 34464 34465 34470 34469
8 34160 34161 34166 34165 34465 34466 34471 34470
8 34161 34162 34167 34166 34466 34467 34472 34471
8 34162 34163 34168 34167 34467 34468 34473 34472
8 34163 7690 7689 34168 34468 7629 7628 34473
8 1719 34164 34169 1720 1658 34469 34474 1659
8 34164 34165 34170 34169 34469 34470 34475 34474
8 34165 34166 34171 34170 34470 34471 34476 34475
8 34166 34167 34172 34171 34471 34472 34477 34476
8 34167 34168 34173 34172 34472 34473 34478 34477
8 34168 7689 7688 34173 34473 7628 7627 34478
8 1720 34169 34174 1721 1659 34474 34479 1660
8 34169 34170 34175 34174 34474 34475 34480 34479
8 34170 34171 34176 34175 34475 34476 34481 34480
8 34171 34172 34177 34176 34476 34477 34482 34481
8 34172 34173 34178 34177 34477 34478 34483 34482
8 34173 7688 7687 34178 34478 7627 7626 34483
8 1721 34174 34179 1722 1660 34479 34484 1661
8 34174 34175 34180 34179 34479 34480 34485 34484
8 34175 34176 34181 34180 34480 34481 34486 34485
8 34176 34177 34182 34181 34481 34482 34487 34486
8 34177 34178 34183 34182 34482 34483 34488 34487
8 34178 7687 7686 34183 34483 7626 7625 34488
8 1722 34179 34184 1723 1661 34484 34489 1662
8 34179 34180 34185 34184 34484 34485 34490 34489
8 34180 34181 34186 34185 34485 34486 34491 34490
8 34181 34182 34187 34186 34486 34487 34492 34491
8 34182 34183 34188 34187 34487 34488 34493 34492
8 34183 7686 7685 34188 34488 7625 7624 34493
8 1723 34184 34189 1724 1662 34489 34494 1663
8 34184 34185 34190 34189 34489 34490 34495 34494
8 34185 34186 34191 34190 34490 34491 34496 34495
8 34186 34187 34192 34191 34491 34492 34497 34496
8 34187 34188 34193 34192 34492 34493 34498 34497
8 34188 7685 7684 34193 34493 7624 7623 34498
8 1724 34189 34194 1725 1663 34494 34499 1664
8 34189 34190 34195 34194 34494 34495 34500 34499
8 34190 34191 34196 34195 34495 34496 34501 34500
8 34191 34192 34197 34196 34496 34497 34502 34501
8 34192 34193 34198 34197 34497 34498 34503 34502
8 34193 7684 7683 34198 34498 7623 7622 34503
8 1725 34194 34199 1726 1664 34499 34504 1665
8 34194 34195 34200 34199 34499 34500 34505 34504
8 34195 34196 34201 34200 34500 34501 34506 34505
8 34196 34197 34202 34201 34501 34502 34507 34506
8 34197 34198 34203 34202 34502 34503 34508 34507
8 34198 7683 7682 34203 34503 7622 7621 34508
8 1726 34199 34204 1727 1665 34504 34509 1666
8 34199 34200 34205 34204 34504 34505 34510 34509
8 34200 34201 34206 34205 34505 34506 34511 34510
8 34201 34202 34207 34206 34506 34507 34512 34511
8 34202 34203 34208 34207 34507 34508 34513 34512
8 34203 7682 7681 34208 34508 7621 7620 34513
8 1727 34204 34209 1728 1666 34509 34514 1667
8 34204 34205 34210 34209 34509 34510 34515 34514
8 34205 34206 34211 34210 34510 34511 34516 34515
8 34206 34207 34212 34211 34511 34512 34517 34516
8 34207 34208 34213 34212 34512 34513 34518 34517
8 34208 7681 7680 34213 34513 7620 7619 34518
8 1728 34209 34214 1729 1667 34514 34519 1668
8 34209 34210 34215 34214 34514 34515 34520 34519
8 34210 34211 34216 34215 34515 34516 34521 34520
8 34211 34212 34217 34216 34516 34517 34522 34521
8 34212 34213 34218 34217 34517 34518 34523 34522
8 34213 7680 7679 34218 34518 7619 7618 34523
8 1729 34214 34219 1730 1668 34519 34524 1669
8 34214 34215 34220 34219 34519 34520 34525 34524
8 34215 34216 34221 34220 34520 34521 34526 34525
8 34216 34217 34222 34221 34521 34522 34527 34526
8 34217 34218 34223 34222 34522 34523 34528 34527
8 34218 7679 7678 34223 34523 7618 7617 34528
8 1730 34219 34224 1731 1669 34524 34529 1670
8 34219 34220 34225 34224 34524 34525 34530 34529
8 34220 34221 34226 34225 34525 34526 34531 34530
8 34221 34222 34227 34226 34526 34527 34532 34531
8 34222 34223 34228 34227 34527 34528 34533 34532
8 34223 7678 7677 34228 34528 7617 7616 34533
8 1731 34224 34229 1732 1670 34529 34534 1671
8 34224 34225 34230 34229 34529 34530 34535 34534
8 34225 34226 34231 34230 34530 34531 34536 34535
8 34226 34227 34232 34231 34531 34532 34537 34536
8 34227 34228 34233 34232 34532 34533 34538 34537
8 34228 7677 7676 34233 34533 7616 7615 34538
8 1732 34229 34234 1733 1671 34534 34539 1672
8 34229 34230 34235 34234 34534 34535 34540 34539
8 34230 34231 34236 34235 34535 34536 34541 34540
8 34231 34232 34237 34236 34536 34537 34542 34541
8 34232 34233 34238 34237 34537 34538 34543 34542
8 34233 7676 7675 34238 34538 7615 7614 34543
8 1733 34234 34239 1734 1672 34539 34544 1673
8 34234 34235 34240 34239 34539 34540 34545 34544
8 34235 34236 34241 34240 34540 34541 34546 34545
8 34236 34237 34242 34241 34541 34542 34547 34546
8 34237 34238 34243 34242 34542 34543 34548 34547
8 34238 7675 7674 34243 34543 7614 7613 34548
8 34239 34240 34245 34244 34544 34545 34550 34549
8 34240 34241 34246 34245 34545 34546 34551 34550
8 34241 34242 34247 34246 34546 34547 34552 34551
8 34242 34243 34248 34247 34547 34548 34553 34552
8 34243 7674 7673 34248 34548 7613 7612 34553
8 34244 34245 34250 34249 34549 34550 34555 34554
8 34245 34246 34251 34250 34550 34551 34556 34555
8 34246 34247 34252 34251 34551 34552 34557 34556
8 34247 34248 34253 34252 34552 34553 34558 34557
8 34248 7673 7672 34253 34553 7612 7611 34558
8 34249 34250 34255 34254 34554 34555 34560 34559
8 34250 34251 34256 34255 34555 34556 34561 34560
8 34251 34252 34257 34256 34556 34557 34562 34561
8 34252 34253 34258 34257 34557 34558 34563 34562
8 34253 7672 7671 34258 34558 7611 7610 34563
8 34254 34255 34260 34259 34559 34560 34565 34564
8 34255 34256 34261 34260 34560 34561 34566 34565
8 34256 34257 34262 34261 34561 34562 34567 34566
8 34257 34258 34263 34262 34562 34563 34568 34567
8 34258 7671 7670 34263 34563 7610 7609 34568
8 34259 34260 34265 34264 34564 34565 34570 34569
8 34260 34261 34266 34265 34565 34566 34571 34570
8 34261 34262 34267 34266 34566 34567 34572 34571
8 34262 34263 34268 34267 34567 34568 34573 34572
8 34263 7670 7669 34268 34568 7609 7608 34573
8 34264 34265 34270 34269 34569 34570 34575 34574
8 34265 34266 34271 34270 34570 34571 34576 34575
8 34266 34267 34272 34271 34571 34572 34577 34576
8 34267 34268 34273 34272 34572 34573 34578 34577
8 34268 7669 7668 34273 34573 7608 7607 34578
8 34269 34270 34275 34274 34574 34575 34580 34579
8 34270 34271 34276 34275 34575 34576 34581 34580
8 34271 34272 34277 34276 34576 34577 34582 34581
8 34272 34273 34278 34277 34577 34578 34583 34582
8 34273 7668 7667 34278 34578 7607 7606 34583
8 34274 34275 34280 34279 34579 34580 34585 34584
8 34275 34276 34281 34280 34580 34581 34586 34585
8 34276 34277 34282 34281 34581 34582 34587 34586
8 34277 34278 34283 34282 34582 34583 34588 34587
8 34278 7667 7666 34283 34583 7606 7605 34588
8 34279 34280 34285 34284 34584 34585 34590 34589
8 34280 34281 34286 34285 34585 34586 34591 34590
8 34281 34282 34287 34286 34586 34587 34592 34591
8 34282 34283 34288 34287 34587 34588 34593 34592
8 34283 7666 7665 34288 34588 7605 7604 34593
8 34284 34285 34290 34289 34589 34590 34595 34594
8 34285 34286 34291 34290 34590 34591 34596 34595
8 34286 34287 34292 34291 34591 34592 34597 34596
8 34287 34288 34293 34292 34592 34593 34598 34597
8 34288 7665 7664 34293 34593 7604 7603 34598
8 34289 34290 34295 34294 34594 34595 34600 34599
8 34290 34291 34296 34295 34595 34596 34601 34600
8 34291 34292 34297 34296 34596 34597 34602 34601
8 34292 34293 34298 34297 34597 34598 34603 34602
8 34293 7664 7663 34298 34598 7603 7602 34603
8 34294 34295 34300 34299 34599 34600 34605 34604
8 34295 34296 34301 34300 34600 34601 34606 34605
8 34296 34297 34302 34301 34601 34602 34607 34606
8 34297 34298 34303 34302 34602 34603 34608 34607
8 34298 7663 7662 34303 34603 7602 7601 34608
8 34299 34300 34305 34304 34604 34605 34610 34609
8 34300 34301 34306 34305 34605 34606 34611 34610
8 34301 34302 34307 34306 34606 34607 34612 34611
8 34302 34303 34308 34307 34607 34608 34613 34612
8 34303 7662 7661 34308 34608 7601 7600 34613
8 34304 34305 34310 34309 34609 34610 34615 34614
8 34305 34306 34311 34310 34610 34611 34616 34615
8 34306 34307 34312 34311 34611 34612 34617 34616
8 34307 34308 34313 34312 34612 34613 34618 34617
8 34308 7661 7660 34313 34613 7600 7599 34618
8 34309 34310 34315 34314 34614 34615 34620 34619
8 34310 34311 34316 34315 34615 34616 34621 34620
8 34311 34312 34317 34316 34616 34617 34622 34621
8 34312 34313 34318 34317 34617 34618 34623 34622
8 34313 7660 7659 34318 34618 7599 7598 34623
8 34314 34315 34320 34319 34619 34620 34625 34624
8 34315 34316 34321 34320 34620 34621 34626 34625
8 34316 34317 34322 34321 34621 34622 34627 34626
8 34317 34318 34323 34322 34622 34623 34628 34627
8 34318 7659 7658 34323 34623 7598 7597 34628
8 34319 34320 34325 34324 34624 34625 34630 34629
8 34320 34321 34326 34325 34625 34626 34631 34630
8 34321 34322 34327 34326 34626 34627 34632 34631
8 34322 34323 34328 34327 34627 34628 34633 34632
8 34323 7658 7657 34328 34628 7597 7596 34633
8 34324 34325 34330 34329 34629 34630 34635 34634
8 34325 34326 34331 34330 34630 34631 34636 34635
8 34326 34327 34332 34331 34631 34632 34637 34636
8 34327 34328 34333 34332 34632 34633 34638 34637
8 34328 7657 7656 34333 34633 7596 7595 34638
8 34329 34330 34335 34334 34634 34635 34640 34639
8 34330 34331 34336 34335 34635 34636 34641 34640
8 34331 34332 34337 34336 34636 34637 34642 34641
8 34332 34333 34338 34337 34637 34638 34643 34642
8 34333 7656 7655 34338 34638 7595 7594 34643
8 34334 34335 34340 34339 34639 34640 34645 34644
8 34335 34336 34341 34340 34640 34641 34646 34645
8 34336 34337 34342 34341 34641 34642 34647 34646
8 34337 34338 34343 34342 34642 34643 34648 34647
8 34338 7655 7654 34343 34643 7594 7593 34648
8 34339 34340 34345 34344 34644 34645 34650 34649
8 34340 34341 34346 34345 34645 34646 34651 34650
8 34341 34342 34347 34346 34646 34647 34652 34651
8 34342 34343 34348 34347 34647 34648 34653 34652
8 34343 7654 7653 34348 34648 7593 7592 34653
8 34344 34345 34350 34349 34649 34650 34655 34654
8 34345 34346 34351 34350 34650 34651 34656 34655
8 34346 34347 34352 34351 34651 34652 34657 34656
8 34347 34348 34353 34352 34652 34653 34658 34657
8 34348 7653 7652 34353 34653 7592 7591 34658
8 34349 34350 34355 34354 34654 34655 34660 34659
8 34350 34351 34356 34355 34655 34656 34661 34660
8 34351 34352 34357 34356 34656 34657 34662 34661
8 34352 34353 34358 34357 34657 34658 34663 34662
8 34353 7652 7651 34358 34658 7591 7590 34663
8 34354 34355 34360 34359 34659 34660 34665 34664
8 34355 34356 34361 34360 34660 34661 34666 34665
8 34356 34357 34362 34361 34661 34662 34667 34666
8 34357 34358 34363 34362 34662 34663 34668 34667
8 34358 7651 7650 34363 34663 7590 7589 34668
8 34359 34360 34365 34364 34664 34665 34670 34669
8 34360 34361 34366 34365 34665 34666 34671 34670
8 34361 34362 34367 34366 34666 34667 34672 34671
8 34362 34363 34368 34367 34667 34668 34673 34672
8 34363 7650 7649 34368 34668 7589 7588 34673
8 34364 34365 34370 34369 34669 34670 34675 34674
8 34365 34366 34371 34370 34670 34671 34676 34675
8 34366 34367 34372 34371 34671 34672 34677 34676
8 34367 34368 34373 34372 34672 34673 34678 34677
8 34368 7649 7648 34373 34673 7588 7587 34678
8 34369 34370 34375 34374 34674 34675 34680 34679
8 34370 34371 34376 34375 34675 34676 34681 34680
8 34371 34372 34377 34376 34676 34677 34682 34681
8 34372 34373 34378 34377 34677 34678 34683 34682
8 34373 7648 7647 34378 34678 7587 7586 34683
8 34374 34375 34380 34379 34679 34680 34685 34684
8 34375 34376 34381 34380 34680 34681 34686 34685
8 34376 34377 34382 34381 34681 34682 34687 34686
8 34377 34378 34383 34382 34682 34683 34688 34687
8 34378 7647 7646 34383 34683 7586 7585 34688
8 34379 34380 34385 34384 34684 34685 34690 34689
8 34380 34381 34386 34385 34685 34686 34691 34690
8 34381 34382 34387 34386 34686 34687 34692 34691
8 34382 34383 34388 34387 34687 34688 34693 34692
8 34383 7646 7645 34388 34688 7585 7584 34693
8 34384 34385 34390 34389 34689 34690 34695 34694
8 34385 34386 34391 34390 34690 34691 34696 34695
8 34386 34387 34392 34391 34691 34692 34697 34696
8 34387 34388 34393 34392 34692 34693 34698 34697
8 34388 7645 7644 34393 34693 7584 7583 34698
8 1764 34389 34394 1765 1703 34694 34699 1704
8 34389 34390 34395 34394 34694 34695 34700 34699
8 34390 34391 34396 34395 34695 34696 34701 34700
8 34391 34392 34397 34396 34696 34697 34702 34701
8 34392 34393 34398 34397 34697 34698 34703 34702
8 34393 7644 7643 34398 34698 7583 7582 34703
8 1765 34394 34399 1766 1704 34699 34704 1705
8 34394 34395 34400 34399 34699 34700 34705 34704
8 34395 34396 34401 34400 34700 34701 34706 34705
8 34396 34397 34402 34401 34701 34702 34707 34706
8 34397 34398 34403 34402 34702 34703 34708 34707
8 34398 7643 7642 34403 34703 7582 7581 34708
8 1766 34399 34404 1767 1705 34704 34709 1706
8 34399 34400 34405 34404 34704 34705 34710 34709
8 34400 34401 34406 34405 34705 34706 34711 34710
8 34401 34402 34407 34406 34706 34707 34712 34711
8 34402 34403 34408 34407 34707 34708 34713 34712
8 34403 7642 7641 34408 34708 7581 7580 34713
8 1767 34404 34409 1768 1706 34709 34714 1707
8 34404 34405 34410 34409 34709 34710 34715 34714
8 34405 34406 34411 34410 34710 34711 34716 34715
8 34406 34407 34412 34411 34711 34712 34717 34716
8 34407 34408 34413 34412 34712 34713 34718 34717
8 34408 7641 7640 34413 34713 7580 7579 34718
8 1768 34409 34414 1769 1707 34714 34719 1708
8 34409 34410 34415 34414 34714 34715 34720 34719
8 34410 34411 34416 34415 34715 34716 34721 34720
8 34411 34412 34417 34416 34716 34717 34722 34721
8 34412 34413 34418 34417 34717 34718 34723 34722
8 34413 7640 7639 34418 34718 7579 7578 34723
8 1769 34414 34419 1770 1708 34719 34724 1709
8 34414 34415 34420 34419 34719 34720 34725 34724
8 34415 34416 34421 34420 34720 34721 34726 34725
8 34416 34417 34422 34421 34721 34722 34727 34726
8 34417 34418 34423 34422 34722 34723 34728 34727
8 34418 7639 7638 34423 34723 7578 7577 34728
8 1770 34419 34424 1771 1709 34724 34729 1710
8 34419 34420 34425 34424 34724 34725 34730 34729
8 34420 34421 34426 34425 34725 34726 34731 34730
8 34421 34422 34427 34426 34726 34727 34732 34731
8 34422 34423 34428 34427 34727 34728 34733 34732
8 34423 7638 7637 34428 34728 7577 7576 34733
8 1771 34424 34429 1772 1710 34729 34734 1711
8 34424 34425 34430 34429 34729 34730 34735 34734
8 34425 34426 34431 34430 34730 34731 34736 34735
8 34426 34427 34432 34431 34731 34732 34737 34736
8 34427 34428 34433 34432 34732 34733 34738 34737
8 34428 7637 7636 34433 34733 7576 7575 34738
8 1772 34429 34434 1773 1711 34734 34739 1712
8 34429 34430 34435 34434 34734 34735 34740 34739
8 34430 34431 34436 34435 34735 34736 34741 34740
8 34431 34432 34437 34436 34736 34737 34742 34741
8 34432 34433 34438 34437 34737 34738 34743 34742
8 34433 7636 7635 34438 34738 7575 7574 34743
8 1773 34434 12744 87 1712 34739 12739 86
8 34434 34435 12745 12744 34739 34740 12740 12739
8 34435 34436 12746 12745 34740 34741 12741 12740
8 34436 34437 12747 12746 34741 34742 12742 12741
8 34437 34438 12748 12747 34742 34743 12743 12742
8 34438 7635 6208 12748 34743 7574 6209 12743
8 287 12199 34439 1652 288 12204 34744 1591
8 12199 12200 34440 34439 12204 12205 34745 34744
8 12200 12201 34441 34440 12205 12206 34746 34745
8 12201 12202 34442 34441 12206 12207 34747 34746
8 12202 12203 34443 34442 12207 12208 34748 34747
8 12203 6008 7634 34443 12208 6007 7573 34748
8 1652 34439 34444 1653 1591 34744 34749 1592
8 34439 34440 34445 34444 34744 34745 34750 34749
8 34440 34441 34446 34445 34745 34746 34751 34750
8 34441 34442 34447 34446 34746 34747 34752 34751
8 34442 34443 34448 34447 34747 34748 34753 34752
8 34443 7634 7633 34448 34748 7573 7572 34753
8 1653 34444 34449 1654 1592 34749 34754 1593
8 34444 34445 34450 34449 34749 34750 34755 34754
8 34445 34446 34451 34450 34750 34751 34756 34755
8 34446 34447 34452 34451 34751 34752 34757 34756
8 34447 34448 34453 34452 34752 34753 34758 34757
8 34448 7633 7632 34453 34753 7572 7571 34758
8 1654 34449 34454 1655 1593 34754 34759 1594
8 34449 34450 34455 34454 34754 34755 34760 34759
8 34450 34451 34456 34455 34755 34756 34761 34760
8 34451 34452 34457 34456 34756 34757 34762 34761
8 34452 34453 34458 34457 34757 34758 34763 34762
8 34453 7632 7631 34458 34758 7571 7570 34763
8 1655 34454 34459 1656 1594 34759 34764 1595
8 34454 34455 34460 34459 34759 34760 34765 34764
8 34455 34456 34461 34460 34760 34761 34766 34765
8 34456 34457 34462 34461 34761 34762 34767 34766
8 34457 34458 34463 34462 34762 34763 34768 34767
8 34458 7631 7630 34463 34763 7570 7569 34768
8 1656 34459 34464 1657 1595 34764 34769 1596
8 34459 34460 34465 34464 34764 34765 34770 34769
8 34460 34461 34466 34465 34765 34766 34771 34770
8 34461 34462 34467 34466 34766 34767 34772 34771
8 34462 34463 34468 34467 34767 34768 34773 34772
8 34463 7630 7629 34468 34768 7569 7568 34773
8 1657 34464 34469 1658 1596 34769 34774 1597
8 34464 34465 34470 34469 34769 34770 34775 34774
8 34465 34466 34471 34470 34770 34771 34776 34775
8 34466 34467 34472 34471 34771 34772 34777 34776
8 34467 34468 34473 34472 34772 34773 34778 34777
8 34468 7629 7628 34473 34773 7568 7567 34778
8 1658 34469 34474 1659 1597 34774 34779 1598
8 34469 34470 34475 34474 34774 34775 34780 34779
8 34470 34471 34476 34475 34775 34776 34781 34780
8 34471 34472 34477 34476 34776 34777 34782 34781
8 34472 34473 34478 34477 34777 34778 34783 34782
8 34473 7628 7627 34478 34778 7567 7566 34783
8 1659 34474 34479 1660 1598 34779 34784 1599
8 34474 34475 34480 34479 34779 34780 34785 34784
8 34475 34476 34481 34480 34780 34781 34786 34785
8 34476 34477 34482 34481 34781 34782 34787 34786
8 34477 34478 34483 34482 34782 34783 34788 34787
8 34478 7627 7626 34483 34783 7566 7565 34788
8 1660 34479 34484 1661 1599 34784 34789 1600
8 34479 34480 34485 34484 34784 34785 34790 34789
8 34480 34481 34486 34485 34785 34786 34791 34790
8 34481 34482 34487 34486 34786 34787 34792 34791
8 34482 34483 34488 34487 34787 34788 34793 34792
8 34483 7626 7625 34488 34788 7565 7564 34793
8 1661 34484 34489 1662 1600 34789 34794 1601
8 34484 34485 34490 34489 34789 34790 34795 34794
8 34485 34486 34491 34490 34790 34791 34796 34795
8 34486 34487 34492 34491 34791 34792 34797 34796
8 34487 34488 34493 34492 34792 34793 34798 34797
8 34488 7625 7624 34493 34793 7564 7563 34798
8 1662 34489 34494 1663 1601 34794 34799 1602
8 34489 34490 34495 34494 34794 34795 34800 34799
8 34490 34491 34496 34495 34795 34796 34801 34800
8 34491 34492 34497 34496 34796 34797 34802 34801
8 34492 34493 34498 34497 34797 34798 34803 34802
8 34493 7624 7623 34498 34798 7563 7562 34803
8 1663 34494 34499 1664 1602 34799 34804 1603
8 34494 34495 34500 34499 34799 34800 34805 34804
8 34495 34496 34501 34500 34800 34801 34806 34805
8 34496 34497 34502 34501 34801 34802 34807 34806
8 34497 34498 34503 34502 34802 34803 34808 34807
8 34498 7623 7622 34503 34803 7562 7561 34808
8 1664 34499 34504 1665 1603 34804 34809 1604
8 34499 34500 34505 34504 34804 34805 34810 34809
8 34500 34501 34506 34505 34805 34806 34811 34810
8 34501 34502 34507 34506 34806 34807 34812 34811
8 34502 34503 34508 34507 34807 34808 34813 34812
8 34503 7622 7621 34508 34808 7561 7560 34813
8 1665 34504 34509 1666 1604 34809 34814 1605
8 34504 34505 34510 34509 34809 34810 34815 34814
8 34505 34506 34511 34510 34810 34811 34816 34815
8 34506 34507 34512 34511 34811 34812 34817 34816
8 34507 34508 34513 34512 34812 34813 34818 34817
8 34508 7621 7620 34513 34813 7560 7559 34818
8 1666 34509 34514 1667 1605 34814 34819 1606
8 34509 34510 34515 34514 34814 34815 34820 34819
8 34510 34511 34516 34515 34815 34816 34821 34820
8 34511 34512 34517 34516 34816 34817 34822 34821
8 34512 34513 34518 34517 34817 34818 34823 34822
8 34513 7620 7619 34518 34818 7559 7558 34823
8 1667 34514 34519 1668 1606 34819 34824 1607
8 34514 34515 34520 34519 34819 34820 34825 34824
8 34515 34516 34521 34520 34820 34821 34826 34825
8 34516 34517 34522 34521 34821 34822 34827 34826
8 34517 34518 34523 34522 34822 34823 34828 34827
8 34518 7619 7618 34523 34823 7558 7557 34828
8 1668 34519 34524 1669 1607 34824 34829 1608
8 34519 34520 34525 34524 34824 34825 34830 34829
8 34520 34521 34526 34525 34825 34826 34831 34830
8 34521 34522 34527 34526 34826 34827 34832 34831
8 34522 34523 34528 34527 34827 34828 34833 34832
8 34523 7618 7617 34528 34828 7557 7556 34833
8 1669 34524 34529 1670 1608 34829 34834 1609
8 34524 34525 34530 34529 34829 34830 34835 34834
8 34525 34526 34531 34530 34830 34831 34836 34835
8 34526 34527 34532 34531 34831 34832 34837 34836
8 34527 34528 34533 34532 34832 34833 34838 34837
8 34528 7617 7616 34533 34833 7556 7555 34838
8 1670 34529 34534 1671 1609 34834 34839 1610
8 34529 34530 34535 34534 34834 34835 34840 34839
8 34530 34531 34536 34535 34835 34836 34841 34840
8 34531 34532 34537 34536 34836 34837 34842 34841
8 34532 34533 34538 34537 34837 34838 34843 34842
8 34533 7616 7615 34538 34838 7555 7554 34843
8 1671 34534 34539 1672 1610 34839 34844 1611
8 34534 34535 34540 34539 34839 34840 34845 34844
8 34535 34536 34541 34540 34840 34841 34846 34845
8 34536 34537 34542 34541 34841 34842 34847 34846
8 34537 34538 34543 34542 34842 34843 34848 34847
8 34538 7615 7614 34543 34843 7554 7553 34848
8 1672 34539 34544 1673 1611 34844 34849 1612
8 34539 34540 34545 34544 34844 34845 34850 34849
8 34540 34541 34546 34545 34845 34846 34851 34850
8 34541 34542 34547 34546 34846 34847 34852 34851
8 34542 34543 34548 34547 34847 34848 34853 34852
8 34543 7614 7613 34548 34848 7553 7552 34853
8 34544 34545 34550 34549 34849 34850 34855 34854
8 34545 34546 34551 34550 34850 34851 34856 34855
8 34546 34547 34552 34551 34851 34852 34857 34856
8 34547 34548 34553 34552 34852 34853 34858 34857
8 34548 7613 7612 34553 34853 7552 7551 34858
8 34549 34550 34555 34554 34854 34855 34860 34859
8 34550 34551 34556 34555 34855 34856 34861 34860
8 34551 34552 34557 34556 34856 34857 34862 34861
8 34552 34553 34558 34557 34857 34858 34863 34862
8 34553 7612 7611 34558 34858 7551 7550 34863
8 34554 34555 34560 34559 34859 34860 34865 34864
8 34555 34556 34561 34560 34860 34861 34866 34865
8 34556 34557 34562 34561 34861 34862 34867 34866
8 34557 34558 34563 34562 34862 34863 34868 34867
8 34558 7611 7610 34563 34863 7550 7549 34868
8 34559 34560 34565 34564 34864 34865 34870 34869
8 34560 34561 34566 34565 34865 34866 34871 34870
8 34561 34562 34567 34566 34866 34867 34872 34871
8 34562 34563 34568 34567 34867 34868 34873 34872
8 34563 7610 7609 34568 34868 7549 7548 34873
8 34564 34565 34570 34569 34869 34870 34875 34874
8 34565 34566 34571 34570 34870 34871 34876 34875
8 34566 34567 34572 34571 34871 34872 34877 34876
8 34567 34568 34573 34572 34872 34873 34878 34877
8 34568 7609 7608 34573 34873 7548 7547 34878
8 34569 34570 34575 34574 34874 34875 34880 34879
8 34570 34571 34576 34575 34875 34876 34881 34880
8 34571 34572 34577 34576 34876 34877 34882 34881
8 34572 34573 34578 34577 34877 34878 34883 34882
8 34573 7608 7607 34578 34878 7547 7546 34883
8 34574 34575 34580 34579 34879 34880 34885 34884
8 34575 34576 34581 34580 34880 34881 34886 34885
8 34576 34577 34582 34581 34881 34882 34887 34886
8 34577 34578 34583 34582 34882 34883 34888 34887
8 34578 7607 7606 34583 34883 7546 7545 34888
8 34579 34580 34585 34584 34884 34885 34890 34889
8 34580 34581 34586 34585 34885 34886 34891 34890
8 34581 34582 34587 34586 34886 34887 34892 34891
8 34582 34583 34588 34587 34887 34888 34893 34892
8 34583 7606 7605 34588 34888 7545 7544 34893
8 34584 34585 34590 34589 34889 34890 34895 34894
8 34585 34586 34591 34590 34890 34891 34896 34895
8 34586 34587 34592 34591 34891 34892 34897 34896
8 34587 34588 34593 34592 34892 34893 34898 34897
8 34588 7605 7604 34593 34893 7544 7543 34898
8 34589 34590 34595 34594 34894 34895 34900 34899
8 34590 34591 34596 34595 34895 34896 34901 34900
8 34591 34592 34597 34596 34896 34897 34902 34901
8 34592 34593 34598 34597 34897 34898 34903 34902
8 34593 7604 7603 34598 34898 7543 7542 34903
8 34594 34595 34600 34599 34899 34900 34905 34904
8 34595 34596 34601 34600 34900 34901 34906 34905
8 34596 34597 34602 34601 34901 34902 34907 34906
8 34597 34598 34603 34602 34902 34903 34908 34907
8 34598 7603 7602 34603 34903 7542 7541 34908
8 34599 34600 34605 34604 34904 34905 34910 34909
8 34600 34601 34606 34605 34905 34906 34911 34910
8 34601 34602 34607 34606 34906 34907 34912 34911
8 34602 34603 34608 34607 34907 34908 34913 34912
8 34603 7602 7601 34608 34908 7541 7540 34913
8 34604 34605 34610 34609 34909 34910 34915 34914
8 34605 34606 34611 34610 34910 34911 34916 34915
8 34606 34607 34612 34611 34911 34912 34917 34916
8 34607 34608 34613 34612 34912 34913 34918 34917
8 34608 7601 7600 34613 34913 7540 7539 34918
8 34609 34610 34615 34614 34914 34915 34920 34919
8 34610 34611 34616 34615 34915 34916 34921 34920
8 34611 34612 34617 34616 34916 34917 34922 34921
8 34612 34613 34618 34617 34917 34918 34923 34922
8 34613 7600 7599 34618 34918 7539 7538 34923
8 34614 34615 34620 34619 34919 34920 34925 34924
8 34615 34616 34621 34620 34920 34921 34926 34925
8 34616 34617 34622 34621 34921 34922 34927 34926
8 34617 34618 34623 34622 34922 34923 34928 34927
8 34618 7599 7598 34623 34923 7538 7537 34928
8 34619 34620 34625 34624 34924 34925 34930 34929
8 34620 34621 34626 34625 34925 34926 34931 34930
8 34621 34622 34627 34626 34926 34927 34932 34931
8 34622 34623 34628 34627 34927 34928 34933 34932
8 34623 7598 7597 34628 34928 7537 7536 34933
8 34624 34625 34630 34629 34929 34930 34935 34934
8 34625 34626 34631 34630 34930 34931 34936 34935
8 34626 34627 34632 34631 34931 34932 34937 34936
8 34627 34628 34633 34632 34932 34933 34938 34937
8 34628 7597 7596 34633 34933 7536 7535 34938
8 34629 34630 34635 34634 34934 34935 34940 34939
8 34630 34631 34636 34635 34935 34936 34941 34940
8 34631 34632 34637 34636 34936 34937 34942 34941
8 34632 34633 34638 34637 34937 34938 34943 34942
8 34633 7596 7595 34638 34938 7535 7534 34943
8 34634 34635 34640 34639 34939 34940 34945 34944
8 34635 34636 34641 34640 34940 34941 34946 34945
8 34636 34637 34642 34641 34941 34942 34947 34946
8 34637 34638 34643 34642 34942 34943 34948 34947
8 34638 7595 7594 34643 34943 7534 7533 34948
8 34639 34640 34645 34644 34944 34945 34950 34949
8 34640 34641 34646 34645 34945 34946 34951 34950
8 34641 34642 34647 34646 34946 34947 34952 34951
8 34642 34643 34648 34647 34947 34948 34953 34952
8 34643 7594 7593 34648 34948 7533 7532 34953
8 34644 34645 34650 34649 34949 34950 34955 34954
8 34645 34646 34651 34650 34950 34951 34956 34955
8 34646 34647 34652 34651 34951 34952 34957 34956
8 34647 34648 34653 34652 34952 34953 34958 34957
8 34648 7593 7592 34653 34953 7532 7531 34958
8 34649 34650 34655 34654 34954 34955 34960 34959
8 34650 34651 34656 34655 34955 34956 34961 34960
8 34651 34652 34657 34656 34956 34957 34962 34961
8 34652 34653 34658 34657 34957 34958 34963 34962
8 34653 7592 7591 34658 34958 7531 7530 34963
8 34654 34655 34660 34659 34959 34960 34965 34964
8 34655 34656 34661 34660 34960 34961 34966 34965
8 34656 34657 34662 34661 34961 34962 34967 34966
8 34657 34658 34663 34662 34962 34963 34968 34967
8 34658 7591 7590 34663 34963 7530 7529 34968
8 34659 34660 34665 34664 34964 34965 34970 34969
8 34660 34661 34666 34665 34965 34966 34971 34970
8 34661 34662 34667 34666 34966 34967 34972 34971
8 34662 34663 34668 34667 34967 34968 34973 34972
8 34663 7590 7589 34668 34968 7529 7528 34973
8 34664 34665 34670 34669 34969 34970 34975 34974
8 34665 34666 34671 34670 34970 34971 34976 34975
8 34666 34667 34672 34671 34971 34972 34977 34976
8 34667 34668 34673 34672 34972 34973 34978 34977
8 34668 7589 7588 34673 34973 7528 7527 34978
8 34669 34670 34675 34674 34974 34975 34980 34979
8 34670 34671 34676 34675 34975 34976 34981 34980
8 34671 34672 34677 34676 34976 34977 34982 34981
8 34672 34673 34678 34677 34977 34978 34983 34982
8 34673 7588 7587 34678 34978 7527 7526 34983
8 34674 34675 34680 34679 34979 34980 34985 34984
8 34675 34676 34681 34680 34980 34981 34986 34985
8 34676 34677 34682 34681 34981 34982 34987 34986
8 34677 34678 34683 34682 34982 34983 34988 34987
8 34678 7587 7586 34683 34983 7526 7525 34988
8 34679 34680 34685 34684 34984 34985 34990 34989
8 34680 34681 34686 34685 34985 34986 34991 34990
8 34681 34682 34687 34686 34986 34987 34992 34991
8 34682 34683 34688 34687 34987 34988 34993 34992
8 34683 7586 7585 34688 34988 7525 7524 34993
8 34684 34685 34690 34689 34989 34990 34995 34994
8 34685 34686 34691 34690 34990 34991 34996 34995
8 34686 34687 34692 34691 34991 34992 34997 34996
8 34687 34688 34693 34692 34992 34993 34998 34997
8 34688 7585 7584 34693 34993 7524 7523 34998
8 34689 34690 34695 34694 34994 34995 35000 34999
8 34690 34691 34696 34695 34995 34996 35001 35000
8 34691 34692 34697 34696 34996 34997 35002 35001
8 34692 34693 34698 34697 34997 34998 35003 35002
8 34693 7584 7583 34698 34998 7523 7522 35003
8 1703 34694 34699 1704 1642 34999 35004 1643
8 34694 34695 34700 34699 34999 35000 35005 35004
8 34695 34696 34701 34700 35000 35001 35006 35005
8 34696 34697 34702 34701 35001 35002 35007 35006
8 34697 34698 34703 34702 35002 35003 35008 35007
8 34698 7583 7582 34703 35003 7522 7521 35008
8 1704 34699 34704 1705 1643 35004 35009 1644
8 34699 34700 34705 34704 35004 35005 35010 35009
8 34700 34701 34706 34705 35005 35006 35011 35010
8 34701 34702 34707 34706 35006 35007 35012 35011
8 34702 34703 34708 34707 35007 35008 35013 35012
8 34703 7582 7581 34708 35008 7521 7520 35013
8 1705 34704 34709 1706 1644 35009 35014 1645
8 34704 34705 34710 34709 35009 35010 35015 35014
8 34705 34706 34711 34710 35010 35011 35016 35015
8 34706 34707 34712 34711 35011 35012 35017 35016
8 34707 34708 34713 34712 35012 35013 35018 35017
8 34708 7581 7580 34713 35013 7520 7519 35018
8 1706 34709 34714 1707 1645 35014 35019 1646
8 34709 34710 34715 34714 35014 35015 35020 35019
8 34710 34711 34716 34715 35015 35016 35021 35020
8 34711 34712 34717 34716 35016 35017 35022 35021
8 34712 34713 34718 34717 35017 35018 35023 35022
8 34713 7580 7579 34718 35018 7519 7518 35023
8 1707 34714 34719 1708 1646 35019 35024 1647
8 34714 34715 34720 34719 35019 35020 35025 35024
8 34715 34716 34721 34720 35020 35021 35026 35025
8 34716 34717 34722 34721 35021 35022 35027 35026
8 34717 34718 34723 34722 35022 35023 35028 35027
8 34718 7579 7578 34723 35023 7518 7517 35028
8 1708 34719 34724 1709 1647 35024 35029 1648
8 34719 34720 34725 34724 35024 35025 35030 35029
8 34720 34721 34726 34725 35025 35026 35031 35030
8 34721 34722 34727 34726 35026 35027 35032 35031
8 34722 34723 34728 34727 35027 35028 35033 35032
8 34723 7578 7577 34728 35028 7517 7516 35033
8 1709 34724 34729 1710 1648 35029 35034 1649
8 34724 34725 34730 34729 35029 35030 35035 35034
8 34725 34726 34731 34730 35030 35031 35036 35035
8 34726 34727 34732 34731 35031 35032 35037 35036
8 34727 34728 34733 34732 35032 35033 35038 35037
8 34728 7577 7576 34733 35033 7516 7515 35038
8 1710 34729 34734 1711 1649 35034 35039 1650
8 34729 34730 34735 34734 35034 35035 35040 35039
8 34730 34731 34736 34735 35035 35036 35041 35040
8 34731 34732 34737 34736 35036 35037 35042 35041
8 34732 34733 34738 34737 35037 35038 35043 35042
8 34733 7576 7575 34738 35038 7515 7514 35043
8 1711 34734 34739 1712 1650 35039 35044 1651
8 34734 34735 34740 34739 35039 35040 35045 35044
8 34735 34736 34741 34740 35040 35041 35046 35045
8 34736 34737 34742 34741 35041 35042 35047 35046
8 34737 34738 34743 34742 35042 35043 35048 35047
8 34738 7575 7574 34743 35043 7514 7513 35048
8 1712 34739 12739 86 1651 35044 12734 85
8 34739 34740 12740 12739 35044 35045 12735 12734
8 34740 34741 12741 12740 35045 35046 12736 12735
8 34741 34742 12742 12741 35046 35047 12737 12736
8 34742 34743 12743 12742 35047 35048 12738 12737
8 34743 7574 6209 12743 35048 7513 6210 12738
8 288 12204 34744 1591 289 12209 35049 1530
8 12204 12205 34745 34744 12209 12210 35050 35049
8 12205 12206 34746 34745 12210 12211 35051 35050
8 12206 12207 34747 34746 12211 12212 35052 35051
8 12207 12208 34748 34747 12212 12213 35053 35052
8 12208 6007 7573 34748 12213 6006 7512 35053
8 1591 34744 34749 1592 1530 35049 35054 1531
8 34744 34745 34750 34749 35049 35050 35055 35054
8 34745 34746 34751 34750 35050 35051 35056 35055
8 34746 34747 34752 34751 35051 35052 35057 35056
8 34747 34748 34753 34752 35052 35053 35058 35057
8 34748 7573 7572 34753 35053 7512 7511 35058
8 1592 34749 34754 1593 1531 35054 35059 1532
8 34749 34750 34755 34754 35054 35055 35060 35059
8 34750 34751 34756 34755 35055 35056 35061 35060
8 34751 34752 34757 34756 35056 35057 35062 35061
8 34752 34753 34758 34757 35057 35058 35063 35062
8 34753 7572 7571 34758 35058 7511 7510 35063
8 1593 34754 34759 1594 1532 35059 35064 1533
8 34754 34755 34760 34759 35059 35060 35065 35064
8 34755 34756 34761 34760 35060 35061 35066 35065
8 34756 34757 34762 34761 35061 35062 35067 35066
8 34757 34758 34763 34762 35062 35063 35068 35067
8 34758 7571 7570 34763 35063 7510 7509 35068
8 1594 34759 34764 1595 1533 35064 35069 1534
8 34759 34760 34765 34764 35064 35065 35070 35069
8 34760 34761 34766 34765 35065 35066 35071 35070
8 34761 34762 34767 34766 35066 35067 35072 35071
8 34762 34763 34768 34767 35067 35068 35073 35072
8 34763 7570 7569 34768 35068 7509 7508 35073
8 1595 34764 34769 1596 1534 35069 35074 1535
8 34764 34765 34770 34769 35069 35070 35075 35074
8 34765 34766 34771 34770 35070 35071 35076 35075
8 34766 34767 34772 34771 35071 35072 35077 35076
8 34767 34768 34773 34772 35072 35073 35078 35077
8 34768 7569 7568 34773 35073 7508 7507 35078
8 1596 34769 34774 1597 1535 35074 35079 1536
8 34769 34770 34775 34774 35074 35075 35080 35079
8 34770 34771 34776 34775 35075 35076 35081 35080
8 34771 34772 34777 34776 35076 35077 35082 35081
8 34772 34773 34778 34777 35077 35078 35083 35082
8 34773 7568 7567 34778 35078 7507 7506 35083
8 1597 34774 34779 1598 1536 35079 35084 1537
8 34774 34775 34780 34779 35079 35080 35085 35084
8 34775 34776 34781 34780 35080 35081 35086 35085
8 34776 34777 34782 34781 35081 35082 35087 35086
8 34777 34778 34783 34782 35082 35083 35088 35087
8 34778 7567 7566 34783 35083 7506 7505 35088
8 1598 34779 34784 1599 1537 35084 35089 1538
8 34779 34780 34785 34784 35084 35085 35090 35089
8 34780 34781 34786 34785 35085 35086 35091 35090
8 34781 34782 34787 34786 35086 35087 35092 35091
8 34782 34783 34788 34787 35087 35088 35093 35092
8 34783 7566 7565 34788 35088 7505 7504 35093
8 1599 34784 34789 1600 1538 35089 35094 1539
8 34784 34785 34790 34789 35089 35090 35095 35094
8 34785 34786 34791 34790 35090 35091 35096 35095
8 34786 34787 34792 34791 35091 35092 35097 35096
8 34787 34788 34793 34792 35092 35093 35098 35097
8 34788 7565 7564 34793 35093 7504 7503 35098
8 1600 34789 34794 1601 1539 35094 35099 1540
8 34789 34790 34795 34794 35094 35095 35100 35099
8 34790 34791 34796 34795 35095 35096 35101 35100
8 34791 34792 34797 34796 35096 35097 35102 35101
8 34792 34793 34798 34797 35097 35098 35103 35102
8 34793 7564 7563 34798 35098 7503 7502 35103
8 1601 34794 34799 1602 1540 35099 35104 1541
8 34794 34795 34800 34799 35099 35100 35105 35104
8 34795 34796 34801 34800 35100 35101 35106 35105
8 34796 34797 34802 34801 35101 35102 35107 35106
8 34797 34798 34803 34802 35102 35103 35108 35107
8 34798 7563 7562 34803 35103 7502 7501 35108
8 1602 34799 34804 1603 1541 35104 35109 1542
8 34799 34800 34805 34804 35104 35105 35110 35109
8 34800 34801 34806 34805 35105 35106 35111 35110
8 34801 34802 34807 34806 35106 35107 35112 35111
8 34802 34803 34808 34807 35107 35108 35113 35112
8 34803 7562 7561 34808 35108 7501 7500 35113
8 1603 34804 34809 1604 1542 35109 35114 1543
8 34804 34805 34810 34809 35109 35110 35115 35114
8 34805 34806 34811 34810 35110 35111 35116 35115
8 34806 34807 34812 34811 35111 35112 35117 35116
8 34807 34808 34813 34812 35112 35113 35118 35117
8 34808 7561 7560 34813 35113 7500 7499 35118
8 1604 34809 34814 1605 1543 35114 35119 1544
8 34809 34810 34815 34814 35114 35115 35120 35119
8 34810 34811 34816 34815 35115 35116 35121 35120
8 34811 34812 34817 34816 35116 35117 35122 35121
8 34812 34813 34818 34817 35117 35118 35123 35122
8 34813 7560 7559 34818 35118 7499 7498 35123
8 1605 34814 34819 1606 1544 35119 35124 1545
8 34814 34815 34820 34819 35119 35120 35125 35124
8 34815 34816 34821 34820 35120 35121 35126 35125
8 34816 34817 34822 34821 35121 35122 35127 35126
8 34817 34818 34823 34822 35122 35123 35128 35127
8 34818 7559 7558 34823 35123 7498 7497 35128
8 1606 34819 34824 1607 1545 35124 35129 1546
8 34819 34820 34825 34824 35124 35125 35130 35129
8 34820 34821 34826 34825 35125 35126 35131 35130
8 34821 34822 34827 34826 35126 35127 35132 35131
8 34822 34823 34828 34827 35127 35128 35133 35132
8 34823 7558 7557 34828 35128 7497 7496 35133
8 1607 34824 34829 1608 1546 35129 35134 1547
8 34824 34825 34830 34829 35129 35130 35135 35134
8 34825 34826 34831 34830 35130 35131 35136 35135
8 34826 34827 34832 34831 35131 35132 35137 35136
8 34827 34828 34833 34832 35132 35133 35138 35137
8 34828 7557 7556 34833 35133 7496 7495 35138
8 1608 34829 34834 1609 1547 35134 35139 1548
8 34829 34830 34835 34834 35134 35135 35140 35139
8 34830 34831 34836 34835 35135 35136 35141 35140
8 34831 34832 34837 34836 35136 35137 35142 35141
8 34832 34833 34838 34837 35137 35138 35143 35142
8 34833 7556 7555 34838 35138 7495 7494 35143
8 1609 34834 34839 1610 1548 35139 35144 1549
8 34834 34835 34840 34839 35139 35140 35145 35144
8 34835 34836 34841 34840 35140 35141 35146 35145
8 34836 34837 34842 34841 35141 35142 35147 35146
8 34837 34838 34843 34842 35142 35143 35148 35147
8 34838 7555 7554 34843 35143 7494 7493 35148
8 1610 34839 34844 1611 1549 35144 35149 1550
8 34839 34840 34845 34844 35144 35145 35150 35149
8 34840 34841 34846 34845 35145 35146 35151 35150
8 34841 34842 34847 34846 35146 35147 35152 35151
8 34842 34843 34848 34847 35147 35148 35153 35152
8 34843 7554 7553 34848 35148 7493 7492 35153
8 1611 34844 34849 1612 1550 35149 35154 1551
8 34844 34845 34850 34849 35149 35150 35155 35154
8 34845 34846 34851 34850 35150 35151 35156 35155
8 34846 34847 34852 34851 35151 35152 35157 35156
8 34847 34848 34853 34852 35152 35153 35158 35157
8 34848 7553 7552 34853 35153 7492 7491 35158
8 34849 34850 34855 34854 35154 35155 35160 35159
8 34850 34851 34856 34855 35155 35156 35161 35160
8 34851 34852 34857 34856 35156 35157 35162 35161
8 34852 34853 34858 34857 35157 35158 35163 35162
8 34853 7552 7551 34858 35158 7491 7490 35163
8 34854 34855 34860 34859 35159 35160 35165 35164
8 34855 34856 34861 34860 35160 35161 35166 35165
8 34856 34857 34862 34861 35161 35162 35167 35166
8 34857 34858 34863 34862 35162 35163 35168 35167
8 34858 7551 7550 34863 35163 7490 7489 35168
8 34859 34860 34865 34864 35164 35165 35170 35169
8 34860 34861 34866 34865 35165 35166 35171 35170
8 34861 34862 34867 34866 35166 35167 35172 35171
8 34862 34863 34868 34867 35167 35168 35173 35172
8 34863 7550 7549 34868 35168 7489 7488 35173
8 34864 34865 34870 34869 35169 35170 35175 35174
8 34865 34866 34871 34870 35170 35171 35176 35175
8 34866 34867 34872 34871 35171 35172 35177 35176
8 34867 34868 34873 34872 35172 35173 35178 35177
8 34868 7549 7548 34873 35173 7488 7487 35178
8 34869 34870 34875 34874 35174 35175 35180 35179
8 34870 34871 34876 34875 35175 35176 35181 35180
8 34871 34872 34877 34876 35176 35177 35182 35181
8 34872 34873 34878 34877 35177 35178 35183 35182
8 34873 7548 7547 34878 35178 7487 7486 35183
8 1617 34874 34879 1618 1556 35179 35184 1557
8 34874 34875 34880 34879 35179 35180 35185 35184
8 34875 34876 34881 34880 35180 35181 35186 35185
8 34876 34877 34882 34881 35181 35182 35187 35186
8 34877 34878 34883 34882 35182 35183 35188 35187
8 34878 7547 7546 34883 35183 7486 7485 35188
8 1618 34879 34884 1619 1557 35184 35189 1558
8 34879 34880 34885 34884 35184 35185 35190 35189
8 34880 34881 34886 34885 35185 35186 35191 35190
8 34881 34882 34887 34886 35186 35187 35192 35191
8 34882 34883 34888 34887 35187 35188 35193 35192
8 34883 7546 7545 34888 35188 7485 7484 35193
8 1619 34884 34889 1620 1558 35189 35194 1559
8 34884 34885 34890 34889 35189 35190 35195 35194
8 34885 34886 34891 34890 35190 35191 35196 35195
8 34886 34887 34892 34891 35191 35192 35197 35196
8 34887 34888 34893 34892 35192 35193 35198 35197
8 34888 7545 7544 34893 35193 7484 7483 35198
8 1620 34889 34894 1621 1559 35194 35199 1560
8 34889 34890 34895 34894 35194 35195 35200 35199
8 34890 34891 34896 34895 35195 35196 35201 35200
8 34891 34892 34897 34896 35196 35197 35202 35201
8 34892 34893 34898 34897 35197 35198 35203 35202
8 34893 7544 7543 34898 35198 7483 7482 35203
8 1621 34894 34899 1622 1560 35199 35204 1561
8 34894 34895 34900 34899 35199 35200 35205 35204
8 34895 34896 34901 34900 35200 35201 35206 35205
8 34896 34897 34902 34901 35201 35202 35207 35206
8 34897 34898 34903 34902 35202 35203 35208 35207
8 34898 7543 7542 34903 35203 7482 7481 35208
8 1622 34899 34904 1623 1561 35204 35209 1562
8 34899 34900 34905 34904 35204 35205 35210 35209
8 34900 34901 34906 34905 35205 35206 35211 35210
8 34901 34902 34907 34906 35206 35207 35212 35211
8 34902 34903 34908 34907 35207 35208 35213 35212
8 34903 7542 7541 34908 35208 7481 7480 35213
8 1623 34904 34909 1624 1562 35209 35214 1563
8 34904 34905 34910 34909 35209 35210 35215 35214
8 34905 34906 34911 34910 35210 35211 35216 35215
8 34906 34907 34912 34911 35211 35212 35217 35216
8 34907 34908 34913 34912 35212 35213 35218 35217
8 34908 7541 7540 34913 35213 7480 7479 35218
8 1624 34909 34914 1625 1563 35214 35219 1564
8 34909 34910 34915 34914 35214 35215 35220 35219
8 34910 34911 34916 34915 35215 35216 35221 35220
8 34911 34912 34917 34916 35216 35217 35222 35221
8 34912 34913 34918 34917 35217 35218 35223 35222
8 34913 7540 7539 34918 35218 7479 7478 35223
8 1625 34914 34919 1626 1564 35219 35224 1565
8 34914 34915 34920 34919 35219 35220 35225 35224
8 34915 34916 34921 34920 35220 35221 35226 35225
8 34916 34917 34922 34921 35221 35222 35227 35226
8 34917 34918 34923 34922 35222 35223 35228 35227
8 34918 7539 7538 34923 35223 7478 7477 35228
8 1626 34919 34924 1627 1565 35224 35229 1566
8 34919 34920 34925 34924 35224 35225 35230 35229
8 34920 34921 34926 34925 35225 35226 35231 35230
8 34921 34922 34927 34926 35226 35227 35232 35231
8 34922 34923 34928 34927 35227 35228 35233 35232
8 34923 7538 7537 34928 35228 7477 7476 35233
8 1627 34924 34929 1628 1566 35229 35234 1567
8 34924 34925 34930 34929 35229 35230 35235 35234
8 34925 34926 34931 34930 35230 35231 35236 35235
8 34926 34927 34932 34931 35231 35232 35237 35236
8 34927 34928 34933 34932 35232 35233 35238 35237
8 34928 7537 7536 34933 35233 7476 7475 35238
8 1628 34929 34934 1629 1567 35234 35239 1568
8 34929 34930 34935 34934 35234 35235 35240 35239
8 34930 34931 34936 34935 35235 35236 35241 35240
8 34931 34932 34937 34936 35236 35237 35242 35241
8 34932 34933 34938 34937 35237 35238 35243 35242
8 34933 7536 7535 34938 35238 7475 7474 35243
8 1629 34934 34939 1630 1568 35239 35244 1569
8 34934 34935 34940 34939 35239 35240 35245 35244
8 34935 34936 34941 34940 35240 35241 35246 35245
8 34936 34937 34942 34941 35241 35242 35247 35246
8 34937 34938 34943 34942 35242 35243 35248 35247
8 34938 7535 7534 34943 35243 7474 7473 35248
8 1630 34939 34944 1631 1569 35244 35249 1570
8 34939 34940 34945 34944 35244 35245 35250 35249
8 34940 34941 34946 34945 35245 35246 35251 35250
8 34941 34942 34947 34946 35246 35247 35252 35251
8 34942 34943 34948 34947 35247 35248 35253 35252
8 34943 7534 7533 34948 35248 7473 7472 35253
8 1631 34944 34949 1632 1570 35249 35254 1571
8 34944 34945 34950 34949 35249 35250 35255 35254
8 34945 34946 34951 34950 35250 35251 35256 35255
8 34946 34947 34952 34951 35251 35252 35257 35256
8 34947 34948 34953 34952 35252 35253 35258 35257
8 34948 7533 7532 34953 35253 7472 7471 35258
8 1632 34949 34954 1633 1571 35254 35259 1572
8 34949 34950 34955 34954 35254 35255 35260 35259
8 34950 34951 34956 34955 35255 35256 35261 35260
8 34951 34952 34957 34956 35256 35257 35262 35261
8 34952 34953 34958 34957 35257 35258 35263 35262
8 34953 7532 7531 34958 35258 7471 7470 35263
8 1633 34954 34959 1634 1572 35259 35264 1573
8 34954 34955 34960 34959 35259 35260 35265 35264
8 34955 34956 34961 34960 35260 35261 35266 35265
8 34956 34957 34962 34961 35261 35262 35267 35266
8 34957 34958 34963 34962 35262 35263 35268 35267
8 34958 7531 7530 34963 35263 7470 7469 35268
8 1634 34959 34964 1635 1573 35264 35269 1574
8 34959 34960 34965 34964 35264 35265 35270 35269
8 34960 34961 34966 34965 35265 35266 35271 35270
8 34961 34962 34967 34966 35266 35267 35272 35271
8 34962 34963 34968 34967 35267 35268 35273 35272
8 34963 7530 7529 34968 35268 7469 7468 35273
8 1635 34964 34969 1636 1574 35269 35274 1575
8 34964 34965 34970 34969 35269 35270 35275 35274
8 34965 34966 34971 34970 35270 35271 35276 35275
8 34966 34967 34972 34971 35271 35272 35277 35276
8 34967 34968 34973 34972 35272 35273 35278 35277
8 34968 7529 7528 34973 35273 7468 7467 35278
8 1636 34969 34974 1637 1575 35274 35279 1576
8 34969 34970 34975 34974 35274 35275 35280 35279
8 34970 34971 34976 34975 35275 35276 35281 35280
8 34971 34972 34977 34976 35276 35277 35282 35281
8 34972 34973 34978 34977 35277 35278 35283 35282
8 34973 7528 7527 34978 35278 7467 7466 35283
8 34974 34975 34980 34979 35279 35280 35285 35284
8 34975 34976 34981 34980 35280 35281 35286 35285
8 34976 34977 34982 34981 35281 35282 35287 35286
8 34977 34978 34983 34982 35282 35283 35288 35287
8 34978 7527 7526 34983 35283 7466 7465 35288
8 34979 34980 34985 34984 35284 35285 35290 35289
8 34980 34981 34986 34985 35285 35286 35291 35290
8 34981 34982 34987 34986 35286 35287 35292 35291
8 34982 34983 34988 34987 35287 35288 35293 35292
8 34983 7526 7525 34988 35288 7465 7464 35293
8 34984 34985 34990 34989 35289 35290 35295 35294
8 34985 34986 34991 34990 35290 35291 35296 35295
8 34986 34987 34992 34991 35291 35292 35297 35296
8 34987 34988 34993 34992 35292 35293 35298 35297
8 34988 7525 7524 34993 35293 7464 7463 35298
8 34989 34990 34995 34994 35294 35295 35300 35299
8 34990 34991 34996 34995 35295 35296 35301 35300
8 34991 34992 34997 34996 35296 35297 35302 35301
8 34992 34993 34998 34997 35297 35298 35303 35302
8 34993 7524 7523 34998 35298 7463 7462 35303
8 34994 34995 35000 34999 35299 35300 35305 35304
8 34995 34996 35001 35000 35300 35301 35306 35305
8 34996 34997 35002 35001 35301 35302 35307 35306
8 34997 34998 35003 35002 35302 35303 35308 35307
8 34998 7523 7522 35003 35303 7462 7461 35308
8 1642 34999 35004 1643 1581 35304 35309 1582
8 34999 35000 35005 35004 35304 35305 35310 35309
8 35000 35001 35006 35005 35305 35306 35311 35310
8 35001 35002 35007 35006 35306 35307 35312 35311
8 35002 35003 35008 35007 35307 35308 35313 35312
8 35003 7522 7521 35008 35308 7461 7460 35313
8 1643 35004 35009 1644 1582 35309 35314 1583
8 35004 35005 35010 35009 35309 35310 35315 35314
8 35005 35006 35011 35010 35310 35311 35316 35315
8 35006 35007 35012 35011 35311 35312 35317 35316
8 35007 35008 35013 35012 35312 35313 35318 35317
8 35008 7521 7520 35013 35313 7460 7459 35318
8 1644 35009 35014 1645 1583 35314 35319 1584
8 35009 35010 35015 35014 35314 35315 35320 35319
8 35010 35011 35016 35015 35315 35316 35321 35320
8 35011 35012 35017 35016 35316 35317 35322 35321
8 35012 35013 35018 35017 35317 35318 35323 35322
8 35013 7520 7519 35018 35318 7459 7458 35323
8 1645 35014 35019 1646 1584 35319 35324 1585
8 35014 35015 35020 35019 35319 35320 35325 35324
8 35015 35016 35021 35020 35320 35321 35326 35325
8 35016 35017 35022 35021 35321 35322 35327 35326
8 35017 35018 35023 35022 35322 35323 35328 35327
8 35018 7519 7518 35023 35323 7458 7457 35328
8 1646 35019 35024 1647 1585 35324 35329 1586
8 35019 35020 35025 35024 35324 35325 35330 35329
8 35020 35021 35026 35025 35325 35326 35331 35330
8 35021 35022 35027 35026 35326 35327 35332 35331
8 35022 35023 35028 35027 35327 35328 35333 35332
8 35023 7518 7517 35028 35328 7457 7456 35333
8 1647 35024 35029 1648 1586 35329 35334 1587
8 35024 35025 35030 35029 35329 35330 35335 35334
8 35025 35026 35031 35030 35330 35331 35336 35335
8 35026 35027 35032 35031 35331 35332 35337 35336
8 35027 35028 35033 35032 35332 35333 35338 35337
8 35028 7517 7516 35033 35333 7456 7455 35338
8 1648 35029 35034 1649 1587 35334 35339 1588
8 35029 35030 35035 35034 35334 35335 35340 35339
8 35030 35031 35036 35035 35335 35336 35341 35340
8 35031 35032 35037 35036 35336 35337 35342 35341
8 35032 35033 35038 35037 35337 35338 35343 35342
8 35033 7516 7515 35038 35338 7455 7454 35343
8 1649 35034 35039 1650 1588 35339 35344 1589
8 35034 35035 35040 35039 35339 35340 35345 35344
8 35035 35036 35041 35040 35340 35341 35346 35345
8 35036 35037 35042 35041 35341 35342 35347 35346
8 35037 35038 35043 35042 35342 35343 35348 35347
8 35038 7515 7514 35043 35343 7454 7453 35348
8 1650 35039 35044 1651 1589 35344 35349 1590
8 35039 35040 35045 35044 35344 35345 35350 35349
8 35040 35041 35046 35045 35345 35346 35351 35350
8 35041 35042 35047 35046 35346 35347 35352 35351
8 35042 35043 35048 35047 35347 35348 35353 35352
8 35043 7514 7513 35048 35348 7453 7452 35353
8 1651 35044 12734 85 1590 35349 12729 84
8 35044 35045 12735 12734 35349 35350 12730 12729
8 35045 35046 12736 12735 35350 35351 12731 12730
8 35046 35047 12737 12736 35351 35352 12732 12731
8 35047 35048 12738 12737 35352 35353 12733 12732
8 35048 7513 6210 12738 35353 7452 6211 12733
8 289 12209 35049 1530 290 12214 35354 1469
8 12209 12210 35050 35049 12214 12215 35355 35354
8 12210 12211 35051 35050 12215 12216 35356 35355
8 12211 12212 35052 35051 12216 12217 35357 35356
8 12212 12213 35053 35052 12217 12218 35358 35357
8 12213 6006 7512 35053 12218 6005 7451 35358
8 1530 35049 35054 1531 1469 35354 35359 1470
8 35049 35050 35055 35054 35354 35355 35360 35359
8 35050 35051 35056 35055 35355 35356 35361 35360
8 35051 35052 35057 35056 35356 35357 35362 35361
8 35052 35053 35058 35057 35357 35358 35363 35362
8 35053 7512 7511 35058 35358 7451 7450 35363
8 1531 35054 35059 1532 1470 35359 35364 1471
8 35054 35055 35060 35059 35359 35360 35365 35364
8 35055 35056 35061 35060 35360 35361 35366 35365
8 35056 35057 35062 35061 35361 35362 35367 35366
8 35057 35058 35063 35062 35362 35363 35368 35367
8 35058 7511 7510 35063 35363 7450 7449 35368
8 1532 35059 35064 1533 1471 35364 35369 1472
8 35059 35060 35065 35064 35364 35365 35370 35369
8 35060 35061 35066 35065 35365 35366 35371 35370
8 35061 35062 35067 35066 35366 35367 35372 35371
8 35062 35063 35068 35067 35367 35368 35373 35372
8 35063 7510 7509 35068 35368 7449 7448 35373
8 1533 35064 35069 1534 1472 35369 35374 1473
8 35064 35065 35070 35069 35369 35370 35375 35374
8 35065 35066 35071 35070 35370 35371 35376 35375
8 35066 35067 35072 35071 35371 35372 35377 35376
8 35067 35068 35073 35072 35372 35373 35378 35377
8 35068 7509 7508 35073 35373 7448 7447 35378
8 1534 35069 35074 1535 1473 35374 35379 1474
8 35069 35070 35075 35074 35374 35375 35380 35379
8 35070 35071 35076 35075 35375 35376 35381 35380
8 35071 35072 35077 35076 35376 35377 35382 35381
8 35072 35073 35078 35077 35377 35378 35383 35382
8 35073 7508 7507 35078 35378 7447 7446 35383
8 1535 35074 35079 1536 1474 35379 35384 1475
8 35074 35075 35080 35079 35379 35380 35385 35384
8 35075 35076 35081 35080 35380 35381 35386 35385
8 35076 35077 35082 35081 35381 35382 35387 35386
8 35077 35078 35083 35082 35382 35383 35388 35387
8 35078 7507 7506 35083 35383 7446 7445 35388
8 1536 35079 35084 1537 1475 35384 35389 1476
8 35079 35080 35085 35084 35384 35385 35390 35389
8 35080 35081 35086 35085 35385 35386 35391 35390
8 35081 35082 35087 35086 35386 35387 35392 35391
8 35082 35083 35088 35087 35387 35388 35393 35392
8 35083 7506 7505 35088 35388 7445 7444 35393
8 1537 35084 35089 1538 1476 35389 35394 1477
8 35084 35085 35090 35089 35389 35390 35395 35394
8 35085 35086 35091 35090 35390 35391 35396 35395
8 35086 35087 35092 35091 35391 35392 35397 35396
8 35087 35088 35093 35092 35392 35393 35398 35397
8 35088 7505 7504 35093 35393 7444 7443 35398
8 1538 35089 35094 1539 1477 35394 35399 1478
8 35089 35090 35095 35094 35394 35395 35400 35399
8 35090 35091 35096 35095 35395 35396 35401 35400
8 35091 35092 35097 35096 35396 35397 35402 35401
8 35092 35093 35098 35097 35397 35398 35403 35402
8 35093 7504 7503 35098 35398 7443 7442 35403
8 1539 35094 35099 1540 1478 35399 35404 1479
8 35094 35095 35100 35099 35399 35400 35405 35404
8 35095 35096 35101 35100 35400 35401 35406 35405
8 35096 35097 35102 35101 35401 35402 35407 35406
8 35097 35098 35103 35102 35402 35403 35408 35407
8 35098 7503 7502 35103 35403 7442 7441 35408
8 1540 35099 35104 1541 1479 35404 35409 1480
8 35099 35100 35105 35104 35404 35405 35410 35409
8 35100 35101 35106 35105 35405 35406 35411 35410
8 35101 35102 35107 35106 35406 35407 35412 35411
8 35102 35103 35108 35107 35407 35408 35413 35412
8 35103 7502 7501 35108 35408 7441 7440 35413
8 1541 35104 35109 1542 1480 35409 35414 1481
8 35104 35105 35110 35109 35409 35410 35415 35414
8 35105 35106 35111 35110 35410 35411 35416 35415
8 35106 35107 35112 35111 35411 35412 35417 35416
8 35107 35108 35113 35112 35412 35413 35418 35417
8 35108 7501 7500 35113 35413 7440 7439 35418
8 1542 35109 35114 1543 1481 35414 35419 1482
8 35109 35110 35115 35114 35414 35415 35420 35419
8 35110 35111 35116 35115 35415 35416 35421 35420
8 35111 35112 35117 35116 35416 35417 35422 35421
8 35112 35113 35118 35117 35417 35418 35423 35422
8 35113 7500 7499 35118 35418 7439 7438 35423
8 1543 35114 35119 1544 1482 35419 35424 1483
8 35114 35115 35120 35119 35419 35420 35425 35424
8 35115 35116 35121 35120 35420 35421 35426 35425
8 35116 35117 35122 35121 35421 35422 35427 35426
8 35117 35118 35123 35122 35422 35423 35428 35427
8 35118 7499 7498 35123 35423 7438 7437 35428
8 1544 35119 35124 1545 1483 35424 35429 1484
8 35119 35120 35125 35124 35424 35425 35430 35429
8 35120 35121 35126 35125 35425 35426 35431 35430
8 35121 35122 35127 35126 35426 35427 35432 35431
8 35122 35123 35128 35127 35427 35428 35433 35432
8 35123 7498 7497 35128 35428 7437 7436 35433
8 1545 35124 35129 1546 1484 35429 35434 1485
8 35124 35125 35130 35129 35429 35430 35435 35434
8 35125 35126 35131 35130 35430 35431 35436 35435
8 35126 35127 35132 35131 35431 35432 35437 35436
8 35127 35128 35133 35132 35432 35433 35438 35437
8 35128 7497 7496 35133 35433 7436 7435 35438
8 1546 35129 35134 1547 1485 35434 35439 1486
8 35129 35130 35135 35134 35434 35435 35440 35439
8 35130 35131 35136 35135 35435 35436 35441 35440
8 35131 35132 35137 35136 35436 35437 35442 35441
8 35132 35133 35138 35137 35437 35438 35443 35442
8 35133 7496 7495 35138 35438 7435 7434 35443
8 1547 35134 35139 1548 1486 35439 35444 1487
8 35134 35135 35140 35139 35439 35440 35445 35444
8 35135 35136 35141 35140 35440 35441 35446 35445
8 35136 35137 35142 35141 35441 35442 35447 35446
8 35137 35138 35143 35142 35442 35443 35448 35447
8 35138 7495 7494 35143 35443 7434 7433 35448
8 1548 35139 35144 1549 1487 35444 35449 1488
8 35139 35140 35145 35144 35444 35445 35450 35449
8 35140 35141 35146 35145 35445 35446 35451 35450
8 35141 35142 35147 35146 35446 35447 35452 35451
8 35142 35143 35148 35147 35447 35448 35453 35452
8 35143 7494 7493 35148 35448 7433 7432 35453
8 1549 35144 35149 1550 1488 35449 35454 1489
8 35144 35145 35150 35149 35449 35450 35455 35454
8 35145 35146 35151 35150 35450 35451 35456 35455
8 35146 35147 35152 35151 35451 35452 35457 35456
8 35147 35148 35153 35152 35452 35453 35458 35457
8 35148 7493 7492 35153 35453 7432 7431 35458
8 1550 35149 35154 1551 1489 35454 35459 1490
8 35149 35150 35155 35154 35454 35455 35460 35459
8 35150 35151 35156 35155 35455 35456 35461 35460
8 35151 35152 35157 35156 35456 35457 35462 35461
8 35152 35153 35158 35157 35457 35458 35463 35462
8 35153 7492 7491 35158 35458 7431 7430 35463
8 35154 35155 35160 35159 35459 35460 35465 35464
8 35155 35156 35161 35160 35460 35461 35466 35465
8 35156 35157 35162 35161 35461 35462 35467 35466
8 35157 35158 35163 35162 35462 35463 35468 35467
8 35158 7491 7490 35163 35463 7430 7429 35468
8 35159 35160 35165 35164 35464 35465 35470 35469
8 35160 35161 35166 35165 35465 35466 35471 35470
8 35161 35162 35167 35166 35466 35467 35472 35471
8 35162 35163 35168 35167 35467 35468 35473 35472
8 35163 7490 7489 35168 35468 7429 7428 35473
8 35164 35165 35170 35169 35469 35470 35475 35474
8 35165 35166 35171 35170 35470 35471 35476 35475
8 35166 35167 35172 35171 35471 35472 35477 35476
8 35167 35168 35173 35172 35472 35473 35478 35477
8 35168 7489 7488 35173 35473 7428 7427 35478
8 35169 35170 35175 35174 35474 35475 35480 35479
8 35170 35171 35176 35175 35475 35476 35481 35480
8 35171 35172 35177 35176 35476 35477 35482 35481
8 35172 35173 35178 35177 35477 35478 35483 35482
8 35173 7488 7487 35178 35478 7427 7426 35483
8 35174 35175 35180 35179 35479 35480 35485 35484
8 35175 35176 35181 35180 35480 35481 35486 35485
8 35176 35177 35182 35181 35481 35482 35487 35486
8 35177 35178 35183 35182 35482 35483 35488 35487
8 35178 7487 7486 35183 35483 7426 7425 35488
8 1556 35179 35184 1557 1495 35484 35489 1496
8 35179 35180 35185 35184 35484 35485 35490 35489
8 35180 35181 35186 35185 35485 35486 35491 35490
8 35181 35182 35187 35186 35486 35487 35492 35491
8 35182 35183 35188 35187 35487 35488 35493 35492
8 35183 7486 7485 35188 35488 7425 7424 35493
8 1557 35184 35189 1558 1496 35489 35494 1497
8 35184 35185 35190 35189 35489 35490 35495 35494
8 35185 35186 35191 35190 35490 35491 35496 35495
8 35186 35187 35192 35191 35491 35492 35497 35496
8 35187 35188 35193 35192 35492 35493 35498 35497
8 35188 7485 7484 35193 35493 7424 7423 35498
8 1558 35189 35194 1559 1497 35494 35499 1498
8 35189 35190 35195 35194 35494 35495 35500 35499
8 35190 35191 35196 35195 35495 35496 35501 35500
8 35191 35192 35197 35196 35496 35497 35502 35501
8 35192 35193 35198 35197 35497 35498 35503 35502
8 35193 7484 7483 35198 35498 7423 7422 35503
8 1559 35194 35199 1560 1498 35499 35504 1499
8 35194 35195 35200 35199 35499 35500 35505 35504
8 35195 35196 35201 35200 35500 35501 35506 35505
8 35196 35197 35202 35201 35501 35502 35507 35506
8 35197 35198 35203 35202 35502 35503 35508 35507
8 35198 7483 7482 35203 35503 7422 7421 35508
8 1560 35199 35204 1561 1499 35504 35509 1500
8 35199 35200 35205 35204 35504 35505 35510 35509
8 35200 35201 35206 35205 35505 35506 35511 35510
8 35201 35202 35207 35206 35506 35507 35512 35511
8 35202 35203 35208 35207 35507 35508 35513 35512
8 35203 7482 7481 35208 35508 7421 7420 35513
8 1561 35204 35209 1562 1500 35509 35514 1501
8 35204 35205 35210 35209 35509 35510 35515 35514
8 35205 35206 35211 35210 35510 35511 35516 35515
8 35206 35207 35212 35211 35511 35512 35517 35516
8 35207 35208 35213 35212 35512 35513 35518 35517
8 35208 7481 7480 35213 35513 7420 7419 35518
8 1562 35209 35214 1563 1501 35514 35519 1502
8 35209 35210 35215 35214 35514 35515 35520 35519
8 35210 35211 35216 35215 35515 35516 35521 35520
8 35211 35212 35217 35216 35516 35517 35522 35521
8 35212 35213 35218 35217 35517 35518 35523 35522
8 35213 7480 7479 35218 35518 7419 7418 35523
8 1563 35214 35219 1564 1502 35519 35524 1503
8 35214 35215 35220 35219 35519 35520 35525 35524
8 35215 35216 35221 35220 35520 35521 35526 35525
8 35216 35217 35222 35221 35521 35522 35527 35526
8 35217 35218 35223 35222 35522 35523 35528 35527
8 35218 7479 7478 35223 35523 7418 7417 35528
8 1564 35219 35224 1565 1503 35524 35529 1504
8 35219 35220 35225 35224 35524 35525 35530 35529
8 35220 35221 35226 35225 35525 35526 35531 35530
8 35221 35222 35227 35226 35526 35527 35532 35531
8 35222 35223 35228 35227 35527 35528 35533 35532
8 35223 7478 7477 35228 35528 7417 7416 35533
8 1565 35224 35229 1566 1504 35529 35534 1505
8 35224 35225 35230 35229 35529 35530 35535 35534
8 35225 35226 35231 35230 35530 35531 35536 35535
8 35226 35227 35232 35231 35531 35532 35537 35536
8 35227 35228 35233 35232 35532 35533 35538 35537
8 35228 7477 7476 35233 35533 7416 7415 35538
8 1566 35229 35234 1567 1505 35534 35539 1506
8 35229 35230 35235 35234 35534 35535 35540 35539
8 35230 35231 35236 35235 35535 35536 35541 35540
8 35231 35232 35237 35236 35536 35537 35542 35541
8 35232 35233 35238 35237 35537 35538 35543 35542
8 35233 7476 7475 35238 35538 7415 7414 35543
8 1567 35234 35239 1568 1506 35539 35544 1507
8 35234 35235 35240 35239 35539 35540 35545 35544
8 35235 35236 35241 35240 35540 35541 35546 35545
8 35236 35237 35242 35241 35541 35542 35547 35546
8 35237 35238 35243 35242 35542 35543 35548 35547
8 35238 7475 7474 35243 35543 7414 7413 35548
8 1568 35239 35244 1569 1507 35544 35549 1508
8 35239 35240 35245 35244 35544 35545 35550 35549
8 35240 35241 35246 35245 35545 35546 35551 35550
8 35241 35242 35247 35246 35546 35547 35552 35551
8 35242 35243 35248 35247 35547 35548 35553 35552
8 35243 7474 7473 35248 35548 7413 7412 35553
8 1569 35244 35249 1570 1508 35549 35554 1509
8 35244 35245 35250 35249 35549 35550 35555 35554
8 35245 35246 35251 35250 35550 35551 35556 35555
8 35246 35247 35252 35251 35551 35552 35557 35556
8 35247 35248 35253 35252 35552 35553 35558 35557
8 35248 7473 7472 35253 35553 7412 7411 35558
8 1570 35249 35254 1571 1509 35554 35559 1510
8 35249 35250 35255 35254 35554 35555 35560 35559
8 35250 35251 35256 35255 35555 35556 35561 35560
8 35251 35252 35257 35256 35556 35557 35562 35561
8 35252 35253 35258 35257 35557 35558 35563 35562
8 35253 7472 7471 35258 35558 7411 7410 35563
8 1571 35254 35259 1572 1510 35559 35564 1511
8 35254 35255 35260 35259 35559 35560 35565 35564
8 35255 35256 35261 35260 35560 35561 35566 35565
8 35256 35257 35262 35261 35561 35562 35567 35566
8 35257 35258 35263 35262 35562 35563 35568 35567
8 35258 7471 7470 35263 35563 7410 7409 35568
8 1572 35259 35264 1573 1511 35564 35569 1512
8 35259 35260 35265 35264 35564 35565 35570 35569
8 35260 35261 35266 35265 35565 35566 35571 35570
8 35261 35262 35267 35266 35566 35567 35572 35571
8 35262 35263 35268 35267 35567 35568 35573 35572
8 35263 7470 7469 35268 35568 7409 7408 35573
8 1573 35264 35269 1574 1512 35569 35574 1513
8 35264 35265 35270 35269 35569 35570 35575 35574
8 35265 35266 35271 35270 35570 35571 35576 35575
8 35266 35267 35272 35271 35571 35572 35577 35576
8 35267 35268 35273 35272 35572 35573 35578 35577
8 35268 7469 7468 35273 35573 7408 7407 35578
8 1574 35269 35274 1575 1513 35574 35579 1514
8 35269 35270 35275 35274 35574 35575 35580 35579
8 35270 35271 35276 35275 35575 35576 35581 35580
8 35271 35272 35277 35276 35576 35577 35582 35581
8 35272 35273 35278 35277 35577 35578 35583 35582
8 35273 7468 7467 35278 35578 7407 7406 35583
8 1575 35274 35279 1576 1514 35579 35584 1515
8 35274 35275 35280 35279 35579 35580 35585 35584
8 35275 35276 35281 35280 35580 35581 35586 35585
8 35276 35277 35282 35281 35581 35582 35587 35586
8 35277 35278 35283 35282 35582 35583 35588 35587
8 35278 7467 7466 35283 35583 7406 7405 35588
8 35279 35280 35285 35284 35584 35585 35590 35589
8 35280 35281 35286 35285 35585 35586 35591 35590
8 35281 35282 35287 35286 35586 35587 35592 35591
8 35282 35283 35288 35287 35587 35588 35593 35592
8 35283 7466 7465 35288 35588 7405 7404 35593
8 35284 35285 35290 35289 35589 35590 35595 35594
8 35285 35286 35291 35290 35590 35591 35596 35595
8 35286 35287 35292 35291 35591 35592 35597 35596
8 35287 35288 35293 35292 35592 35593 35598 35597
8 35288 7465 7464 35293 35593 7404 7403 35598
8 35289 35290 35295 35294 35594 35595 35600 35599
8 35290 35291 35296 35295 35595 35596 35601 35600
8 35291 35292 35297 35296 35596 35597 35602 35601
8 35292 35293 35298 35297 35597 35598 35603 35602
8 35293 7464 7463 35298 35598 7403 7402 35603
8 35294 35295 35300 35299 35599 35600 35605 35604
8 35295 35296 35301 35300 35600 35601 35606 35605
8 35296 35297 35302 35301 35601 35602 35607 35606
8 35297 35298 35303 35302 35602 35603 35608 35607
8 35298 7463 7462 35303 35603 7402 7401 35608
8 35299 35300 35305 35304 35604 35605 35610 35609
8 35300 35301 35306 35305 35605 35606 35611 35610
8 35301 35302 35307 35306 35606 35607 35612 35611
8 35302 35303 35308 35307 35607 35608 35613 35612
8 35303 7462 7461 35308 35608 7401 7400 35613
8 1581 35304 35309 1582 1520 35609 35614 1521
8 35304 35305 35310 35309 35609 35610 35615 35614
8 35305 35306 35311 35310 35610 35611 35616 35615
8 35306 35307 35312 35311 35611 35612 35617 35616
8 35307 35308 35313 35312 35612 35613 35618 35617
8 35308 7461 7460 35313 35613 7400 7399 35618
8 1582 35309 35314 1583 1521 35614 35619 1522
8 35309 35310 35315 35314 35614 35615 35620 35619
8 35310 35311 35316 35315 35615 35616 35621 35620
8 35311 35312 35317 35316 35616 35617 35622 35621
8 35312 35313 35318 35317 35617 35618 35623 35622
8 35313 7460 7459 35318 35618 7399 7398 35623
8 1583 35314 35319 1584 1522 35619 35624 1523
8 35314 35315 35320 35319 35619 35620 35625 35624
8 35315 35316 35321 35320 35620 35621 35626 35625
8 35316 35317 35322 35321 35621 35622 35627 35626
8 35317 35318 35323 35322 35622 35623 35628 35627
8 35318 7459 7458 35323 35623 7398 7397 35628
8 1584 35319 35324 1585 1523 35624 35629 1524
8 35319 35320 35325 35324 35624 35625 35630 35629
8 35320 35321 35326 35325 35625 35626 35631 35630
8 35321 35322 35327 35326 35626 35627 35632 35631
8 35322 35323 35328 35327 35627 35628 35633 35632
8 35323 7458 7457 35328 35628 7397 7396 35633
8 1585 35324 35329 1586 1524 35629 35634 1525
8 35324 35325 35330 35329 35629 35630 35635 35634
8 35325 35326 35331 35330 35630 35631 35636 35635
8 35326 35327 35332 35331 35631 35632 35637 35636
8 35327 35328 35333 35332 35632 35633 35638 35637
8 35328 7457 7456 35333 35633 7396 7395 35638
8 1586 35329 35334 1587 1525 35634 35639 1526
8 35329 35330 35335 35334 35634 35635 35640 35639
8 35330 35331 35336 35335 35635 35636 35641 35640
8 35331 35332 35337 35336 35636 35637 35642 35641
8 35332 35333 35338 35337 35637 35638 35643 35642
8 35333 7456 7455 35338 35638 7395 7394 35643
8 1587 35334 35339 1588 1526 35639 35644 1527
8 35334 35335 35340 35339 35639 35640 35645 35644
8 35335 35336 35341 35340 35640 35641 35646 35645
8 35336 35337 35342 35341 35641 35642 35647 35646
8 35337 35338 35343 35342 35642 35643 35648 35647
8 35338 7455 7454 35343 35643 7394 7393 35648
8 1588 35339 35344 1589 1527 35644 35649 1528
8 35339 35340 35345 35344 35644 35645 35650 35649
8 35340 35341 35346 35345 35645 35646 35651 35650
8 35341 35342 35347 35346 35646 35647 35652 35651
8 35342 35343 35348 35347 35647 35648 35653 35652
8 35343 7454 7453 35348 35648 7393 7392 35653
8 1589 35344 35349 1590 1528 35649 35654 1529
8 35344 35345 35350 35349 35649 35650 35655 35654
8 35345 35346 35351 35350 35650 35651 35656 35655
8 35346 35347 35352 35351 35651 35652 35657 35656
8 35347 35348 35353 35352 35652 35653 35658 35657
8 35348 7453 7452 35353 35653 7392 7391 35658
8 1590 35349 12729 84 1529 35654 12724 83
8 35349 35350 12730 12729 35654 35655 12725 12724
8 35350 35351 12731 12730 35655 35656 12726 12725
8 35351 35352 12732 12731 35656 35657 12727 12726
8 35352 35353 12733 12732 35657 35658 12728 12727
8 35353 7452 6211 12733 35658 7391 6212 12728
8 290 12214 35354 1469 291 12219 35659 1408
8 12214 12215 35355 35354 12219 12220 35660 35659
8 12215 12216 35356 35355 12220 12221 35661 35660
8 12216 12217 35357 35356 12221 12222 35662 35661
8 12217 12218 35358 35357 12222 12223 35663 35662
8 12218 6005 7451 35358 12223 6004 7390 35663
8 1469 35354 35359 1470 1408 35659 35664 1409
8 35354 35355 35360 35359 35659 35660 35665 35664
8 35355 35356 35361 35360 35660 35661 35666 35665
8 35356 35357 35362 35361 35661 35662 35667 35666
8 35357 35358 35363 35362 35662 35663 35668 35667
8 35358 7451 7450 35363 35663 7390 7389 35668
8 1470 35359 35364 1471 1409 35664 35669 1410
8 35359 35360 35365 35364 35664 35665 35670 35669
8 35360 35361 35366 35365 35665 35666 35671 35670
8 35361 35362 35367 35366 35666 35667 35672 35671
8 35362 35363 35368 35367 35667 35668 35673 35672
8 35363 7450 7449 35368 35668 7389 7388 35673
8 1471 35364 35369 1472 1410 35669 35674 1411
8 35364 35365 35370 35369 35669 35670 35675 35674
8 35365 35366 35371 35370 35670 35671 35676 35675
8 35366 35367 35372 35371 35671 35672 35677 35676
8 35367 35368 35373 35372 35672 35673 35678 35677
8 35368 7449 7448 35373 35673 7388 7387 35678
8 1472 35369 35374 1473 1411 35674 35679 1412
8 35369 35370 35375 35374 35674 35675 35680 35679
8 35370 35371 35376 35375 35675 35676 35681 35680
8 35371 35372 35377 35376 35676 35677 35682 35681
8 35372 35373 35378 35377 35677 35678 35683 35682
8 35373 7448 7447 35378 35678 7387 7386 35683
8 1473 35374 35379 1474 1412 35679 35684 1413
8 35374 35375 35380 35379 35679 35680 35685 35684
8 35375 35376 35381 35380 35680 35681 35686 35685
8 35376 35377 35382 35381 35681 35682 35687 35686
8 35377 35378 35383 35382 35682 35683 35688 35687
8 35378 7447 7446 35383 35683 7386 7385 35688
8 1474 35379 35384 1475 1413 35684 35689 1414
8 35379 35380 35385 35384 35684 35685 35690 35689
8 35380 35381 35386 35385 35685 35686 35691 35690
8 35381 35382 35387 35386 35686 35687 35692 35691
8 35382 35383 35388 35387 35687 35688 35693 35692
8 35383 7446 7445 35388 35688 7385 7384 35693
8 1475 35384 35389 1476 1414 35689 35694 1415
8 35384 35385 35390 35389 35689 35690 35695 35694
8 35385 35386 35391 35390 35690 35691 35696 35695
8 35386 35387 35392 35391 35691 35692 35697 35696
8 35387 35388 35393 35392 35692 35693 35698 35697
8 35388 7445 7444 35393 35693 7384 7383 35698
8 1476 35389 35394 1477 1415 35694 35699 1416
8 35389 35390 35395 35394 35694 35695 35700 35699
8 35390 35391 35396 35395 35695 35696 35701 35700
8 35391 35392 35397 35396 35696 35697 35702 35701
8 35392 35393 35398 35397 35697 35698 35703 35702
8 35393 7444 7443 35398 35698 7383 7382 35703
8 1477 35394 35399 1478 1416 35699 35704 1417
8 35394 35395 35400 35399 35699 35700 35705 35704
8 35395 35396 35401 35400 35700 35701 35706 35705
8 35396 35397 35402 35401 35701 35702 35707 35706
8 35397 35398 35403 35402 35702 35703 35708 35707
8 35398 7443 7442 35403 35703 7382 7381 35708
8 1478 35399 35404 1479 1417 35704 35709 1418
8 35399 35400 35405 35404 35704 35705 35710 35709
8 35400 35401 35406 35405 35705 35706 35711 35710
8 35401 35402 35407 35406 35706 35707 35712 35711
8 35402 35403 35408 35407 35707 35708 35713 35712
8 35403 7442 7441 35408 35708 7381 7380 35713
8 1479 35404 35409 1480 1418 35709 35714 1419
8 35404 35405 35410 35409 35709 35710 35715 35714
8 35405 35406 35411 35410 35710 35711 35716 35715
8 35406 35407 35412 35411 35711 35712 35717 35716
8 35407 35408 35413 35412 35712 35713 35718 35717
8 35408 7441 7440 35413 35713 7380 7379 35718
8 1480 35409 35414 1481 1419 35714 35719 1420
8 35409 35410 35415 35414 35714 35715 35720 35719
8 35410 35411 35416 35415 35715 35716 35721 35720
8 35411 35412 35417 35416 35716 35717 35722 35721
8 35412 35413 35418 35417 35717 35718 35723 35722
8 35413 7440 7439 35418 35718 7379 7378 35723
8 1481 35414 35419 1482 1420 35719 35724 1421
8 35414 35415 35420 35419 35719 35720 35725 35724
8 35415 35416 35421 35420 35720 35721 35726 35725
8 35416 35417 35422 35421 35721 35722 35727 35726
8 35417 35418 35423 35422 35722 35723 35728 35727
8 35418 7439 7438 35423 35723 7378 7377 35728
8 1482 35419 35424 1483 1421 35724 35729 1422
8 35419 35420 35425 35424 35724 35725 35730 35729
8 35420 35421 35426 35425 35725 35726 35731 35730
8 35421 35422 35427 35426 35726 35727 35732 35731
8 35422 35423 35428 35427 35727 35728 35733 35732
8 35423 7438 7437 35428 35728 7377 7376 35733
8 1483 35424 35429 1484 1422 35729 35734 1423
8 35424 35425 35430 35429 35729 35730 35735 35734
8 35425 35426 35431 35430 35730 35731 35736 35735
8 35426 35427 35432 35431 35731 35732 35737 35736
8 35427 35428 35433 35432 35732 35733 35738 35737
8 35428 7437 7436 35433 35733 7376 7375 35738
8 1484 35429 35434 1485 1423 35734 35739 1424
8 35429 35430 35435 35434 35734 35735 35740 35739
8 35430 35431 35436 35435 35735 35736 35741 35740
8 35431 35432 35437 35436 35736 35737 35742 35741
8 35432 35433 35438 35437 35737 35738 35743 35742
8 35433 7436 7435 35438 35738 7375 7374 35743
8 1485 35434 35439 1486 1424 35739 35744 1425
8 35434 35435 35440 35439 35739 35740 35745 35744
8 35435 35436 35441 35440 35740 35741 35746 35745
8 35436 35437 35442 35441 35741 35742 35747 35746
8 35437 35438 35443 35442 35742 35743 35748 35747
8 35438 7435 7434 35443 35743 7374 7373 35748
8 1486 35439 35444 1487 1425 35744 35749 1426
8 35439 35440 35445 35444 35744 35745 35750 35749
8 35440 35441 35446 35445 35745 35746 35751 35750
8 35441 35442 35447 35446 35746 35747 35752 35751
8 35442 35443 35448 35447 35747 35748 35753 35752
8 35443 7434 7433 35448 35748 7373 7372 35753
8 1487 35444 35449 1488 1426 35749 35754 1427
8 35444 35445 35450 35449 35749 35750 35755 35754
8 35445 35446 35451 35450 35750 35751 35756 35755
8 35446 35447 35452 35451 35751 35752 35757 35756
8 35447 35448 35453 35452 35752 35753 35758 35757
8 35448 7433 7432 35453 35753 7372 7371 35758
8 1488 35449 35454 1489 1427 35754 35759 1428
8 35449 35450 35455 35454 35754 35755 35760 35759
8 35450 35451 35456 35455 35755 35756 35761 35760
8 35451 35452 35457 35456 35756 35757 35762 35761
8 35452 35453 35458 35457 35757 35758 35763 35762
8 35453 7432 7431 35458 35758 7371 7370 35763
8 1489 35454 35459 1490 1428 35759 35764 1429
8 35454 35455 35460 35459 35759 35760 35765 35764
8 35455 35456 35461 35460 35760 35761 35766 35765
8 35456 35457 35462 35461 35761 35762 35767 35766
8 35457 35458 35463 35462 35762 35763 35768 35767
8 35458 7431 7430 35463 35763 7370 7369 35768
8 35459 35460 35465 35464 35764 35765 35770 35769
8 35460 35461 35466 35465 35765 35766 35771 35770
8 35461 35462 35467 35466 35766 35767 35772 35771
8 35462 35463 35468 35467 35767 35768 35773 35772
8 35463 7430 7429 35468 35768 7369 7368 35773
8 35464 35465 35470 35469 35769 35770 35775 35774
8 35465 35466 35471 35470 35770 35771 35776 35775
8 35466 35467 35472 35471 35771 35772 35777 35776
8 35467 35468 35473 35472 35772 35773 35778 35777
8 35468 7429 7428 35473 35773 7368 7367 35778
8 35469 35470 35475 35474 35774 35775 35780 35779
8 35470 35471 35476 35475 35775 35776 35781 35780
8 35471 35472 35477 35476 35776 35777 35782 35781
8 35472 35473 35478 35477 35777 35778 35783 35782
8 35473 7428 7427 35478 35778 7367 7366 35783
8 35474 35475 35480 35479 35779 35780 35785 35784
8 35475 35476 35481 35480 35780 35781 35786 35785
8 35476 35477 35482 35481 35781 35782 35787 35786
8 35477 35478 35483 35482 35782 35783 35788 35787
8 35478 7427 7426 35483 35783 7366 7365 35788
8 35479 35480 35485 35484 35784 35785 35790 35789
8 35480 35481 35486 35485 35785 35786 35791 35790
8 35481 35482 35487 35486 35786 35787 35792 35791
8 35482 35483 35488 35487 35787 35788 35793 35792
8 35483 7426 7425 35488 35788 7365 7364 35793
8 1495 35484 35489 1496 1434 35789 35794 1435
8 35484 35485 35490 35489 35789 35790 35795 35794
8 35485 35486 35491 35490 35790 35791 35796 35795
8 35486 35487 35492 35491 35791 35792 35797 35796
8 35487 35488 35493 35492 35792 35793 35798 35797
8 35488 7425 7424 35493 35793 7364 7363 35798
8 1496 35489 35494 1497 1435 35794 35799 1436
8 35489 35490 35495 35494 35794 35795 35800 35799
8 35490 35491 35496 35495 35795 35796 35801 35800
8 35491 35492 35497 35496 35796 35797 35802 35801
8 35492 35493 35498 35497 35797 35798 35803 35802
8 35493 7424 7423 35498 35798 7363 7362 35803
8 1497 35494 35499 1498 1436 35799 35804 1437
8 35494 35495 35500 35499 35799 35800 35805 35804
8 35495 35496 35501 35500 35800 35801 35806 35805
8 35496 35497 35502 35501 35801 35802 35807 35806
8 35497 35498 35503 35502 35802 35803 35808 35807
8 35498 7423 7422 35503 35803 7362 7361 35808
8 1498 35499 35504 1499 1437 35804 35809 1438
8 35499 35500 35505 35504 35804 35805 35810 35809
8 35500 35501 35506 35505 35805 35806 35811 35810
8 35501 35502 35507 35506 35806 35807 35812 35811
8 35502 35503 35508 35507 35807 35808 35813 35812
8 35503 7422 7421 35508 35808 7361 7360 35813
8 1499 35504 35509 1500 1438 35809 35814 1439
8 35504 35505 35510 35509 35809 35810 35815 35814
8 35505 35506 35511 35510 35810 35811 35816 35815
8 35506 35507 35512 35511 35811 35812 35817 35816
8 35507 35508 35513 35512 35812 35813 35818 35817
8 35508 7421 7420 35513 35813 7360 7359 35818
8 1500 35509 35514 1501 1439 35814 35819 1440
8 35509 35510 35515 35514 35814 35815 35820 35819
8 35510 35511 35516 35515 35815 35816 35821 35820
8 35511 35512 35517 35516 35816 35817 35822 35821
8 35512 35513 35518 35517 35817 35818 35823 35822
8 35513 7420 7419 35518 35818 7359 7358 35823
8 1501 35514 35519 1502 1440 35819 35824 1441
8 35514 35515 35520 35519 35819 35820 35825 35824
8 35515 35516 35521 35520 35820 35821 35826 35825
8 35516 35517 35522 35521 35821 35822 35827 35826
8 35517 35518 35523 35522 35822 35823 35828 35827
8 35518 7419 7418 35523 35823 7358 7357 35828
8 1502 35519 35524 1503 1441 35824 35829 1442
8 35519 35520 35525 35524 35824 35825 35830 35829
8 35520 35521 35526 35525 35825 35826 35831 35830
8 35521 35522 35527 35526 35826 35827 35832 35831
8 35522 35523 35528 35527 35827 35828 35833 35832
8 35523 7418 7417 35528 35828 7357 7356 35833
8 1503 35524 35529 1504 1442 35829 35834 1443
8 35524 35525 35530 35529 35829 35830 35835 35834
8 35525 35526 35531 35530 35830 35831 35836 35835
8 35526 35527 35532 35531 35831 35832 35837 35836
8 35527 35528 35533 35532 35832 35833 35838 35837
8 35528 7417 7416 35533 35833 7356 7355 35838
8 1504 35529 35534 1505 1443 35834 35839 1444
8 35529 35530 35535 35534 35834 35835 35840 35839
8 35530 35531 35536 35535 35835 35836 35841 35840
8 35531 35532 35537 35536 35836 35837 35842 35841
8 35532 35533 35538 35537 35837 35838 35843 35842
8 35533 7416 7415 35538 35838 7355 7354 35843
8 1505 35534 35539 1506 1444 35839 35844 1445
8 35534 35535 35540 35539 35839 35840 35845 35844
8 35535 35536 35541 35540 35840 35841 35846 35845
8 35536 35537 35542 35541 35841 35842 35847 35846
8 35537 35538 35543 35542 35842 35843 35848 35847
8 35538 7415 7414 35543 35843 7354 7353 35848
8 1506 35539 35544 1507 1445 35844 35849 1446
8 35539 35540 35545 35544 35844 35845 35850 35849
8 35540 35541 35546 35545 35845 35846 35851 35850
8 35541 35542 35547 35546 35846 35847 35852 35851
8 35542 35543 35548 35547 35847 35848 35853 35852
8 35543 7414 7413 35548 35848 7353 7352 35853
8 1507 35544 35549 1508 1446 35849 35854 1447
8 35544 35545 35550 35549 35849 35850 35855 35854
8 35545 35546 35551 35550 35850 35851 35856 35855
8 35546 35547 35552 35551 35851 35852 35857 35856
8 35547 35548 35553 35552 35852 35853 35858 35857
8 35548 7413 7412 35553 35853 7352 7351 35858
8 1508 35549 35554 1509 1447 35854 35859 1448
8 35549 35550 35555 35554 35854 35855 35860 35859
8 35550 35551 35556 35555 35855 35856 35861 35860
8 35551 35552 35557 35556 35856 35857 35862 35861
8 35552 35553 35558 35557 35857 35858 35863 35862
8 35553 7412 7411 35558 35858 7351 7350 35863
8 1509 35554 35559 1510 1448 35859 35864 1449
8 35554 35555 35560 35559 35859 35860 35865 35864
8 35555 35556 35561 35560 35860 35861 35866 35865
8 35556 35557 35562 35561 35861 35862 35867 35866
8 35557 35558 35563 35562 35862 35863 35868 35867
8 35558 7411 7410 35563 35863 7350 7349 35868
8 1510 35559 35564 1511 1449 35864 35869 1450
8 35559 35560 35565 35564 35864 35865 35870 35869
8 35560 35561 35566 35565 35865 35866 35871 35870
8 35561 35562 35567 35566 35866 35867 35872 35871
8 35562 35563 35568 35567 35867 35868 35873 35872
8 35563 7410 7409 35568 35868 7349 7348 35873
8 1511 35564 35569 1512 1450 35869 35874 1451
8 35564 35565 35570 35569 35869 35870 35875 35874
8 35565 35566 35571 35570 35870 35871 35876 35875
8 35566 35567 35572 35571 35871 35872 35877 35876
8 35567 35568 35573 35572 35872 35873 35878 35877
8 35568 7409 7408 35573 35873 7348 7347 35878
8 1512 35569 35574 1513 1451 35874 35879 1452
8 35569 35570 35575 35574 35874 35875 35880 35879
8 35570 35571 35576 35575 35875 35876 35881 35880
8 35571 35572 35577 35576 35876 35877 35882 35881
8 35572 35573 35578 35577 35877 35878 35883 35882
8 35573 7408 7407 35578 35878 7347 7346 35883
8 1513 35574 35579 1514 1452 35879 35884 1453
8 35574 35575 35580 35579 35879 35880 35885 35884
8 35575 35576 35581 35580 35880 35881 35886 35885
8 35576 35577 35582 35581 35881 35882 35887 35886
8 35577 35578 35583 35582 35882 35883 35888 35887
8 35578 7407 7406 35583 35883 7346 7345 35888
8 1514 35579 35584 1515 1453 35884 35889 1454
8 35579 35580 35585 35584 35884 35885 35890 35889
8 35580 35581 35586 35585 35885 35886 35891 35890
8 35581 35582 35587 35586 35886 35887 35892 35891
8 35582 35583 35588 35587 35887 35888 35893 35892
8 35583 7406 7405 35588 35888 7345 7344 35893
8 35584 35585 35590 35589 35889 35890 35895 35894
8 35585 35586 35591 35590 35890 35891 35896 35895
8 35586 35587 35592 35591 35891 35892 35897 35896
8 35587 35588 35593 35592 35892 35893 35898 35897
8 35588 7405 7404 35593 35893 7344 7343 35898
8 35589 35590 35595 35594 35894 35895 35900 35899
8 35590 35591 35596 35595 35895 35896 35901 35900
8 35591 35592 35597 35596 35896 35897 35902 35901
8 35592 35593 35598 35597 35897 35898 35903 35902
8 35593 7404 7403 35598 35898 7343 7342 35903
8 35594 35595 35600 35599 35899 35900 35905 35904
8 35595 35596 35601 35600 35900 35901 35906 35905
8 35596 35597 35602 35601 35901 35902 35907 35906
8 35597 35598 35603 35602 35902 35903 35908 35907
8 35598 7403 7402 35603 35903 7342 7341 35908
8 35599 35600 35605 35604 35904 35905 35910 35909
8 35600 35601 35606 35605 35905 35906 35911 35910
8 35601 35602 35607 35606 35906 35907 35912 35911
8 35602 35603 35608 35607 35907 35908 35913 35912
8 35603 7402 7401 35608 35908 7341 7340 35913
8 35604 35605 35610 35609 35909 35910 35915 35914
8 35605 35606 35611 35610 35910 35911 35916 35915
8 35606 35607 35612 35611 35911 35912 35917 35916
8 35607 35608 35613 35612 35912 35913 35918 35917
8 35608 7401 7400 35613 35913 7340 7339 35918
8 1520 35609 35614 1521 1459 35914 35919 1460
8 35609 35610 35615 35614 35914 35915 35920 35919
8 35610 35611 35616 35615 35915 35916 35921 35920
8 35611 35612 35617 35616 35916 35917 35922 35921
8 35612 35613 35618 35617 35917 35918 35923 35922
8 35613 7400 7399 35618 35918 7339 7338 35923
8 1521 35614 35619 1522 1460 35919 35924 1461
8 35614 35615 35620 35619 35919 35920 35925 35924
8 35615 35616 35621 35620 35920 35921 35926 35925
8 35616 35617 35622 35621 35921 35922 35927 35926
8 35617 35618 35623 35622 35922 35923 35928 35927
8 35618 7399 7398 35623 35923 7338 7337 35928
8 1522 35619 35624 1523 1461 35924 35929 1462
8 35619 35620 35625 35624 35924 35925 35930 35929
8 35620 35621 35626 35625 35925 35926 35931 35930
8 35621 35622 35627 35626 35926 35927 35932 35931
8 35622 35623 35628 35627 35927 35928 35933 35932
8 35623 7398 7397 35628 35928 7337 7336 35933
8 1523 35624 35629 1524 1462 35929 35934 1463
8 35624 35625 35630 35629 35929 35930 35935 35934
8 35625 35626 35631 35630 35930 35931 35936 35935
8 35626 35627 35632 35631 35931 35932 35937 35936
8 35627 35628 35633 35632 35932 35933 35938 35937
8 35628 7397 7396 35633 35933 7336 7335 35938
8 1524 35629 35634 1525 1463 35934 35939 1464
8 35629 35630 35635 35634 35934 35935 35940 35939
8 35630 35631 35636 35635 35935 35936 35941 35940
8 35631 35632 35637 35636 35936 35937 35942 35941
8 35632 35633 35638 35637 35937 35938 35943 35942
8 35633 7396 7395 35638 35938 7335 7334 35943
8 1525 35634 35639 1526 1464 35939 35944 1465
8 35634 35635 35640 35639 35939 35940 35945 35944
8 35635 35636 35641 35640 35940 35941 35946 35945
8 35636 35637 35642 35641 35941 35942 35947 35946
8 35637 35638 35643 35642 35942 35943 35948 35947
8 35638 7395 7394 35643 35943 7334 7333 35948
8 1526 35639 35644 1527 1465 35944 35949 1466
8 35639 35640 35645 35644 35944 35945 35950 35949
8 35640 35641 35646 35645 35945 35946 35951 35950
8 35641 35642 35647 35646 35946 35947 35952 35951
8 35642 35643 35648 35647 35947 35948 35953 35952
8 35643 7394 7393 35648 35948 7333 7332 35953
8 1527 35644 35649 1528 1466 35949 35954 1467
8 35644 35645 35650 35649 35949 35950 35955 35954
8 35645 35646 35651 35650 35950 35951 35956 35955
8 35646 35647 35652 35651 35951 35952 35957 35956
8 35647 35648 35653 35652 35952 35953 35958 35957
8 35648 7393 7392 35653 35953 7332 7331 35958
8 1528 35649 35654 1529 1467 35954 35959 1468
8 35649 35650 35655 35654 35954 35955 35960 35959
8 35650 35651 35656 35655 35955 35956 35961 35960
8 35651 35652 35657 35656 35956 35957 35962 35961
8 35652 35653 35658 35657 35957 35958 35963 35962
8 35653 7392 7391 35658 35958 7331 7330 35963
8 1529 35654 12724 83 1468 35959 12719 82
8 35654 35655 12725 12724 35959 35960 12720 12719
8 35655 35656 12726 12725 35960 35961 12721 12720
8 35656 35657 12727 12726 35961 35962 12722 12721
8 35657 35658 12728 12727 35962 35963 12723 12722
8 35658 7391 6212 12728 35963 7330 6213 12723
8 291 12219 35659 1408 292 12224 35964 1347
8 12219 12220 35660 35659 12224 12225 35965 35964
8 12220 12221 35661 35660 12225 12226 35966 35965
8 12221 12222 35662 35661 12226 12227 35967 35966
8 12222 12223 35663 35662 12227 12228 35968 35967
8 12223 6004 7390 35663 12228 6003 7329 35968
8 1408 35659 35664 1409 1347 35964 35969 1348
8 35659 35660 35665 35664 35964 35965 35970 35969
8 35660 35661 35666 35665 35965 35966 35971 35970
8 35661 35662 35667 35666 35966 35967 35972 35971
8 35662 35663 35668 35667 35967 35968 35973 35972
8 35663 7390 7389 35668 35968 7329 7328 35973
8 1409 35664 35669 1410 1348 35969 35974 1349
8 35664 35665 35670 35669 35969 35970 35975 35974
8 35665 35666 35671 35670 35970 35971 35976 35975
8 35666 35667 35672 35671 35971 35972 35977 35976
8 35667 35668 35673 35672 35972 35973 35978 35977
8 35668 7389 7388 35673 35973 7328 7327 35978
8 1410 35669 35674 1411 1349 35974 35979 1350
8 35669 35670 35675 35674 35974 35975 35980 35979
8 35670 35671 35676 35675 35975 35976 35981 35980
8 35671 35672 35677 35676 35976 35977 35982 35981
8 35672 35673 35678 35677 35977 35978 35983 35982
8 35673 7388 7387 35678 35978 7327 7326 35983
8 1411 35674 35679 1412 1350 35979 35984 1351
8 35674 35675 35680 35679 35979 35980 35985 35984
8 35675 35676 35681 35680 35980 35981 35986 35985
8 35676 35677 35682 35681 35981 35982 35987 35986
8 35677 35678 35683 35682 35982 35983 35988 35987
8 35678 7387 7386 35683 35983 7326 7325 35988
8 1412 35679 35684 1413 1351 35984 35989 1352
8 35679 35680 35685 35684 35984 35985 35990 35989
8 35680 35681 35686 35685 35985 35986 35991 35990
8 35681 35682 35687 35686 35986 35987 35992 35991
8 35682 35683 35688 35687 35987 35988 35993 35992
8 35683 7386 7385 35688 35988 7325 7324 35993
8 1413 35684 35689 1414 1352 35989 35994 1353
8 35684 35685 35690 35689 35989 35990 35995 35994
8 35685 35686 35691 35690 35990 35991 35996 35995
8 35686 35687 35692 35691 35991 35992 35997 35996
8 35687 35688 35693 35692 35992 35993 35998 35997
8 35688 7385 7384 35693 35993 7324 7323 35998
8 1414 35689 35694 1415 1353 35994 35999 1354
8 35689 35690 35695 35694 35994 35995 36000 35999
8 35690 35691 35696 35695 35995 35996 36001 36000
8 35691 35692 35697 35696 35996 35997 36002 36001
8 35692 35693 35698 35697 35997 35998 36003 36002
8 35693 7384 7383 35698 35998 7323 7322 36003
8 1415 35694 35699 1416 1354 35999 36004 1355
8 35694 35695 35700 35699 35999 36000 36005 36004
8 35695 35696 35701 35700 36000 36001 36006 36005
8 35696 35697 35702 35701 36001 36002 36007 36006
8 35697 35698 35703 35702 36002 36003 36008 36007
8 35698 7383 7382 35703 36003 7322 7321 36008
8 1416 35699 35704 1417 1355 36004 36009 1356
8 35699 35700 35705 35704 36004 36005 36010 36009
8 35700 35701 35706 35705 36005 36006 36011 36010
8 35701 35702 35707 35706 36006 36007 36012 36011
8 35702 35703 35708 35707 36007 36008 36013 36012
8 35703 7382 7381 35708 36008 7321 7320 36013
8 1417 35704 35709 1418 1356 36009 36014 1357
8 35704 35705 35710 35709 36009 36010 36015 36014
8 35705 35706 35711 35710 36010 36011 36016 36015
8 35706 35707 35712 35711 36011 36012 36017 36016
8 35707 35708 35713 35712 36012 36013 36018 36017
8 35708 7381 7380 35713 36013 7320 7319 36018
8 1418 35709 35714 1419 1357 36014 36019 1358
8 35709 35710 35715 35714 36014 36015 36020 36019
8 35710 35711 35716 35715 36015 36016 36021 36020
8 35711 35712 35717 35716 36016 36017 36022 36021
8 35712 35713 35718 35717 36017 36018 36023 36022
8 35713 7380 7379 35718 36018 7319 7318 36023
8 1419 35714 35719 1420 1358 36019 36024 1359
8 35714 35715 35720 35719 36019 36020 36025 36024
8 35715 35716 35721 35720 36020 36021 36026 36025
8 35716 35717 35722 35721 36021 36022 36027 36026
8 35717 35718 35723 35722 36022 36023 36028 36027
8 35718 7379 7378 35723 36023 7318 7317 36028
8 1420 35719 35724 1421 1359 36024 36029 1360
8 35719 35720 35725 35724 36024 36025 36030 36029
8 35720 35721 35726 35725 36025 36026 36031 36030
8 35721 35722 35727 35726 36026 36027 36032 36031
8 35722 35723 35728 35727 36027 36028 36033 36032
8 35723 7378 7377 35728 36028 7317 7316 36033
8 1421 35724 35729 1422 1360 36029 36034 1361
8 35724 35725 35730 35729 36029 36030 36035 36034
8 35725 35726 35731 35730 36030 36031 36036 36035
8 35726 35727 35732 35731 36031 36032 36037 36036
8 35727 35728 35733 35732 36032 36033 36038 36037
8 35728 7377 7376 35733 36033 7316 7315 36038
8 1422 35729 35734 1423 1361 36034 36039 1362
8 35729 35730 35735 35734 36034 36035 36040 36039
8 35730 35731 35736 35735 36035 36036 36041 36040
8 35731 35732 35737 35736 36036 36037 36042 36041
8 35732 35733 35738 35737 36037 36038 36043 36042
8 35733 7376 7375 35738 36038 7315 7314 36043
8 1423 35734 35739 1424 1362 36039 36044 1363
8 35734 35735 35740 35739 36039 36040 36045 36044
8 35735 35736 35741 35740 36040 36041 36046 36045
8 35736 35737 35742 35741 36041 36042 36047 36046
8 35737 35738 35743 35742 36042 36043 36048 36047
8 35738 7375 7374 35743 36043 7314 7313 36048
8 1424 35739 35744 1425 1363 36044 36049 1364
8 35739 35740 35745 35744 36044 36045 36050 36049
8 35740 35741 35746 35745 36045 36046 36051 36050
8 35741 35742 35747 35746 36046 36047 36052 36051
8 35742 35743 35748 35747 36047 36048 36053 36052
8 35743 7374 7373 35748 36048 7313 7312 36053
8 1425 35744 35749 1426 1364 36049 36054 1365
8 35744 35745 35750 35749 36049 36050 36055 36054
8 35745 35746 35751 35750 36050 36051 36056 36055
8 35746 35747 35752 35751 36051 36052 36057 36056
8 35747 35748 35753 35752 36052 36053 36058 36057
8 35748 7373 7372 35753 36053 7312 7311 36058
8 1426 35749 35754 1427 1365 36054 36059 1366
8 35749 35750 35755 35754 36054 36055 36060 36059
8 35750 35751 35756 35755 36055 36056 36061 36060
8 35751 35752 35757 35756 36056 36057 36062 36061
8 35752 35753 35758 35757 36057 36058 36063 36062
8 35753 7372 7371 35758 36058 7311 7310 36063
8 1427 35754 35759 1428 1366 36059 36064 1367
8 35754 35755 35760 35759 36059 36060 36065 36064
8 35755 35756 35761 35760 36060 36061 36066 36065
8 35756 35757 35762 35761 36061 36062 36067 36066
8 35757 35758 35763 35762 36062 36063 36068 36067
8 35758 7371 7370 35763 36063 7310 7309 36068
8 1428 35759 35764 1429 1367 36064 36069 1368
8 35759 35760 35765 35764 36064 36065 36070 36069
8 35760 35761 35766 35765 36065 36066 36071 36070
8 35761 35762 35767 35766 36066 36067 36072 36071
8 35762 35763 35768 35767 36067 36068 36073 36072
8 35763 7370 7369 35768 36068 7309 7308 36073
8 35764 35765 35770 35769 36069 36070 36075 36074
8 35765 35766 35771 35770 36070 36071 36076 36075
8 35766 35767 35772 35771 36071 36072 36077 36076
8 35767 35768 35773 35772 36072 36073 36078 36077
8 35768 7369 7368 35773 36073 7308 7307 36078
8 35769 35770 35775 35774 36074 36075 36080 36079
8 35770 35771 35776 35775 36075 36076 36081 36080
8 35771 35772 35777 35776 36076 36077 36082 36081
8 35772 35773 35778 35777 36077 36078 36083 36082
8 35773 7368 7367 35778 36078 7307 7306 36083
8 35774 35775 35780 35779 36079 36080 36085 36084
8 35775 35776 35781 35780 36080 36081 36086 36085
8 35776 35777 35782 35781 36081 36082 36087 36086
8 35777 35778 35783 35782 36082 36083 36088 36087
8 35778 7367 7366 35783 36083 7306 7305 36088
8 35779 35780 35785 35784 36084 36085 36090 36089
8 35780 35781 35786 35785 36085 36086 36091 36090
8 35781 35782 35787 35786 36086 36087 36092 36091
8 35782 35783 35788 35787 36087 36088 36093 36092
8 35783 7366 7365 35788 36088 7305 7304 36093
8 35784 35785 35790 35789 36089 36090 36095 36094
8 35785 35786 35791 35790 36090 36091 36096 36095
8 35786 35787 35792 35791 36091 36092 36097 36096
8 35787 35788 35793 35792 36092 36093 36098 36097
8 35788 7365 7364 35793 36093 7304 7303 36098
8 1434 35789 35794 1435 1373 36094 36099 1374
8 35789 35790 35795 35794 36094 36095 36100 36099
8 35790 35791 35796 35795 36095 36096 36101 36100
8 35791 35792 35797 35796 36096 36097 36102 36101
8 35792 35793 35798 35797 36097 36098 36103 36102
8 35793 7364 7363 35798 36098 7303 7302 36103
8 1435 35794 35799 1436 1374 36099 36104 1375
8 35794 35795 35800 35799 36099 36100 36105 36104
8 35795 35796 35801 35800 36100 36101 36106 36105
8 35796 35797 35802 35801 36101 36102 36107 36106
8 35797 35798 35803 35802 36102 36103 36108 36107
8 35798 7363 7362 35803 36103 7302 7301 36108
8 1436 35799 35804 1437 1375 36104 36109 1376
8 35799 35800 35805 35804 36104 36105 36110 36109
8 35800 35801 35806 35805 36105 36106 36111 36110
8 35801 35802 35807 35806 36106 36107 36112 36111
8 35802 35803 35808 35807 36107 36108 36113 36112
8 35803 7362 7361 35808 36108 7301 7300 36113
8 1437 35804 35809 1438 1376 36109 36114 1377
8 35804 35805 35810 35809 36109 36110 36115 36114
8 35805 35806 35811 35810 36110 36111 36116 36115
8 35806 35807 35812 35811 36111 36112 36117 36116
8 35807 35808 35813 35812 36112 36113 36118 36117
8 35808 7361 7360 35813 36113 7300 7299 36118
8 1438 35809 35814 1439 1377 36114 36119 1378
8 35809 35810 35815 35814 36114 36115 36120 36119
8 35810 35811 35816 35815 36115 36116 36121 36120
8 35811 35812 35817 35816 36116 36117 36122 36121
8 35812 35813 35818 35817 36117 36118 36123 36122
8 35813 7360 7359 35818 36118 7299 7298 36123
8 1439 35814 35819 1440 1378 36119 36124 1379
8 35814 35815 35820 35819 36119 36120 36125 36124
8 35815 35816 35821 35820 36120 36121 36126 36125
8 35816 35817 35822 35821 36121 36122 36127 36126
8 35817 35818 35823 35822 36122 36123 36128 36127
8 35818 7359 7358 35823 36123 7298 7297 36128
8 1440 35819 35824 1441 1379 36124 36129 1380
8 35819 35820 35825 35824 36124 36125 36130 36129
8 35820 35821 35826 35825 36125 36126 36131 36130
8 35821 35822 35827 35826 36126 36127 36132 36131
8 35822 35823 35828 35827 36127 36128 36133 36132
8 35823 7358 7357 35828 36128 7297 7296 36133
8 1441 35824 35829 1442 1380 36129 36134 1381
8 35824 35825 35830 35829 36129 36130 36135 36134
8 35825 35826 35831 35830 36130 36131 36136 36135
8 35826 35827 35832 35831 36131 36132 36137 36136
8 35827 35828 35833 35832 36132 36133 36138 36137
8 35828 7357 7356 35833 36133 7296 7295 36138
8 1442 35829 35834 1443 1381 36134 36139 1382
8 35829 35830 35835 35834 36134 36135 36140 36139
8 35830 35831 35836 35835 36135 36136 36141 36140
8 35831 35832 35837 35836 36136 36137 36142 36141
8 35832 35833 35838 35837 36137 36138 36143 36142
8 35833 7356 7355 35838 36138 7295 7294 36143
8 1443 35834 35839 1444 1382 36139 36144 1383
8 35834 35835 35840 35839 36139 36140 36145 36144
8 35835 35836 35841 35840 36140 36141 36146 36145
8 35836 35837 35842 35841 36141 36142 36147 36146
8 35837 35838 35843 35842 36142 36143 36148 36147
8 35838 7355 7354 35843 36143 7294 7293 36148
8 1444 35839 35844 1445 1383 36144 36149 1384
8 35839 35840 35845 35844 36144 36145 36150 36149
8 35840 35841 35846 35845 36145 36146 36151 36150
8 35841 35842 35847 35846 36146 36147 36152 36151
8 35842 35843 35848 35847 36147 36148 36153 36152
8 35843 7354 7353 35848 36148 7293 7292 36153
8 1445 35844 35849 1446 1384 36149 36154 1385
8 35844 35845 35850 35849 36149 36150 36155 36154
8 35845 35846 35851 35850 36150 36151 36156 36155
8 35846 35847 35852 35851 36151 36152 36157 36156
8 35847 35848 35853 35852 36152 36153 36158 36157
8 35848 7353 7352 35853 36153 7292 7291 36158
8 1446 35849 35854 1447 1385 36154 36159 1386
8 35849 35850 35855 35854 36154 36155 36160 36159
8 35850 35851 35856 35855 36155 36156 36161 36160
8 35851 35852 35857 35856 36156 36157 36162 36161
8 35852 35853 35858 35857 36157 36158 36163 36162
8 35853 7352 7351 35858 36158 7291 7290 36163
8 1447 35854 35859 1448 1386 36159 36164 1387
8 35854 35855 35860 35859 36159 36160 36165 36164
8 35855 35856 35861 35860 36160 36161 36166 36165
8 35856 35857 35862 35861 36161 36162 36167 36166
8 35857 35858 35863 35862 36162 36163 36168 36167
8 35858 7351 7350 35863 36163 7290 7289 36168
8 1448 35859 35864 1449 1387 36164 36169 1388
8 35859 35860 35865 35864 36164 36165 36170 36169
8 35860 35861 35866 35865 36165 36166 36171 36170
8 35861 35862 35867 35866 36166 36167 36172 36171
8 35862 35863 35868 35867 36167 36168 36173 36172
8 35863 7350 7349 35868 36168 7289 7288 36173
8 1449 35864 35869 1450 1388 36169 36174 1389
8 35864 35865 35870 35869 36169 36170 36175 36174
8 35865 35866 35871 35870 36170 36171 36176 36175
8 35866 35867 35872 35871 36171 36172 36177 36176
8 35867 35868 35873 35872 36172 36173 36178 36177
8 35868 7349 7348 35873 36173 7288 7287 36178
8 1450 35869 35874 1451 1389 36174 36179 1390
8 35869 35870 35875 35874 36174 36175 36180 36179
8 35870 35871 35876 35875 36175 36176 36181 36180
8 35871 35872 35877 35876 36176 36177 36182 36181
8 35872 35873 35878 35877 36177 36178 36183 36182
8 35873 7348 7347 35878 36178 7287 7286 36183
8 1451 35874 35879 1452 1390 36179 36184 1391
8 35874 35875 35880 35879 36179 36180 36185 36184
8 35875 35876 35881 35880 36180 36181 36186 36185
8 35876 35877 35882 35881 36181 36182 36187 36186
8 35877 35878 35883 35882 36182 36183 36188 36187
8 35878 7347 7346 35883 36183 7286 7285 36188
8 1452 35879 35884 1453 1391 36184 36189 1392
8 35879 35880 35885 35884 36184 36185 36190 36189
8 35880 35881 35886 35885 36185 36186 36191 36190
8 35881 35882 35887 35886 36186 36187 36192 36191
8 35882 35883 35888 35887 36187 36188 36193 36192
8 35883 7346 7345 35888 36188 7285 7284 36193
8 1453 35884 35889 1454 1392 36189 36194 1393
8 35884 35885 35890 35889 36189 36190 36195 36194
8 35885 35886 35891 35890 36190 36191 36196 36195
8 35886 35887 35892 35891 36191 36192 36197 36196
8 35887 35888 35893 35892 36192 36193 36198 36197
8 35888 7345 7344 35893 36193 7284 7283 36198
8 35889 35890 35895 35894 36194 36195 36200 36199
8 35890 35891 35896 35895 36195 36196 36201 36200
8 35891 35892 35897 35896 36196 36197 36202 36201
8 35892 35893 35898 35897 36197 36198 36203 36202
8 35893 7344 7343 35898 36198 7283 7282 36203
8 35894 35895 35900 35899 36199 36200 36205 36204
8 35895 35896 35901 35900 36200 36201 36206 36205
8 35896 35897 35902 35901 36201 36202 36207 36206
8 35897 35898 35903 35902 36202 36203 36208 36207
8 35898 7343 7342 35903 36203 7282 7281 36208
8 35899 35900 35905 35904 36204 36205 36210 36209
8 35900 35901 35906 35905 36205 36206 36211 36210
8 35901 35902 35907 35906 36206 36207 36212 36211
8 35902 35903 35908 35907 36207 36208 36213 36212
8 35903 7342 7341 35908 36208 7281 7280 36213
8 35904 35905 35910 35909 36209 36210 36215 36214
8 35905 35906 35911 35910 36210 36211 36216 36215
8 35906 35907 35912 35911 36211 36212 36217 36216
8 35907 35908 35913 35912 36212 36213 36218 36217
8 35908 7341 7340 35913 36213 7280 7279 36218
8 35909 35910 35915 35914 36214 36215 36220 36219
8 35910 35911 35916 35915 36215 36216 36221 36220
8 35911 35912 35917 35916 36216 36217 36222 36221
8 35912 35913 35918 35917 36217 36218 36223 36222
8 35913 7340 7339 35918 36218 7279 7278 36223
8 1459 35914 35919 1460 1398 36219 36224 1399
8 35914 35915 35920 35919 36219 36220 36225 36224
8 35915 35916 35921 35920 36220 36221 36226 36225
8 35916 35917 35922 35921 36221 36222 36227 36226
8 35917 35918 35923 35922 36222 36223 36228 36227
8 35918 7339 7338 35923 36223 7278 7277 36228
8 1460 35919 35924 1461 1399 36224 36229 1400
8 35919 35920 35925 35924 36224 36225 36230 36229
8 35920 35921 35926 35925 36225 36226 36231 36230
8 35921 35922 35927 35926 36226 36227 36232 36231
8 35922 35923 35928 35927 36227 36228 36233 36232
8 35923 7338 7337 35928 36228 7277 7276 36233
8 1461 35924 35929 1462 1400 36229 36234 1401
8 35924 35925 35930 35929 36229 36230 36235 36234
8 35925 35926 35931 35930 36230 36231 36236 36235
8 35926 35927 35932 35931 36231 36232 36237 36236
8 35927 35928 35933 35932 36232 36233 36238 36237
8 35928 7337 7336 35933 36233 7276 7275 36238
8 1462 35929 35934 1463 1401 36234 36239 1402
8 35929 35930 35935 35934 36234 36235 36240 36239
8 35930 35931 35936 35935 36235 36236 36241 36240
8 35931 35932 35937 35936 36236 36237 36242 36241
8 35932 35933 35938 35937 36237 36238 36243 36242
8 35933 7336 7335 35938 36238 7275 7274 36243
8 1463 35934 35939 1464 1402 36239 36244 1403
8 35934 35935 35940 35939 36239 36240 36245 36244
8 35935 35936 35941 35940 36240 36241 36246 36245
8 35936 35937 35942 35941 36241 36242 36247 36246
8 35937 35938 35943 35942 36242 36243 36248 36247
8 35938 7335 7334 35943 36243 7274 7273 36248
8 1464 35939 35944 1465 1403 36244 36249 1404
8 35939 35940 35945 35944 36244 36245 36250 36249
8 35940 35941 35946 35945 36245 36246 36251 36250
8 35941 35942 35947 35946 36246 36247 36252 36251
8 35942 35943 35948 35947 36247 36248 36253 36252
8 35943 7334 7333 35948 36248 7273 7272 36253
8 1465 35944 35949 1466 1404 36249 36254 1405
8 35944 35945 35950 35949 36249 36250 36255 36254
8 35945 35946 35951 35950 36250 36251 36256 36255
8 35946 35947 35952 35951 36251 36252 36257 36256
8 35947 35948 35953 35952 36252 36253 36258 36257
8 35948 7333 7332 35953 36253 7272 7271 36258
8 1466 35949 35954 1467 1405 36254 36259 1406
8 35949 35950 35955 35954 36254 36255 36260 36259
8 35950 35951 35956 35955 36255 36256 36261 36260
8 35951 35952 35957 35956 36256 36257 36262 36261
8 35952 35953 35958 35957 36257 36258 36263 36262
8 35953 7332 7331 35958 36258 7271 7270 36263
8 1467 35954 35959 1468 1406 36259 36264 1407
8 35954 35955 35960 35959 36259 36260 36265 36264
8 35955 35956 35961 35960 36260 36261 36266 36265
8 35956 35957 35962 35961 36261 36262 36267 36266
8 35957 35958 35963 35962 36262 36263 36268 36267
8 35958 7331 7330 35963 36263 7270 7269 36268
8 1468 35959 12719 82 1407 36264 12714 81
8 35959 35960 12720 12719 36264 36265 12715 12714
8 35960 35961 12721 12720 36265 36266 12716 12715
8 35961 35962 12722 12721 36266 36267 12717 12716
8 35962 35963 12723 12722 36267 36268 12718 12717
8 35963 7330 6213 12723 36268 7269 6214 12718
8 292 12224 35964 1347 293 12229 36269 1286
8 12224 12225 35965 35964 12229 12230 36270 36269
8 12225 12226 35966 35965 12230 12231 36271 36270
8 12226 12227 35967 35966 12231 12232 36272 36271
8 12227 12228 35968 35967 12232 12233 36273 36272
8 12228 6003 7329 35968 12233 6002 7268 36273
8 1347 35964 35969 1348 1286 36269 36274 1287
8 35964 35965 35970 35969 36269 36270 36275 36274
8 35965 35966 35971 35970 36270 36271 36276 36275
8 35966 35967 35972 35971 36271 36272 36277 36276
8 35967 35968 35973 35972 36272 36273 36278 36277
8 35968 7329 7328 35973 36273 7268 7267 36278
8 1348 35969 35974 1349 1287 36274 36279 1288
8 35969 35970 35975 35974 36274 36275 36280 36279
8 35970 35971 35976 35975 36275 36276 36281 36280
8 35971 35972 35977 35976 36276 36277 36282 36281
8 35972 35973 35978 35977 36277 36278 36283 36282
8 35973 7328 7327 35978 36278 7267 7266 36283
8 1349 35974 35979 1350 1288 36279 36284 1289
8 35974 35975 35980 35979 36279 36280 36285 36284
8 35975 35976 35981 35980 36280 36281 36286 36285
8 35976 35977 35982 35981 36281 36282 36287 36286
8 35977 35978 35983 35982 36282 36283 36288 36287
8 35978 7327 7326 35983 36283 7266 7265 36288
8 1350 35979 35984 1351 1289 36284 36289 1290
8 35979 35980 35985 35984 36284 36285 36290 36289
8 35980 35981 35986 35985 36285 36286 36291 36290
8 35981 35982 35987 35986 36286 36287 36292 36291
8 35982 35983 35988 35987 36287 36288 36293 36292
8 35983 7326 7325 35988 36288 7265 7264 36293
8 1351 35984 35989 1352 1290 36289 36294 1291
8 35984 35985 35990 35989 36289 36290 36295 36294
8 35985 35986 35991 35990 36290 36291 36296 36295
8 35986 35987 35992 35991 36291 36292 36297 36296
8 35987 35988 35993 35992 36292 36293 36298 36297
8 35988 7325 7324 35993 36293 7264 7263 36298
8 1352 35989 35994 1353 1291 36294 36299 1292
8 35989 35990 35995 35994 36294 36295 36300 36299
8 35990 35991 35996 35995 36295 36296 36301 36300
8 35991 35992 35997 35996 36296 36297 36302 36301
8 35992 35993 35998 35997 36297 36298 36303 36302
8 35993 7324 7323 35998 36298 7263 7262 36303
8 1353 35994 35999 1354 1292 36299 36304 1293
8 35994 35995 36000 35999 36299 36300 36305 36304
8 35995 35996 36001 36000 36300 36301 36306 36305
8 35996 35997 36002 36001 36301 36302 36307 36306
8 35997 35998 36003 36002 36302 36303 36308 36307
8 35998 7323 7322 36003 36303 7262 7261 36308
8 1354 35999 36004 1355 1293 36304 36309 1294
8 35999 36000 36005 36004 36304 36305 36310 36309
8 36000 36001 36006 36005 36305 36306 36311 36310
8 36001 36002 36007 36006 36306 36307 36312 36311
8 36002 36003 36008 36007 36307 36308 36313 36312
8 36003 7322 7321 36008 36308 7261 7260 36313
8 1355 36004 36009 1356 1294 36309 36314 1295
8 36004 36005 36010 36009 36309 36310 36315 36314
8 36005 36006 36011 36010 36310 36311 36316 36315
8 36006 36007 36012 36011 36311 36312 36317 36316
8 36007 36008 36013 36012 36312 36313 36318 36317
8 36008 7321 7320 36013 36313 7260 7259 36318
8 1356 36009 36014 1357 1295 36314 36319 1296
8 36009 36010 36015 36014 36314 36315 36320 36319
8 36010 36011 36016 36015 36315 36316 36321 36320
8 36011 36012 36017 36016 36316 36317 36322 36321
8 36012 36013 36018 36017 36317 36318 36323 36322
8 36013 7320 7319 36018 36318 7259 7258 36323
8 1357 36014 36019 1358 1296 36319 36324 1297
8 36014 36015 36020 36019 36319 36320 36325 36324
8 36015 36016 36021 36020 36320 36321 36326 36325
8 36016 36017 36022 36021 36321 36322 36327 36326
8 36017 36018 36023 36022 36322 36323 36328 36327
8 36018 7319 7318 36023 36323 7258 7257 36328
8 1358 36019 36024 1359 1297 36324 36329 1298
8 36019 36020 36025 36024 36324 36325 36330 36329
8 36020 36021 36026 36025 36325 36326 36331 36330
8 36021 36022 36027 36026 36326 36327 36332 36331
8 36022 36023 36028 36027 36327 36328 36333 36332
8 36023 7318 7317 36028 36328 7257 7256 36333
8 1359 36024 36029 1360 1298 36329 36334 1299
8 36024 36025 36030 36029 36329 36330 36335 36334
8 36025 36026 36031 36030 36330 36331 36336 36335
8 36026 36027 36032 36031 36331 36332 36337 36336
8 36027 36028 36033 36032 36332 36333 36338 36337
8 36028 7317 7316 36033 36333 7256 7255 36338
8 1360 36029 36034 1361 1299 36334 36339 1300
8 36029 36030 36035 36034 36334 36335 36340 36339
8 36030 36031 36036 36035 36335 36336 36341 36340
8 36031 36032 36037 36036 36336 36337 36342 36341
8 36032 36033 36038 36037 36337 36338 36343 36342
8 36033 7316 7315 36038 36338 7255 7254 36343
8 1361 36034 36039 1362 1300 36339 36344 1301
8 36034 36035 36040 36039 36339 36340 36345 36344
8 36035 36036 36041 36040 36340 36341 36346 36345
8 36036 36037 36042 36041 36341 36342 36347 36346
8 36037 36038 36043 36042 36342 36343 36348 36347
8 36038 7315 7314 36043 36343 7254 7253 36348
8 1362 36039 36044 1363 1301 36344 36349 1302
8 36039 36040 36045 36044 36344 36345 36350 36349
8 36040 36041 36046 36045 36345 36346 36351 36350
8 36041 36042 36047 36046 36346 36347 36352 36351
8 36042 36043 36048 36047 36347 36348 36353 36352
8 36043 7314 7313 36048 36348 7253 7252 36353
8 1363 36044 36049 1364 1302 36349 36354 1303
8 36044 36045 36050 36049 36349 36350 36355 36354
8 36045 36046 36051 36050 36350 36351 36356 36355
8 36046 36047 36052 36051 36351 36352 36357 36356
8 36047 36048 36053 36052 36352 36353 36358 36357
8 36048 7313 7312 36053 36353 7252 7251 36358
8 1364 36049 36054 1365 1303 36354 36359 1304
8 36049 36050 36055 36054 36354 36355 36360 36359
8 36050 36051 36056 36055 36355 36356 36361 36360
8 36051 36052 36057 36056 36356 36357 36362 36361
8 36052 36053 36058 36057 36357 36358 36363 36362
8 36053 7312 7311 36058 36358 7251 7250 36363
8 1365 36054 36059 1366 1304 36359 36364 1305
8 36054 36055 36060 36059 36359 36360 36365 36364
8 36055 36056 36061 36060 36360 36361 36366 36365
8 36056 36057 36062 36061 36361 36362 36367 36366
8 36057 36058 36063 36062 36362 36363 36368 36367
8 36058 7311 7310 36063 36363 7250 7249 36368
8 1366 36059 36064 1367 1305 36364 36369 1306
8 36059 36060 36065 36064 36364 36365 36370 36369
8 36060 36061 36066 36065 36365 36366 36371 36370
8 36061 36062 36067 36066 36366 36367 36372 36371
8 36062 36063 36068 36067 36367 36368 36373 36372
8 36063 7310 7309 36068 36368 7249 7248 36373
8 1367 36064 36069 1368 1306 36369 36374 1307
8 36064 36065 36070 36069 36369 36370 36375 36374
8 36065 36066 36071 36070 36370 36371 36376 36375
8 36066 36067 36072 36071 36371 36372 36377 36376
8 36067 36068 36073 36072 36372 36373 36378 36377
8 36068 7309 7308 36073 36373 7248 7247 36378
8 36069 36070 36075 36074 36374 36375 36380 36379
8 36070 36071 36076 36075 36375 36376 36381 36380
8 36071 36072 36077 36076 36376 36377 36382 36381
8 36072 36073 36078 36077 36377 36378 36383 36382
8 36073 7308 7307 36078 36378 7247 7246 36383
8 36074 36075 36080 36079 36379 36380 36385 36384
8 36075 36076 36081 36080 36380 36381 36386 36385
8 36076 36077 36082 36081 36381 36382 36387 36386
8 36077 36078 36083 36082 36382 36383 36388 36387
8 36078 7307 7306 36083 36383 7246 7245 36388
8 36079 36080 36085 36084 36384 36385 36390 36389
8 36080 36081 36086 36085 36385 36386 36391 36390
8 36081 36082 36087 36086 36386 36387 36392 36391
8 36082 36083 36088 36087 36387 36388 36393 36392
8 36083 7306 7305 36088 36388 7245 7244 36393
8 1371 36084 36089 1372 1310 36389 36394 1311
8 36084 36085 36090 36089 36389 36390 36395 36394
8 36085 36086 36091 36090 36390 36391 36396 36395
8 36086 36087 36092 36091 36391 36392 36397 36396
8 36087 36088 36093 36092 36392 36393 36398 36397
8 36088 7305 7304 36093 36393 7244 7243 36398
8 36089 36090 36095 36094 36394 36395 36400 36399
8 36090 36091 36096 36095 36395 36396 36401 36400
8 36091 36092 36097 36096 36396 36397 36402 36401
8 36092 36093 36098 36097 36397 36398 36403 36402
8 36093 7304 7303 36098 36398 7243 7242 36403
8 1373 36094 36099 1374 1312 36399 36404 1313
8 36094 36095 36100 36099 36399 36400 36405 36404
8 36095 36096 36101 36100 36400 36401 36406 36405
8 36096 36097 36102 36101 36401 36402 36407 36406
8 36097 36098 36103 36102 36402 36403 36408 36407
8 36098 7303 7302 36103 36403 7242 7241 36408
8 1374 36099 36104 1375 1313 36404 36409 1314
8 36099 36100 36105 36104 36404 36405 36410 36409
8 36100 36101 36106 36105 36405 36406 36411 36410
8 36101 36102 36107 36106 36406 36407 36412 36411
8 36102 36103 36108 36107 36407 36408 36413 36412
8 36103 7302 7301 36108 36408 7241 7240 36413
8 1375 36104 36109 1376 1314 36409 36414 1315
8 36104 36105 36110 36109 36409 36410 36415 36414
8 36105 36106 36111 36110 36410 36411 36416 36415
8 36106 36107 36112 36111 36411 36412 36417 36416
8 36107 36108 36113 36112 36412 36413 36418 36417
8 36108 7301 7300 36113 36413 7240 7239 36418
8 1376 36109 36114 1377 1315 36414 36419 1316
8 36109 36110 36115 36114 36414 36415 36420 36419
8 36110 36111 36116 36115 36415 36416 36421 36420
8 36111 36112 36117 36116 36416 36417 36422 36421
8 36112 36113 36118 36117 36417 36418 36423 36422
8 36113 7300 7299 36118 36418 7239 7238 36423
8 1377 36114 36119 1378 1316 36419 36424 1317
8 36114 36115 36120 36119 36419 36420 36425 36424
8 36115 36116 36121 36120 36420 36421 36426 36425
8 36116 36117 36122 36121 36421 36422 36427 36426
8 36117 36118 36123 36122 36422 36423 36428 36427
8 36118 7299 7298 36123 36423 7238 7237 36428
8 1378 36119 36124 1379 1317 36424 36429 1318
8 36119 36120 36125 36124 36424 36425 36430 36429
8 36120 36121 36126 36125 36425 36426 36431 36430
8 36121 36122 36127 36126 36426 36427 36432 36431
8 36122 36123 36128 36127 36427 36428 36433 36432
8 36123 7298 7297 36128 36428 7237 7236 36433
8 1379 36124 36129 1380 1318 36429 36434 1319
8 36124 36125 36130 36129 36429 36430 36435 36434
8 36125 36126 36131 36130 36430 36431 36436 36435
8 36126 36127 36132 36131 36431 36432 36437 36436
8 36127 36128 36133 36132 36432 36433 36438 36437
8 36128 7297 7296 36133 36433 7236 7235 36438
8 1380 36129 36134 1381 1319 36434 36439 1320
8 36129 36130 36135 36134 36434 36435 36440 36439
8 36130 36131 36136 36135 36435 36436 36441 36440
8 36131 36132 36137 36136 36436 36437 36442 36441
8 36132 36133 36138 36137 36437 36438 36443 36442
8 36133 7296 7295 36138 36438 7235 7234 36443
8 1381 36134 36139 1382 1320 36439 36444 1321
8 36134 36135 36140 36139 36439 36440 36445 36444
8 36135 36136 36141 36140 36440 36441 36446 36445
8 36136 36137 36142 36141 36441 36442 36447 36446
8 36137 36138 36143 36142 36442 36443 36448 36447
8 36138 7295 7294 36143 36443 7234 7233 36448
8 1382 36139 36144 1383 1321 36444 36449 1322
8 36139 36140 36145 36144 36444 36445 36450 36449
8 36140 36141 36146 36145 36445 36446 36451 36450
8 36141 36142 36147 36146 36446 36447 36452 36451
8 36142 36143 36148 36147 36447 36448 36453 36452
8 36143 7294 7293 36148 36448 7233 7232 36453
8 1383 36144 36149 1384 1322 36449 36454 1323
8 36144 36145 36150 36149 36449 36450 36455 36454
8 36145 36146 36151 36150 36450 36451 36456 36455
8 36146 36147 36152 36151 36451 36452 36457 36456
8 36147 36148 36153 36152 36452 36453 36458 36457
8 36148 7293 7292 36153 36453 7232 7231 36458
8 1384 36149 36154 1385 1323 36454 36459 1324
8 36149 36150 36155 36154 36454 36455 36460 36459
8 36150 36151 36156 36155 36455 36456 36461 36460
8 36151 36152 36157 36156 36456 36457 36462 36461
8 36152 36153 36158 36157 36457 36458 36463 36462
8 36153 7292 7291 36158 36458 7231 7230 36463
8 1385 36154 36159 1386 1324 36459 36464 1325
8 36154 36155 36160 36159 36459 36460 36465 36464
8 36155 36156 36161 36160 36460 36461 36466 36465
8 36156 36157 36162 36161 36461 36462 36467 36466
8 36157 36158 36163 36162 36462 36463 36468 36467
8 36158 7291 7290 36163 36463 7230 7229 36468
8 1386 36159 36164 1387 1325 36464 36469 1326
8 36159 36160 36165 36164 36464 36465 36470 36469
8 36160 36161 36166 36165 36465 36466 36471 36470
8 36161 36162 36167 36166 36466 36467 36472 36471
8 36162 36163 36168 36167 36467 36468 36473 36472
8 36163 7290 7289 36168 36468 7229 7228 36473
8 1387 36164 36169 1388 1326 36469 36474 1327
8 36164 36165 36170 36169 36469 36470 36475 36474
8 36165 36166 36171 36170 36470 36471 36476 36475
8 36166 36167 36172 36171 36471 36472 36477 36476
8 36167 36168 36173 36172 36472 36473 36478 36477
8 36168 7289 7288 36173 36473 7228 7227 36478
8 1388 36169 36174 1389 1327 36474 36479 1328
8 36169 36170 36175 36174 36474 36475 36480 36479
8 36170 36171 36176 36175 36475 36476 36481 36480
8 36171 36172 36177 36176 36476 36477 36482 36481
8 36172 36173 36178 36177 36477 36478 36483 36482
8 36173 7288 7287 36178 36478 7227 7226 36483
8 1389 36174 36179 1390 1328 36479 36484 1329
8 36174 36175 36180 36179 36479 36480 36485 36484
8 36175 36176 36181 36180 36480 36481 36486 36485
8 36176 36177 36182 36181 36481 36482 36487 36486
8 36177 36178 36183 36182 36482 36483 36488 36487
8 36178 7287 7286 36183 36483 7226 7225 36488
8 1390 36179 36184 1391 1329 36484 36489 1330
8 36179 36180 36185 36184 36484 36485 36490 36489
8 36180 36181 36186 36185 36485 36486 36491 36490
8 36181 36182 36187 36186 36486 36487 36492 36491
8 36182 36183 36188 36187 36487 36488 36493 36492
8 36183 7286 7285 36188 36488 7225 7224 36493
8 1391 36184 36189 1392 1330 36489 36494 1331
8 36184 36185 36190 36189 36489 36490 36495 36494
8 36185 36186 36191 36190 36490 36491 36496 36495
8 36186 36187 36192 36191 36491 36492 36497 36496
8 36187 36188 36193 36192 36492 36493 36498 36497
8 36188 7285 7284 36193 36493 7224 7223 36498
8 1392 36189 36194 1393 1331 36494 36499 1332
8 36189 36190 36195 36194 36494 36495 36500 36499
8 36190 36191 36196 36195 36495 36496 36501 36500
8 36191 36192 36197 36196 36496 36497 36502 36501
8 36192 36193 36198 36197 36497 36498 36503 36502
8 36193 7284 7283 36198 36498 7223 7222 36503
8 36194 36195 36200 36199 36499 36500 36505 36504
8 36195 36196 36201 36200 36500 36501 36506 36505
8 36196 36197 36202 36201 36501 36502 36507 36506
8 36197 36198 36203 36202 36502 36503 36508 36507
8 36198 7283 7282 36203 36503 7222 7221 36508
8 36199 36200 36205 36204 36504 36505 36510 36509
8 36200 36201 36206 36205 36505 36506 36511 36510
8 36201 36202 36207 36206 36506 36507 36512 36511
8 36202 36203 36208 36207 36507 36508 36513 36512
8 36203 7282 7281 36208 36508 7221 7220 36513
8 36204 36205 36210 36209 36509 36510 36515 36514
8 36205 36206 36211 36210 36510 36511 36516 36515
8 36206 36207 36212 36211 36511 36512 36517 36516
8 36207 36208 36213 36212 36512 36513 36518 36517
8 36208 7281 7280 36213 36513 7220 7219 36518
8 36209 36210 36215 36214 36514 36515 36520 36519
8 36210 36211 36216 36215 36515 36516 36521 36520
8 36211 36212 36217 36216 36516 36517 36522 36521
8 36212 36213 36218 36217 36517 36518 36523 36522
8 36213 7280 7279 36218 36518 7219 7218 36523
8 36214 36215 36220 36219 36519 36520 36525 36524
8 36215 36216 36221 36220 36520 36521 36526 36525
8 36216 36217 36222 36221 36521 36522 36527 36526
8 36217 36218 36223 36222 36522 36523 36528 36527
8 36218 7279 7278 36223 36523 7218 7217 36528
8 1398 36219 36224 1399 1337 36524 36529 1338
8 36219 36220 36225 36224 36524 36525 36530 36529
8 36220 36221 36226 36225 36525 36526 36531 36530
8 36221 36222 36227 36226 36526 36527 36532 36531
8 36222 36223 36228 36227 36527 36528 36533 36532
8 36223 7278 7277 36228 36528 7217 7216 36533
8 1399 36224 36229 1400 1338 36529 36534 1339
8 36224 36225 36230 36229 36529 36530 36535 36534
8 36225 36226 36231 36230 36530 36531 36536 36535
8 36226 36227 36232 36231 36531 36532 36537 36536
8 36227 36228 36233 36232 36532 36533 36538 36537
8 36228 7277 7276 36233 36533 7216 7215 36538
8 1400 36229 36234 1401 1339 36534 36539 1340
8 36229 36230 36235 36234 36534 36535 36540 36539
8 36230 36231 36236 36235 36535 36536 36541 36540
8 36231 36232 36237 36236 36536 36537 36542 36541
8 36232 36233 36238 36237 36537 36538 36543 36542
8 36233 7276 7275 36238 36538 7215 7214 36543
8 1401 36234 36239 1402 1340 36539 36544 1341
8 36234 36235 36240 36239 36539 36540 36545 36544
8 36235 36236 36241 36240 36540 36541 36546 36545
8 36236 36237 36242 36241 36541 36542 36547 36546
8 36237 36238 36243 36242 36542 36543 36548 36547
8 36238 7275 7274 36243 36543 7214 7213 36548
8 1402 36239 36244 1403 1341 36544 36549 1342
8 36239 36240 36245 36244 36544 36545 36550 36549
8 36240 36241 36246 36245 36545 36546 36551 36550
8 36241 36242 36247 36246 36546 36547 36552 36551
8 36242 36243 36248 36247 36547 36548 36553 36552
8 36243 7274 7273 36248 36548 7213 7212 36553
8 1403 36244 36249 1404 1342 36549 36554 1343
8 36244 36245 36250 36249 36549 36550 36555 36554
8 36245 36246 36251 36250 36550 36551 36556 36555
8 36246 36247 36252 36251 36551 36552 36557 36556
8 36247 36248 36253 36252 36552 36553 36558 36557
8 36248 7273 7272 36253 36553 7212 7211 36558
8 1404 36249 36254 1405 1343 36554 36559 1344
8 36249 36250 36255 36254 36554 36555 36560 36559
8 36250 36251 36256 36255 36555 36556 36561 36560
8 36251 36252 36257 36256 36556 36557 36562 36561
8 36252 36253 36258 36257 36557 36558 36563 36562
8 36253 7272 7271 36258 36558 7211 7210 36563
8 1405 36254 36259 1406 1344 36559 36564 1345
8 36254 36255 36260 36259 36559 36560 36565 36564
8 36255 36256 36261 36260 36560 36561 36566 36565
8 36256 36257 36262 36261 36561 36562 36567 36566
8 36257 36258 36263 36262 36562 36563 36568 36567
8 36258 7271 7270 36263 36563 7210 7209 36568
8 1406 36259 36264 1407 1345 36564 36569 1346
8 36259 36260 36265 36264 36564 36565 36570 36569
8 36260 36261 36266 36265 36565 36566 36571 36570
8 36261 36262 36267 36266 36566 36567 36572 36571
8 36262 36263 36268 36267 36567 36568 36573 36572
8 36263 7270 7269 36268 36568 7209 7208 36573
8 1407 36264 12714 81 1346 36569 12709 80
8 36264 36265 12715 12714 36569 36570 12710 12709
8 36265 36266 12716 12715 36570 36571 12711 12710
8 36266 36267 12717 12716 36571 36572 12712 12711
8 36267 36268 12718 12717 36572 36573 12713 12712
8 36268 7269 6214 12718 36573 7208 6215 12713
8 293 12229 36269 1286 294 12234 36574 1225
8 12229 12230 36270 36269 12234 12235 36575 36574
8 12230 12231 36271 36270 12235 12236 36576 36575
8 12231 12232 36272 36271 12236 12237 36577 36576
8 12232 12233 36273 36272 12237 12238 36578 36577
8 12233 6002 7268 36273 12238 6001 7207 36578
8 1286 36269 36274 1287 1225 36574 36579 1226
8 36269 36270 36275 36274 36574 36575 36580 36579
8 36270 36271 36276 36275 36575 36576 36581 36580
8 36271 36272 36277 36276 36576 36577 36582 36581
8 36272 36273 36278 36277 36577 36578 36583 36582
8 36273 7268 7267 36278 36578 7207 7206 36583
8 1287 36274 36279 1288 1226 36579 36584 1227
8 36274 36275 36280 36279 36579 36580 36585 36584
8 36275 36276 36281 36280 36580 36581 36586 36585
8 36276 36277 36282 36281 36581 36582 36587 36586
8 36277 36278 36283 36282 36582 36583 36588 36587
8 36278 7267 7266 36283 36583 7206 7205 36588
8 1288 36279 36284 1289 1227 36584 36589 1228
8 36279 36280 36285 36284 36584 36585 36590 36589
8 36280 36281 36286 36285 36585 36586 36591 36590
8 36281 36282 36287 36286 36586 36587 36592 36591
8 36282 36283 36288 36287 36587 36588 36593 36592
8 36283 7266 7265 36288 36588 7205 7204 36593
8 1289 36284 36289 1290 1228 36589 36594 1229
8 36284 36285 36290 36289 36589 36590 36595 36594
8 36285 36286 36291 36290 36590 36591 36596 36595
8 36286 36287 36292 36291 36591 36592 36597 36596
8 36287 36288 36293 36292 36592 36593 36598 36597
8 36288 7265 7264 36293 36593 7204 7203 36598
8 1290 36289 36294 1291 1229 36594 36599 1230
8 36289 36290 36295 36294 36594 36595 36600 36599
8 36290 36291 36296 36295 36595 36596 36601 36600
8 36291 36292 36297 36296 36596 36597 36602 36601
8 36292 36293 36298 36297 36597 36598 36603 36602
8 36293 7264 7263 36298 36598 7203 7202 36603
8 1291 36294 36299 1292 1230 36599 36604 1231
8 36294 36295 36300 36299 36599 36600 36605 36604
8 36295 36296 36301 36300 36600 36601 36606 36605
8 36296 36297 36302 36301 36601 36602 36607 36606
8 36297 36298 36303 36302 36602 36603 36608 36607
8 36298 7263 7262 36303 36603 7202 7201 36608
8 1292 36299 36304 1293 1231 36604 36609 1232
8 36299 36300 36305 36304 36604 36605 36610 36609
8 36300 36301 36306 36305 36605 36606 36611 36610
8 36301 36302 36307 36306 36606 36607 36612 36611
8 36302 36303 36308 36307 36607 36608 36613 36612
8 36303 7262 7261 36308 36608 7201 7200 36613
8 1293 36304 36309 1294 1232 36609 36614 1233
8 36304 36305 36310 36309 36609 36610 36615 36614
8 36305 36306 36311 36310 36610 36611 36616 36615
8 36306 36307 36312 36311 36611 36612 36617 36616
8 36307 36308 36313 36312 36612 36613 36618 36617
8 36308 7261 7260 36313 36613 7200 7199 36618
8 1294 36309 36314 1295 1233 36614 36619 1234
8 36309 36310 36315 36314 36614 36615 36620 36619
8 36310 36311 36316 36315 36615 36616 36621 36620
8 36311 36312 36317 36316 36616 36617 36622 36621
8 36312 36313 36318 36317 36617 36618 36623 36622
8 36313 7260 7259 36318 36618 7199 7198 36623
8 1295 36314 36319 1296 1234 36619 36624 1235
8 36314 36315 36320 36319 36619 36620 36625 36624
8 36315 36316 36321 36320 36620 36621 36626 36625
8 36316 36317 36322 36321 36621 36622 36627 36626
8 36317 36318 36323 36322 36622 36623 36628 36627
8 36318 7259 7258 36323 36623 7198 7197 36628
8 1296 36319 36324 1297 1235 36624 36629 1236
8 36319 36320 36325 36324 36624 36625 36630 36629
8 36320 36321 36326 36325 36625 36626 36631 36630
8 36321 36322 36327 36326 36626 36627 36632 36631
8 36322 36323 36328 36327 36627 36628 36633 36632
8 36323 7258 7257 36328 36628 7197 7196 36633
8 1297 36324 36329 1298 1236 36629 36634 1237
8 36324 36325 36330 36329 36629 36630 36635 36634
8 36325 36326 36331 36330 36630 36631 36636 36635
8 36326 36327 36332 36331 36631 36632 36637 36636
8 36327 36328 36333 36332 36632 36633 36638 36637
8 36328 7257 7256 36333 36633 7196 7195 36638
8 1298 36329 36334 1299 1237 36634 36639 1238
8 36329 36330 36335 36334 36634 36635 36640 36639
8 36330 36331 36336 36335 36635 36636 36641 36640
8 36331 36332 36337 36336 36636 36637 36642 36641
8 36332 36333 36338 36337 36637 36638 36643 36642
8 36333 7256 7255 36338 36638 7195 7194 36643
8 1299 36334 36339 1300 1238 36639 36644 1239
8 36334 36335 36340 36339 36639 36640 36645 36644
8 36335 36336 36341 36340 36640 36641 36646 36645
8 36336 36337 36342 36341 36641 36642 36647 36646
8 36337 36338 36343 36342 36642 36643 36648 36647
8 36338 7255 7254 36343 36643 7194 7193 36648
8 1300 36339 36344 1301 1239 36644 36649 1240
8 36339 36340 36345 36344 36644 36645 36650 36649
8 36340 36341 36346 36345 36645 36646 36651 36650
8 36341 36342 36347 36346 36646 36647 36652 36651
8 36342 36343 36348 36347 36647 36648 36653 36652
8 36343 7254 7253 36348 36648 7193 7192 36653
8 1301 36344 36349 1302 1240 36649 36654 1241
8 36344 36345 36350 36349 36649 36650 36655 36654
8 36345 36346 36351 36350 36650 36651 36656 36655
8 36346 36347 36352 36351 36651 36652 36657 36656
8 36347 36348 36353 36352 36652 36653 36658 36657
8 36348 7253 7252 36353 36653 7192 7191 36658
8 1302 36349 36354 1303 1241 36654 36659 1242
8 36349 36350 36355 36354 36654 36655 36660 36659
8 36350 36351 36356 36355 36655 36656 36661 36660
8 36351 36352 36357 36356 36656 36657 36662 36661
8 36352 36353 36358 36357 36657 36658 36663 36662
8 36353 7252 7251 36358 36658 7191 7190 36663
8 1303 36354 36359 1304 1242 36659 36664 1243
8 36354 36355 36360 36359 36659 36660 36665 36664
8 36355 36356 36361 36360 36660 36661 36666 36665
8 36356 36357 36362 36361 36661 36662 36667 36666
8 36357 36358 36363 36362 36662 36663 36668 36667
8 36358 7251 7250 36363 36663 7190 7189 36668
8 1304 36359 36364 1305 1243 36664 36669 1244
8 36359 36360 36365 36364 36664 36665 36670 36669
8 36360 36361 36366 36365 36665 36666 36671 36670
8 36361 36362 36367 36366 36666 36667 36672 36671
8 36362 36363 36368 36367 36667 36668 36673 36672
8 36363 7250 7249 36368 36668 7189 7188 36673
8 1305 36364 36369 1306 1244 36669 36674 1245
8 36364 36365 36370 36369 36669 36670 36675 36674
8 36365 36366 36371 36370 36670 36671 36676 36675
8 36366 36367 36372 36371 36671 36672 36677 36676
8 36367 36368 36373 36372 36672 36673 36678 36677
8 36368 7249 7248 36373 36673 7188 7187 36678
8 1306 36369 36374 1307 1245 36674 36679 1246
8 36369 36370 36375 36374 36674 36675 36680 36679
8 36370 36371 36376 36375 36675 36676 36681 36680
8 36371 36372 36377 36376 36676 36677 36682 36681
8 36372 36373 36378 36377 36677 36678 36683 36682
8 36373 7248 7247 36378 36678 7187 7186 36683
8 36374 36375 36380 36379 36679 36680 36685 36684
8 36375 36376 36381 36380 36680 36681 36686 36685
8 36376 36377 36382 36381 36681 36682 36687 36686
8 36377 36378 36383 36382 36682 36683 36688 36687
8 36378 7247 7246 36383 36683 7186 7185 36688
8 36379 36380 36385 36384 36684 36685 36690 36689
8 36380 36381 36386 36385 36685 36686 36691 36690
8 36381 36382 36387 36386 36686 36687 36692 36691
8 36382 36383 36388 36387 36687 36688 36693 36692
8 36383 7246 7245 36388 36688 7185 7184 36693
8 36384 36385 36390 36389 36689 36690 36695 36694
8 36385 36386 36391 36390 36690 36691 36696 36695
8 36386 36387 36392 36391 36691 36692 36697 36696
8 36387 36388 36393 36392 36692 36693 36698 36697
8 36388 7245 7244 36393 36693 7184 7183 36698
8 36389 36390 36395 36394 36694 36695 36700 36699
8 36390 36391 36396 36395 36695 36696 36701 36700
8 36391 36392 36397 36396 36696 36697 36702 36701
8 36392 36393 36398 36397 36697 36698 36703 36702
8 36393 7244 7243 36398 36698 7183 7182 36703
8 36394 36395 36400 36399 36699 36700 36705 36704
8 36395 36396 36401 36400 36700 36701 36706 36705
8 36396 36397 36402 36401 36701 36702 36707 36706
8 36397 36398 36403 36402 36702 36703 36708 36707
8 36398 7243 7242 36403 36703 7182 7181 36708
8 1312 36399 36404 1313 1251 36704 36709 1252
8 36399 36400 36405 36404 36704 36705 36710 36709
8 36400 36401 36406 36405 36705 36706 36711 36710
8 36401 36402 36407 36406 36706 36707 36712 36711
8 36402 36403 36408 36407 36707 36708 36713 36712
8 36403 7242 7241 36408 36708 7181 7180 36713
8 1313 36404 36409 1314 1252 36709 36714 1253
8 36404 36405 36410 36409 36709 36710 36715 36714
8 36405 36406 36411 36410 36710 36711 36716 36715
8 36406 36407 36412 36411 36711 36712 36717 36716
8 36407 36408 36413 36412 36712 36713 36718 36717
8 36408 7241 7240 36413 36713 7180 7179 36718
8 1314 36409 36414 1315 1253 36714 36719 1254
8 36409 36410 36415 36414 36714 36715 36720 36719
8 36410 36411 36416 36415 36715 36716 36721 36720
8 36411 36412 36417 36416 36716 36717 36722 36721
8 36412 36413 36418 36417 36717 36718 36723 36722
8 36413 7240 7239 36418 36718 7179 7178 36723
8 1315 36414 36419 1316 1254 36719 36724 1255
8 36414 36415 36420 36419 36719 36720 36725 36724
8 36415 36416 36421 36420 36720 36721 36726 36725
8 36416 36417 36422 36421 36721 36722 36727 36726
8 36417 36418 36423 36422 36722 36723 36728 36727
8 36418 7239 7238 36423 36723 7178 7177 36728
8 1316 36419 36424 1317 1255 36724 36729 1256
8 36419 36420 36425 36424 36724 36725 36730 36729
8 36420 36421 36426 36425 36725 36726 36731 36730
8 36421 36422 36427 36426 36726 36727 36732 36731
8 36422 36423 36428 36427 36727 36728 36733 36732
8 36423 7238 7237 36428 36728 7177 7176 36733
8 1317 36424 36429 1318 1256 36729 36734 1257
8 36424 36425 36430 36429 36729 36730 36735 36734
8 36425 36426 36431 36430 36730 36731 36736 36735
8 36426 36427 36432 36431 36731 36732 36737 36736
8 36427 36428 36433 36432 36732 36733 36738 36737
8 36428 7237 7236 36433 36733 7176 7175 36738
8 1318 36429 36434 1319 1257 36734 36739 1258
8 36429 36430 36435 36434 36734 36735 36740 36739
8 36430 36431 36436 36435 36735 36736 36741 36740
8 36431 36432 36437 36436 36736 36737 36742 36741
8 36432 36433 36438 36437 36737 36738 36743 36742
8 36433 7236 7235 36438 36738 7175 7174 36743
8 1319 36434 36439 1320 1258 36739 36744 1259
8 36434 36435 36440 36439 36739 36740 36745 36744
8 36435 36436 36441 36440 36740 36741 36746 36745
8 36436 36437 36442 36441 36741 36742 36747 36746
8 36437 36438 36443 36442 36742 36743 36748 36747
8 36438 7235 7234 36443 36743 7174 7173 36748
8 1320 36439 36444 1321 1259 36744 36749 1260
8 36439 36440 36445 36444 36744 36745 36750 36749
8 36440 36441 36446 36445 36745 36746 36751 36750
8 36441 36442 36447 36446 36746 36747 36752 36751
8 36442 36443 36448 36447 36747 36748 36753 36752
8 36443 7234 7233 36448 36748 7173 7172 36753
8 1321 36444 36449 1322 1260 36749 36754 1261
8 36444 36445 36450 36449 36749 36750 36755 36754
8 36445 36446 36451 36450 36750 36751 36756 36755
8 36446 36447 36452 36451 36751 36752 36757 36756
8 36447 36448 36453 36452 36752 36753 36758 36757
8 36448 7233 7232 36453 36753 7172 7171 36758
8 1322 36449 36454 1323 1261 36754 36759 1262
8 36449 36450 36455 36454 36754 36755 36760 36759
8 36450 36451 36456 36455 36755 36756 36761 36760
8 36451 36452 36457 36456 36756 36757 36762 36761
8 36452 36453 36458 36457 36757 36758 36763 36762
8 36453 7232 7231 36458 36758 7171 7170 36763
8 1323 36454 36459 1324 1262 36759 36764 1263
8 36454 36455 36460 36459 36759 36760 36765 36764
8 36455 36456 36461 36460 36760 36761 36766 36765
8 36456 36457 36462 36461 36761 36762 36767 36766
8 36457 36458 36463 36462 36762 36763 36768 36767
8 36458 7231 7230 36463 36763 7170 7169 36768
8 1324 36459 36464 1325 1263 36764 36769 1264
8 36459 36460 36465 36464 36764 36765 36770 36769
8 36460 36461 36466 36465 36765 36766 36771 36770
8 36461 36462 36467 36466 36766 36767 36772 36771
8 36462 36463 36468 36467 36767 36768 36773 36772
8 36463 7230 7229 36468 36768 7169 7168 36773
8 1325 36464 36469 1326 1264 36769 36774 1265
8 36464 36465 36470 36469 36769 36770 36775 36774
8 36465 36466 36471 36470 36770 36771 36776 36775
8 36466 36467 36472 36471 36771 36772 36777 36776
8 36467 36468 36473 36472 36772 36773 36778 36777
8 36468 7229 7228 36473 36773 7168 7167 36778
8 1326 36469 36474 1327 1265 36774 36779 1266
8 36469 36470 36475 36474 36774 36775 36780 36779
8 36470 36471 36476 36475 36775 36776 36781 36780
8 36471 36472 36477 36476 36776 36777 36782 36781
8 36472 36473 36478 36477 36777 36778 36783 36782
8 36473 7228 7227 36478 36778 7167 7166 36783
8 1327 36474 36479 1328 1266 36779 36784 1267
8 36474 36475 36480 36479 36779 36780 36785 36784
8 36475 36476 36481 36480 36780 36781 36786 36785
8 36476 36477 36482 36481 36781 36782 36787 36786
8 36477 36478 36483 36482 36782 36783 36788 36787
8 36478 7227 7226 36483 36783 7166 7165 36788
8 1328 36479 36484 1329 1267 36784 36789 1268
8 36479 36480 36485 36484 36784 36785 36790 36789
8 36480 36481 36486 36485 36785 36786 36791 36790
8 36481 36482 36487 36486 36786 36787 36792 36791
8 36482 36483 36488 36487 36787 36788 36793 36792
8 36483 7226 7225 36488 36788 7165 7164 36793
8 1329 36484 36489 1330 1268 36789 36794 1269
8 36484 36485 36490 36489 36789 36790 36795 36794
8 36485 36486 36491 36490 36790 36791 36796 36795
8 36486 36487 36492 36491 36791 36792 36797 36796
8 36487 36488 36493 36492 36792 36793 36798 36797
8 36488 7225 7224 36493 36793 7164 7163 36798
8 1330 36489 36494 1331 1269 36794 36799 1270
8 36489 36490 36495 36494 36794 36795 36800 36799
8 36490 36491 36496 36495 36795 36796 36801 36800
8 36491 36492 36497 36496 36796 36797 36802 36801
8 36492 36493 36498 36497 36797 36798 36803 36802
8 36493 7224 7223 36498 36798 7163 7162 36803
8 1331 36494 36499 1332 1270 36799 36804 1271
8 36494 36495 36500 36499 36799 36800 36805 36804
8 36495 36496 36501 36500 36800 36801 36806 36805
8 36496 36497 36502 36501 36801 36802 36807 36806
8 36497 36498 36503 36502 36802 36803 36808 36807
8 36498 7223 7222 36503 36803 7162 7161 36808
8 36499 36500 36505 36504 36804 36805 36810 36809
8 36500 36501 36506 36505 36805 36806 36811 36810
8 36501 36502 36507 36506 36806 36807 36812 36811
8 36502 36503 36508 36507 36807 36808 36813 36812
8 36503 7222 7221 36508 36808 7161 7160 36813
8 36504 36505 36510 36509 36809 36810 36815 36814
8 36505 36506 36511 36510 36810 36811 36816 36815
8 36506 36507 36512 36511 36811 36812 36817 36816
8 36507 36508 36513 36512 36812 36813 36818 36817
8 36508 7221 7220 36513 36813 7160 7159 36818
8 36509 36510 36515 36514 36814 36815 36820 36819
8 36510 36511 36516 36515 36815 36816 36821 36820
8 36511 36512 36517 36516 36816 36817 36822 36821
8 36512 36513 36518 36517 36817 36818 36823 36822
8 36513 7220 7219 36518 36818 7159 7158 36823
8 36514 36515 36520 36519 36819 36820 36825 36824
8 36515 36516 36521 36520 36820 36821 36826 36825
8 36516 36517 36522 36521 36821 36822 36827 36826
8 36517 36518 36523 36522 36822 36823 36828 36827
8 36518 7219 7218 36523 36823 7158 7157 36828
8 36519 36520 36525 36524 36824 36825 36830 36829
8 36520 36521 36526 36525 36825 36826 36831 36830
8 36521 36522 36527 36526 36826 36827 36832 36831
8 36522 36523 36528 36527 36827 36828 36833 36832
8 36523 7218 7217 36528 36828 7157 7156 36833
8 1337 36524 36529 1338 1276 36829 36834 1277
8 36524 36525 36530 36529 36829 36830 36835 36834
8 36525 36526 36531 36530 36830 36831 36836 36835
8 36526 36527 36532 36531 36831 36832 36837 36836
8 36527 36528 36533 36532 36832 36833 36838 36837
8 36528 7217 7216 36533 36833 7156 7155 36838
8 1338 36529 36534 1339 1277 36834 36839 1278
8 36529 36530 36535 36534 36834 36835 36840 36839
8 36530 36531 36536 36535 36835 36836 36841 36840
8 36531 36532 36537 36536 36836 36837 36842 36841
8 36532 36533 36538 36537 36837 36838 36843 36842
8 36533 7216 7215 36538 36838 7155 7154 36843
8 1339 36534 36539 1340 1278 36839 36844 1279
8 36534 36535 36540 36539 36839 36840 36845 36844
8 36535 36536 36541 36540 36840 36841 36846 36845
8 36536 36537 36542 36541 36841 36842 36847 36846
8 36537 36538 36543 36542 36842 36843 36848 36847
8 36538 7215 7214 36543 36843 7154 7153 36848
8 1340 36539 36544 1341 1279 36844 36849 1280
8 36539 36540 36545 36544 36844 36845 36850 36849
8 36540 36541 36546 36545 36845 36846 36851 36850
8 36541 36542 36547 36546 36846 36847 36852 36851
8 36542 36543 36548 36547 36847 36848 36853 36852
8 36543 7214 7213 36548 36848 7153 7152 36853
8 1341 36544 36549 1342 1280 36849 36854 1281
8 36544 36545 36550 36549 36849 36850 36855 36854
8 36545 36546 36551 36550 36850 36851 36856 36855
8 36546 36547 36552 36551 36851 36852 36857 36856
8 36547 36548 36553 36552 36852 36853 36858 36857
8 36548 7213 7212 36553 36853 7152 7151 36858
8 1342 36549 36554 1343 1281 36854 36859 1282
8 36549 36550 36555 36554 36854 36855 36860 36859
8 36550 36551 36556 36555 36855 36856 36861 36860
8 36551 36552 36557 36556 36856 36857 36862 36861
8 36552 36553 36558 36557 36857 36858 36863 36862
8 36553 7212 7211 36558 36858 7151 7150 36863
8 1343 36554 36559 1344 1282 36859 36864 1283
8 36554 36555 36560 36559 36859 36860 36865 36864
8 36555 36556 36561 36560 36860 36861 36866 36865
8 36556 36557 36562 36561 36861 36862 36867 36866
8 36557 36558 36563 36562 36862 36863 36868 36867
8 36558 7211 7210 36563 36863 7150 7149 36868
8 1344 36559 36564 1345 1283 36864 36869 1284
8 36559 36560 36565 36564 36864 36865 36870 36869
8 36560 36561 36566 36565 36865 36866 36871 36870
8 36561 36562 36567 36566 36866 36867 36872 36871
8 36562 36563 36568 36567 36867 36868 36873 36872
8 36563 7210 7209 36568 36868 7149 7148 36873
8 1345 36564 36569 1346 1284 36869 36874 1285
8 36564 36565 36570 36569 36869 36870 36875 36874
8 36565 36566 36571 36570 36870 36871 36876 36875
8 36566 36567 36572 36571 36871 36872 36877 36876
8 36567 36568 36573 36572 36872 36873 36878 36877
8 36568 7209 7208 36573 36873 7148 7147 36878
8 1346 36569 12709 80 1285 36874 12704 79
8 36569 36570 12710 12709 36874 36875 12705 12704
8 36570 36571 12711 12710 36875 36876 12706 12705
8 36571 36572 12712 12711 36876 36877 12707 12706
8 36572 36573 12713 12712 36877 36878 12708 12707
8 36573 7208 6215 12713 36878 7147 6216 12708
8 294 12234 36574 1225 295 12239 36879 1164
8 12234 12235 36575 36574 12239 12240 36880 36879
8 12235 12236 36576 36575 12240 12241 36881 36880
8 12236 12237 36577 36576 12241 12242 36882 36881
8 12237 12238 36578 36577 12242 12243 36883 36882
8 12238 6001 7207 36578 12243 6000 7146 36883
8 1225 36574 36579 1226 1164 36879 36884 1165
8 36574 36575 36580 36579 36879 36880 36885 36884
8 36575 36576 36581 36580 36880 36881 36886 36885
8 36576 36577 36582 36581 36881 36882 36887 36886
8 36577 36578 36583 36582 36882 36883 36888 36887
8 36578 7207 7206 36583 36883 7146 7145 36888
8 1226 36579 36584 1227 1165 36884 36889 1166
8 36579 36580 36585 36584 36884 36885 36890 36889
8 36580 36581 36586 36585 36885 36886 36891 36890
8 36581 36582 36587 36586 36886 36887 36892 36891
8 36582 36583 36588 36587 36887 36888 36893 36892
8 36583 7206 7205 36588 36888 7145 7144 36893
8 1227 36584 36589 1228 1166 36889 36894 1167
8 36584 36585 36590 36589 36889 36890 36895 36894
8 36585 36586 36591 36590 36890 36891 36896 36895
8 36586 36587 36592 36591 36891 36892 36897 36896
8 36587 36588 36593 36592 36892 36893 36898 36897
8 36588 7205 7204 36593 36893 7144 7143 36898
8 1228 36589 36594 1229 1167 36894 36899 1168
8 36589 36590 36595 36594 36894 36895 36900 36899
8 36590 36591 36596 36595 36895 36896 36901 36900
8 36591 36592 36597 36596 36896 36897 36902 36901
8 36592 36593 36598 36597 36897 36898 36903 36902
8 36593 7204 7203 36598 36898 7143 7142 36903
8 1229 36594 36599 1230 1168 36899 36904 1169
8 36594 36595 36600 36599 36899 36900 36905 36904
8 36595 36596 36601 36600 36900 36901 36906 36905
8 36596 36597 36602 36601 36901 36902 36907 36906
8 36597 36598 36603 36602 36902 36903 36908 36907
8 36598 7203 7202 36603 36903 7142 7141 36908
8 1230 36599 36604 1231 1169 36904 36909 1170
8 36599 36600 36605 36604 36904 36905 36910 36909
8 36600 36601 36606 36605 36905 36906 36911 36910
8 36601 36602 36607 36606 36906 36907 36912 36911
8 36602 36603 36608 36607 36907 36908 36913 36912
8 36603 7202 7201 36608 36908 7141 7140 36913
8 1231 36604 36609 1232 1170 36909 36914 1171
8 36604 36605 36610 36609 36909 36910 36915 36914
8 36605 36606 36611 36610 36910 36911 36916 36915
8 36606 36607 36612 36611 36911 36912 36917 36916
8 36607 36608 36613 36612 36912 36913 36918 36917
8 36608 7201 7200 36613 36913 7140 7139 36918
8 1232 36609 36614 1233 1171 36914 36919 1172
8 36609 36610 36615 36614 36914 36915 36920 36919
8 36610 36611 36616 36615 36915 36916 36921 36920
8 36611 36612 36617 36616 36916 36917 36922 36921
8 36612 36613 36618 36617 36917 36918 36923 36922
8 36613 7200 7199 36618 36918 7139 7138 36923
8 1233 36614 36619 1234 1172 36919 36924 1173
8 36614 36615 36620 36619 36919 36920 36925 36924
8 36615 36616 36621 36620 36920 36921 36926 36925
8 36616 36617 36622 36621 36921 36922 36927 36926
8 36617 36618 36623 36622 36922 36923 36928 36927
8 36618 7199 7198 36623 36923 7138 7137 36928
8 1234 36619 36624 1235 1173 36924 36929 1174
8 36619 36620 36625 36624 36924 36925 36930 36929
8 36620 36621 36626 36625 36925 36926 36931 36930
8 36621 36622 36627 36626 36926 36927 36932 36931
8 36622 36623 36628 36627 36927 36928 36933 36932
8 36623 7198 7197 36628 36928 7137 7136 36933
8 1235 36624 36629 1236 1174 36929 36934 1175
8 36624 36625 36630 36629 36929 36930 36935 36934
8 36625 36626 36631 36630 36930 36931 36936 36935
8 36626 36627 36632 36631 36931 36932 36937 36936
8 36627 36628 36633 36632 36932 36933 36938 36937
8 36628 7197 7196 36633 36933 7136 7135 36938
8 1236 36629 36634 1237 1175 36934 36939 1176
8 36629 36630 36635 36634 36934 36935 36940 36939
8 36630 36631 36636 36635 36935 36936 36941 36940
8 36631 36632 36637 36636 36936 36937 36942 36941
8 36632 36633 36638 36637 36937 36938 36943 36942
8 36633 7196 7195 36638 36938 7135 7134 36943
8 1237 36634 36639 1238 1176 36939 36944 1177
8 36634 36635 36640 36639 36939 36940 36945 36944
8 36635 36636 36641 36640 36940 36941 36946 36945
8 36636 36637 36642 36641 36941 36942 36947 36946
8 36637 36638 36643 36642 36942 36943 36948 36947
8 36638 7195 7194 36643 36943 7134 7133 36948
8 1238 36639 36644 1239 1177 36944 36949 1178
8 36639 36640 36645 36644 36944 36945 36950 36949
8 36640 36641 36646 36645 36945 36946 36951 36950
8 36641 36642 36647 36646 36946 36947 36952 36951
8 36642 36643 36648 36647 36947 36948 36953 36952
8 36643 7194 7193 36648 36948 7133 7132 36953
8 1239 36644 36649 1240 1178 36949 36954 1179
8 36644 36645 36650 36649 36949 36950 36955 36954
8 36645 36646 36651 36650 36950 36951 36956 36955
8 36646 36647 36652 36651 36951 36952 36957 36956
8 36647 36648 36653 36652 36952 36953 36958 36957
8 36648 7193 7192 36653 36953 7132 7131 36958
8 1240 36649 36654 1241 1179 36954 36959 1180
8 36649 36650 36655 36654 36954 36955 36960 36959
8 36650 36651 36656 36655 36955 36956 36961 36960
8 36651 36652 36657 36656 36956 36957 36962 36961
8 36652 36653 36658 36657 36957 36958 36963 36962
8 36653 7192 7191 36658 36958 7131 7130 36963
8 1241 36654 36659 1242 1180 36959 36964 1181
8 36654 36655 36660 36659 36959 36960 36965 36964
8 36655 36656 36661 36660 36960 36961 36966 36965
8 36656 36657 36662 36661 36961 36962 36967 36966
8 36657 36658 36663 36662 36962 36963 36968 36967
8 36658 7191 7190 36663 36963 7130 7129 36968
8 1242 36659 36664 1243 1181 36964 36969 1182
8 36659 36660 36665 36664 36964 36965 36970 36969
8 36660 36661 36666 36665 36965 36966 36971 36970
8 36661 36662 36667 36666 36966 36967 36972 36971
8 36662 36663 36668 36667 36967 36968 36973 36972
8 36663 7190 7189 36668 36968 7129 7128 36973
8 1243 36664 36669 1244 1182 36969 36974 1183
8 36664 36665 36670 36669 36969 36970 36975 36974
8 36665 36666 36671 36670 36970 36971 36976 36975
8 36666 36667 36672 36671 36971 36972 36977 36976
8 36667 36668 36673 36672 36972 36973 36978 36977
8 36668 7189 7188 36673 36973 7128 7127 36978
8 1244 36669 36674 1245 1183 36974 36979 1184
8 36669 36670 36675 36674 36974 36975 36980 36979
8 36670 36671 36676 36675 36975 36976 36981 36980
8 36671 36672 36677 36676 36976 36977 36982 36981
8 36672 36673 36678 36677 36977 36978 36983 36982
8 36673 7188 7187 36678 36978 7127 7126 36983
8 1245 36674 36679 1246 1184 36979 36984 1185
8 36674 36675 36680 36679 36979 36980 36985 36984
8 36675 36676 36681 36680 36980 36981 36986 36985
8 36676 36677 36682 36681 36981 36982 36987 36986
8 36677 36678 36683 36682 36982 36983 36988 36987
8 36678 7187 7186 36683 36983 7126 7125 36988
8 36679 36680 36685 36684 36984 36985 36990 36989
8 36680 36681 36686 36685 36985 36986 36991 36990
8 36681 36682 36687 36686 36986 36987 36992 36991
8 36682 36683 36688 36687 36987 36988 36993 36992
8 36683 7186 7185 36688 36988 7125 7124 36993
8 36684 36685 36690 36689 36989 36990 36995 36994
8 36685 36686 36691 36690 36990 36991 36996 36995
8 36686 36687 36692 36691 36991 36992 36997 36996
8 36687 36688 36693 36692 36992 36993 36998 36997
8 36688 7185 7184 36693 36993 7124 7123 36998
8 36689 36690 36695 36694 36994 36995 37000 36999
8 36690 36691 36696 36695 36995 36996 37001 37000
8 36691 36692 36697 36696 36996 36997 37002 37001
8 36692 36693 36698 36697 36997 36998 37003 37002
8 36693 7184 7183 36698 36998 7123 7122 37003
8 36694 36695 36700 36699 36999 37000 37005 37004
8 36695 36696 36701 36700 37000 37001 37006 37005
8 36696 36697 36702 36701 37001 37002 37007 37006
8 36697 36698 36703 36702 37002 37003 37008 37007
8 36698 7183 7182 36703 37003 7122 7121 37008
8 36699 36700 36705 36704 37004 37005 37010 37009
8 36700 36701 36706 36705 37005 37006 37011 37010
8 36701 36702 36707 36706 37006 37007 37012 37011
8 36702 36703 36708 36707 37007 37008 37013 37012
8 36703 7182 7181 36708 37008 7121 7120 37013
8 1251 36704 36709 1252 1190 37009 37014 1191
8 36704 36705 36710 36709 37009 37010 37015 37014
8 36705 36706 36711 36710 37010 37011 37016 37015
8 36706 36707 36712 36711 37011 37012 37017 37016
8 36707 36708 36713 36712 37012 37013 37018 37017
8 36708 7181 7180 36713 37013 7120 7119 37018
8 1252 36709 36714 1253 1191 37014 37019 1192
8 36709 36710 36715 36714 37014 37015 37020 37019
8 36710 36711 36716 36715 37015 37016 37021 37020
8 36711 36712 36717 36716 37016 37017 37022 37021
8 36712 36713 36718 36717 37017 37018 37023 37022
8 36713 7180 7179 36718 37018 7119 7118 37023
8 1253 36714 36719 1254 1192 37019 37024 1193
8 36714 36715 36720 36719 37019 37020 37025 37024
8 36715 36716 36721 36720 37020 37021 37026 37025
8 36716 36717 36722 36721 37021 37022 37027 37026
8 36717 36718 36723 36722 37022 37023 37028 37027
8 36718 7179 7178 36723 37023 7118 7117 37028
8 1254 36719 36724 1255 1193 37024 37029 1194
8 36719 36720 36725 36724 37024 37025 37030 37029
8 36720 36721 36726 36725 37025 37026 37031 37030
8 36721 36722 36727 36726 37026 37027 37032 37031
8 36722 36723 36728 36727 37027 37028 37033 37032
8 36723 7178 7177 36728 37028 7117 7116 37033
8 1255 36724 36729 1256 1194 37029 37034 1195
8 36724 36725 36730 36729 37029 37030 37035 37034
8 36725 36726 36731 36730 37030 37031 37036 37035
8 36726 36727 36732 36731 37031 37032 37037 37036
8 36727 36728 36733 36732 37032 37033 37038 37037
8 36728 7177 7176 36733 37033 7116 7115 37038
8 1256 36729 36734 1257 1195 37034 37039 1196
8 36729 36730 36735 36734 37034 37035 37040 37039
8 36730 36731 36736 36735 37035 37036 37041 37040
8 36731 36732 36737 36736 37036 37037 37042 37041
8 36732 36733 36738 36737 37037 37038 37043 37042
8 36733 7176 7175 36738 37038 7115 7114 37043
8 1257 36734 36739 1258 1196 37039 37044 1197
8 36734 36735 36740 36739 37039 37040 37045 37044
8 36735 36736 36741 36740 37040 37041 37046 37045
8 36736 36737 36742 36741 37041 37042 37047 37046
8 36737 36738 36743 36742 37042 37043 37048 37047
8 36738 7175 7174 36743 37043 7114 7113 37048
8 1258 36739 36744 1259 1197 37044 37049 1198
8 36739 36740 36745 36744 37044 37045 37050 37049
8 36740 36741 36746 36745 37045 37046 37051 37050
8 36741 36742 36747 36746 37046 37047 37052 37051
8 36742 36743 36748 36747 37047 37048 37053 37052
8 36743 7174 7173 36748 37048 7113 7112 37053
8 1259 36744 36749 1260 1198 37049 37054 1199
8 36744 36745 36750 36749 37049 37050 37055 37054
8 36745 36746 36751 36750 37050 37051 37056 37055
8 36746 36747 36752 36751 37051 37052 37057 37056
8 36747 36748 36753 36752 37052 37053 37058 37057
8 36748 7173 7172 36753 37053 7112 7111 37058
8 1260 36749 36754 1261 1199 37054 37059 1200
8 36749 36750 36755 36754 37054 37055 37060 37059
8 36750 36751 36756 36755 37055 37056 37061 37060
8 36751 36752 36757 36756 37056 37057 37062 37061
8 36752 36753 36758 36757 37057 37058 37063 37062
8 36753 7172 7171 36758 37058 7111 7110 37063
8 1261 36754 36759 1262 1200 37059 37064 1201
8 36754 36755 36760 36759 37059 37060 37065 37064
8 36755 36756 36761 36760 37060 37061 37066 37065
8 36756 36757 36762 36761 37061 37062 37067 37066
8 36757 36758 36763 36762 37062 37063 37068 37067
8 36758 7171 7170 36763 37063 7110 7109 37068
8 1262 36759 36764 1263 1201 37064 37069 1202
8 36759 36760 36765 36764 37064 37065 37070 37069
8 36760 36761 36766 36765 37065 37066 37071 37070
8 36761 36762 36767 36766 37066 37067 37072 37071
8 36762 36763 36768 36767 37067 37068 37073 37072
8 36763 7170 7169 36768 37068 7109 7108 37073
8 1263 36764 36769 1264 1202 37069 37074 1203
8 36764 36765 36770 36769 37069 37070 37075 37074
8 36765 36766 36771 36770 37070 37071 37076 37075
8 36766 36767 36772 36771 37071 37072 37077 37076
8 36767 36768 36773 36772 37072 37073 37078 37077
8 36768 7169 7168 36773 37073 7108 7107 37078
8 1264 36769 36774 1265 1203 37074 37079 1204
8 36769 36770 36775 36774 37074 37075 37080 37079
8 36770 36771 36776 36775 37075 37076 37081 37080
8 36771 36772 36777 36776 37076 37077 37082 37081
8 36772 36773 36778 36777 37077 37078 37083 37082
8 36773 7168 7167 36778 37078 7107 7106 37083
8 1265 36774 36779 1266 1204 37079 37084 1205
8 36774 36775 36780 36779 37079 37080 37085 37084
8 36775 36776 36781 36780 37080 37081 37086 37085
8 36776 36777 36782 36781 37081 37082 37087 37086
8 36777 36778 36783 36782 37082 37083 37088 37087
8 36778 7167 7166 36783 37083 7106 7105 37088
8 1266 36779 36784 1267 1205 37084 37089 1206
8 36779 36780 36785 36784 37084 37085 37090 37089
8 36780 36781 36786 36785 37085 37086 37091 37090
8 36781 36782 36787 36786 37086 37087 37092 37091
8 36782 36783 36788 36787 37087 37088 37093 37092
8 36783 7166 7165 36788 37088 7105 7104 37093
8 1267 36784 36789 1268 1206 37089 37094 1207
8 36784 36785 36790 36789 37089 37090 37095 37094
8 36785 36786 36791 36790 37090 37091 37096 37095
8 36786 36787 36792 36791 37091 37092 37097 37096
8 36787 36788 36793 36792 37092 37093 37098 37097
8 36788 7165 7164 36793 37093 7104 7103 37098
8 1268 36789 36794 1269 1207 37094 37099 1208
8 36789 36790 36795 36794 37094 37095 37100 37099
8 36790 36791 36796 36795 37095 37096 37101 37100
8 36791 36792 36797 36796 37096 37097 37102 37101
8 36792 36793 36798 36797 37097 37098 37103 37102
8 36793 7164 7163 36798 37098 7103 7102 37103
8 1269 36794 36799 1270 1208 37099 37104 1209
8 36794 36795 36800 36799 37099 37100 37105 37104
8 36795 36796 36801 36800 37100 37101 37106 37105
8 36796 36797 36802 36801 37101 37102 37107 37106
8 36797 36798 36803 36802 37102 37103 37108 37107
8 36798 7163 7162 36803 37103 7102 7101 37108
8 1270 36799 36804 1271 1209 37104 37109 1210
8 36799 36800 36805 36804 37104 37105 37110 37109
8 36800 36801 36806 36805 37105 37106 37111 37110
8 36801 36802 36807 36806 37106 37107 37112 37111
8 36802 36803 36808 36807 37107 37108 37113 37112
8 36803 7162 7161 36808 37108 7101 7100 37113
8 36804 36805 36810 36809 37109 37110 37115 37114
8 36805 36806 36811 36810 37110 37111 37116 37115
8 36806 36807 36812 36811 37111 37112 37117 37116
8 36807 36808 36813 36812 37112 37113 37118 37117
8 36808 7161 7160 36813 37113 7100 7099 37118
8 36809 36810 36815 36814 37114 37115 37120 37119
8 36810 36811 36816 36815 37115 37116 37121 37120
8 36811 36812 36817 36816 37116 37117 37122 37121
8 36812 36813 36818 36817 37117 37118 37123 37122
8 36813 7160 7159 36818 37118 7099 7098 37123
8 36814 36815 36820 36819 37119 37120 37125 37124
8 36815 36816 36821 36820 37120 37121 37126 37125
8 36816 36817 36822 36821 37121 37122 37127 37126
8 36817 36818 36823 36822 37122 37123 37128 37127
8 36818 7159 7158 36823 37123 7098 7097 37128
8 36819 36820 36825 36824 37124 37125 37130 37129
8 36820 36821 36826 36825 37125 37126 37131 37130
8 36821 36822 36827 36826 37126 37127 37132 37131
8 36822 36823 36828 36827 37127 37128 37133 37132
8 36823 7158 7157 36828 37128 7097 7096 37133
8 36824 36825 36830 36829 37129 37130 37135 37134
8 36825 36826 36831 36830 37130 37131 37136 37135
8 36826 36827 36832 36831 37131 37132 37137 37136
8 36827 36828 36833 36832 37132 37133 37138 37137
8 36828 7157 7156 36833 37133 7096 7095 37138
8 1276 36829 36834 1277 1215 37134 37139 1216
8 36829 36830 36835 36834 37134 37135 37140 37139
8 36830 36831 36836 36835 37135 37136 37141 37140
8 36831 36832 36837 36836 37136 37137 37142 37141
8 36832 36833 36838 36837 37137 37138 37143 37142
8 36833 7156 7155 36838 37138 7095 7094 37143
8 1277 36834 36839 1278 1216 37139 37144 1217
8 36834 36835 36840 36839 37139 37140 37145 37144
8 36835 36836 36841 36840 37140 37141 37146 37145
8 36836 36837 36842 36841 37141 37142 37147 37146
8 36837 36838 36843 36842 37142 37143 37148 37147
8 36838 7155 7154 36843 37143 7094 7093 37148
8 1278 36839 36844 1279 1217 37144 37149 1218
8 36839 36840 36845 36844 37144 37145 37150 37149
8 36840 36841 36846 36845 37145 37146 37151 37150
8 36841 36842 36847 36846 37146 37147 37152 37151
8 36842 36843 36848 36847 37147 37148 37153 37152
8 36843 7154 7153 36848 37148 7093 7092 37153
8 1279 36844 36849 1280 1218 37149 37154 1219
8 36844 36845 36850 36849 37149 37150 37155 37154
8 36845 36846 36851 36850 37150 37151 37156 37155
8 36846 36847 36852 36851 37151 37152 37157 37156
8 36847 36848 36853 36852 37152 37153 37158 37157
8 36848 7153 7152 36853 37153 7092 7091 37158
8 1280 36849 36854 1281 1219 37154 37159 1220
8 36849 36850 36855 36854 37154 37155 37160 37159
8 36850 36851 36856 36855 37155 37156 37161 37160
8 36851 36852 36857 36856 37156 37157 37162 37161
8 36852 36853 36858 36857 37157 37158 37163 37162
8 36853 7152 7151 36858 37158 7091 7090 37163
8 1281 36854 36859 1282 1220 37159 37164 1221
8 36854 36855 36860 36859 37159 37160 37165 37164
8 36855 36856 36861 36860 37160 37161 37166 37165
8 36856 36857 36862 36861 37161 37162 37167 37166
8 36857 36858 36863 36862 37162 37163 37168 37167
8 36858 7151 7150 36863 37163 7090 7089 37168
8 1282 36859 36864 1283 1221 37164 37169 1222
8 36859 36860 36865 36864 37164 37165 37170 37169
8 36860 36861 36866 36865 37165 37166 37171 37170
8 36861 36862 36867 36866 37166 37167 37172 37171
8 36862 36863 36868 36867 37167 37168 37173 37172
8 36863 7150 7149 36868 37168 7089 7088 37173
8 1283 36864 36869 1284 1222 37169 37174 1223
8 36864 36865 36870 36869 37169 37170 37175 37174
8 36865 36866 36871 36870 37170 37171 37176 37175
8 36866 36867 36872 36871 37171 37172 37177 37176
8 36867 36868 36873 36872 37172 37173 37178 37177
8 36868 7149 7148 36873 37173 7088 7087 37178
8 1284 36869 36874 1285 1223 37174 37179 1224
8 36869 36870 36875 36874 37174 37175 37180 37179
8 36870 36871 36876 36875 37175 37176 37181 37180
8 36871 36872 36877 36876 37176 37177 37182 37181
8 36872 36873 36878 36877 37177 37178 37183 37182
8 36873 7148 7147 36878 37178 7087 7086 37183
8 1285 36874 12704 79 1224 37179 12699 78
8 36874 36875 12705 12704 37179 37180 12700 12699
8 36875 36876 12706 12705 37180 37181 12701 12700
8 36876 36877 12707 12706 37181 37182 12702 12701
8 36877 36878 12708 12707 37182 37183 12703 12702
8 36878 7147 6216 12708 37183 7086 6217 12703
8 295 12239 36879 1164 296 12244 37184 1103
8 12239 12240 36880 36879 12244 12245 37185 37184
8 12240 12241 36881 36880 12245 12246 37186 37185
8 12241 12242 36882 36881 12246 12247 37187 37186
8 12242 12243 36883 36882 12247 12248 37188 37187
8 12243 6000 7146 36883 12248 5999 7085 37188
8 1164 36879 36884 1165 1103 37184 37189 1104
8 36879 36880 36885 36884 37184 37185 37190 37189
8 36880 36881 36886 36885 37185 37186 37191 37190
8 36881 36882 36887 36886 37186 37187 37192 37191
8 36882 36883 36888 36887 37187 37188 37193 37192
8 36883 7146 7145 36888 37188 7085 7084 37193
8 1165 36884 36889 1166 1104 37189 37194 1105
8 36884 36885 36890 36889 37189 37190 37195 37194
8 36885 36886 36891 36890 37190 37191 37196 37195
8 36886 36887 36892 36891 37191 37192 37197 37196
8 36887 36888 36893 36892 37192 37193 37198 37197
8 36888 7145 7144 36893 37193 7084 7083 37198
8 1166 36889 36894 1167 1105 37194 37199 1106
8 36889 36890 36895 36894 37194 37195 37200 37199
8 36890 36891 36896 36895 37195 37196 37201 37200
8 36891 36892 36897 36896 37196 37197 37202 37201
8 36892 36893 36898 36897 37197 37198 37203 37202
8 36893 7144 7143 36898 37198 7083 7082 37203
8 1167 36894 36899 1168 1106 37199 37204 1107
8 36894 36895 36900 36899 37199 37200 37205 37204
8 36895 36896 36901 36900 37200 37201 37206 37205
8 36896 36897 36902 36901 37201 37202 37207 37206
8 36897 36898 36903 36902 37202 37203 37208 37207
8 36898 7143 7142 36903 37203 7082 7081 37208
8 1168 36899 36904 1169 1107 37204 37209 1108
8 36899 36900 36905 36904 37204 37205 37210 37209
8 36900 36901 36906 36905 37205 37206 37211 37210
8 36901 36902 36907 36906 37206 37207 37212 37211
8 36902 36903 36908 36907 37207 37208 37213 37212
8 36903 7142 7141 36908 37208 7081 7080 37213
8 1169 36904 36909 1170 1108 37209 37214 1109
8 36904 36905 36910 36909 37209 37210 37215 37214
8 36905 36906 36911 36910 37210 37211 37216 37215
8 36906 36907 36912 36911 37211 37212 37217 37216
8 36907 36908 36913 36912 37212 37213 37218 37217
8 36908 7141 7140 36913 37213 7080 7079 37218
8 1170 36909 36914 1171 1109 37214 37219 1110
8 36909 36910 36915 36914 37214 37215 37220 37219
8 36910 36911 36916 36915 37215 37216 37221 37220
8 36911 36912 36917 36916 37216 37217 37222 37221
8 36912 36913 36918 36917 37217 37218 37223 37222
8 36913 7140 7139 36918 37218 7079 7078 37223
8 1171 36914 36919 1172 1110 37219 37224 1111
8 36914 36915 36920 36919 37219 37220 37225 37224
8 36915 36916 36921 36920 37220 37221 37226 37225
8 36916 36917 36922 36921 37221 37222 37227 37226
8 36917 36918 36923 36922 37222 37223 37228 37227
8 36918 7139 7138 36923 37223 7078 7077 37228
8 1172 36919 36924 1173 1111 37224 37229 1112
8 36919 36920 36925 36924 37224 37225 37230 37229
8 36920 36921 36926 36925 37225 37226 37231 37230
8 36921 36922 36927 36926 37226 37227 37232 37231
8 36922 36923 36928 36927 37227 37228 37233 37232
8 36923 7138 7137 36928 37228 7077 7076 37233
8 1173 36924 36929 1174 1112 37229 37234 1113
8 36924 36925 36930 36929 37229 37230 37235 37234
8 36925 36926 36931 36930 37230 37231 37236 37235
8 36926 36927 36932 36931 37231 37232 37237 37236
8 36927 36928 36933 36932 37232 37233 37238 37237
8 36928 7137 7136 36933 37233 7076 7075 37238
8 1174 36929 36934 1175 1113 37234 37239 1114
8 36929 36930 36935 36934 37234 37235 37240 37239
8 36930 36931 36936 36935 37235 37236 37241 37240
8 36931 36932 36937 36936 37236 37237 37242 37241
8 36932 36933 36938 36937 37237 37238 37243 37242
8 36933 7136 7135 36938 37238 7075 7074 37243
8 1175 36934 36939 1176 1114 37239 37244 1115
8 36934 36935 36940 36939 37239 37240 37245 37244
8 36935 36936 36941 36940 37240 37241 37246 37245
8 36936 36937 36942 36941 37241 37242 37247 37246
8 36937 36938 36943 36942 37242 37243 37248 37247
8 36938 7135 7134 36943 37243 7074 7073 37248
8 1176 36939 36944 1177 1115 37244 37249 1116
8 36939 36940 36945 36944 37244 37245 37250 37249
8 36940 36941 36946 36945 37245 37246 37251 37250
8 36941 36942 36947 36946 37246 37247 37252 37251
8 36942 36943 36948 36947 37247 37248 37253 37252
8 36943 7134 7133 36948 37248 7073 7072 37253
8 1177 36944 36949 1178 1116 37249 37254 1117
8 36944 36945 36950 36949 37249 37250 37255 37254
8 36945 36946 36951 36950 37250 37251 37256 37255
8 36946 36947 36952 36951 37251 37252 37257 37256
8 36947 36948 36953 36952 37252 37253 37258 37257
8 36948 7133 7132 36953 37253 7072 7071 37258
8 1178 36949 36954 1179 1117 37254 37259 1118
8 36949 36950 36955 36954 37254 37255 37260 37259
8 36950 36951 36956 36955 37255 37256 37261 37260
8 36951 36952 36957 36956 37256 37257 37262 37261
8 36952 36953 36958 36957 37257 37258 37263 37262
8 36953 7132 7131 36958 37258 7071 7070 37263
8 1179 36954 36959 1180 1118 37259 37264 1119
8 36954 36955 36960 36959 37259 37260 37265 37264
8 36955 36956 36961 36960 37260 37261 37266 37265
8 36956 36957 36962 36961 37261 37262 37267 37266
8 36957 36958 36963 36962 37262 37263 37268 37267
8 36958 7131 7130 36963 37263 7070 7069 37268
8 1180 36959 36964 1181 1119 37264 37269 1120
8 36959 36960 36965 36964 37264 37265 37270 37269
8 36960 36961 36966 36965 37265 37266 37271 37270
8 36961 36962 36967 36966 37266 37267 37272 37271
8 36962 36963 36968 36967 37267 37268 37273 37272
8 36963 7130 7129 36968 37268 7069 7068 37273
8 1181 36964 36969 1182 1120 37269 37274 1121
8 36964 36965 36970 36969 37269 37270 37275 37274
8 36965 36966 36971 36970 37270 37271 37276 37275
8 36966 36967 36972 36971 37271 37272 37277 37276
8 36967 36968 36973 36972 37272 37273 37278 37277
8 36968 7129 7128 36973 37273 7068 7067 37278
8 1182 36969 36974 1183 1121 37274 37279 1122
8 36969 36970 36975 36974 37274 37275 37280 37279
8 36970 36971 36976 36975 37275 37276 37281 37280
8 36971 36972 36977 36976 37276 37277 37282 37281
8 36972 36973 36978 36977 37277 37278 37283 37282
8 36973 7128 7127 36978 37278 7067 7066 37283
8 1183 36974 36979 1184 1122 37279 37284 1123
8 36974 36975 36980 36979 37279 37280 37285 37284
8 36975 36976 36981 36980 37280 37281 37286 37285
8 36976 36977 36982 36981 37281 37282 37287 37286
8 36977 36978 36983 36982 37282 37283 37288 37287
8 36978 7127 7126 36983 37283 7066 7065 37288
8 1184 36979 36984 1185 1123 37284 37289 1124
8 36979 36980 36985 36984 37284 37285 37290 37289
8 36980 36981 36986 36985 37285 37286 37291 37290
8 36981 36982 36987 36986 37286 37287 37292 37291
8 36982 36983 36988 36987 37287 37288 37293 37292
8 36983 7126 7125 36988 37288 7065 7064 37293
8 36984 36985 36990 36989 37289 37290 37295 37294
8 36985 36986 36991 36990 37290 37291 37296 37295
8 36986 36987 36992 36991 37291 37292 37297 37296
8 36987 36988 36993 36992 37292 37293 37298 37297
8 36988 7125 7124 36993 37293 7064 7063 37298
8 36989 36990 36995 36994 37294 37295 37300 37299
8 36990 36991 36996 36995 37295 37296 37301 37300
8 36991 36992 36997 36996 37296 37297 37302 37301
8 36992 36993 36998 36997 37297 37298 37303 37302
8 36993 7124 7123 36998 37298 7063 7062 37303
8 36994 36995 37000 36999 37299 37300 37305 37304
8 36995 36996 37001 37000 37300 37301 37306 37305
8 36996 36997 37002 37001 37301 37302 37307 37306
8 36997 36998 37003 37002 37302 37303 37308 37307
8 36998 7123 7122 37003 37303 7062 7061 37308
8 36999 37000 37005 37004 37304 37305 37310 37309
8 37000 37001 37006 37005 37305 37306 37311 37310
8 37001 37002 37007 37006 37306 37307 37312 37311
8 37002 37003 37008 37007 37307 37308 37313 37312
8 37003 7122 7121 37008 37308 7061 7060 37313
8 37004 37005 37010 37009 37309 37310 37315 37314
8 37005 37006 37011 37010 37310 37311 37316 37315
8 37006 37007 37012 37011 37311 37312 37317 37316
8 37007 37008 37013 37012 37312 37313 37318 37317
8 37008 7121 7120 37013 37313 7060 7059 37318
8 1190 37009 37014 1191 1129 37314 37319 1130
8 37009 37010 37015 37014 37314 37315 37320 37319
8 37010 37011 37016 37015 37315 37316 37321 37320
8 37011 37012 37017 37016 37316 37317 37322 37321
8 37012 37013 37018 37017 37317 37318 37323 37322
8 37013 7120 7119 37018 37318 7059 7058 37323
8 1191 37014 37019 1192 1130 37319 37324 1131
8 37014 37015 37020 37019 37319 37320 37325 37324
8 37015 37016 37021 37020 37320 37321 37326 37325
8 37016 37017 37022 37021 37321 37322 37327 37326
8 37017 37018 37023 37022 37322 37323 37328 37327
8 37018 7119 7118 37023 37323 7058 7057 37328
8 1192 37019 37024 1193 1131 37324 37329 1132
8 37019 37020 37025 37024 37324 37325 37330 37329
8 37020 37021 37026 37025 37325 37326 37331 37330
8 37021 37022 37027 37026 37326 37327 37332 37331
8 37022 37023 37028 37027 37327 37328 37333 37332
8 37023 7118 7117 37028 37328 7057 7056 37333
8 1193 37024 37029 1194 1132 37329 37334 1133
8 37024 37025 37030 37029 37329 37330 37335 37334
8 37025 37026 37031 37030 37330 37331 37336 37335
8 37026 37027 37032 37031 37331 37332 37337 37336
8 37027 37028 37033 37032 37332 37333 37338 37337
8 37028 7117 7116 37033 37333 7056 7055 37338
8 1194 37029 37034 1195 1133 37334 37339 1134
8 37029 37030 37035 37034 37334 37335 37340 37339
8 37030 37031 37036 37035 37335 37336 37341 37340
8 37031 37032 37037 37036 37336 37337 37342 37341
8 37032 37033 37038 37037 37337 37338 37343 37342
8 37033 7116 7115 37038 37338 7055 7054 37343
8 1195 37034 37039 1196 1134 37339 37344 1135
8 37034 37035 37040 37039 37339 37340 37345 37344
8 37035 37036 37041 37040 37340 37341 37346 37345
8 37036 37037 37042 37041 37341 37342 37347 37346
8 37037 37038 37043 37042 37342 37343 37348 37347
8 37038 7115 7114 37043 37343 7054 7053 37348
8 1196 37039 37044 1197 1135 37344 37349 1136
8 37039 37040 37045 37044 37344 37345 37350 37349
8 37040 37041 37046 37045 37345 37346 37351 37350
8 37041 37042 37047 37046 37346 37347 37352 37351
8 37042 37043 37048 37047 37347 37348 37353 37352
8 37043 7114 7113 37048 37348 7053 7052 37353
8 1197 37044 37049 1198 1136 37349 37354 1137
8 37044 37045 37050 37049 37349 37350 37355 37354
8 37045 37046 37051 37050 37350 37351 37356 37355
8 37046 37047 37052 37051 37351 37352 37357 37356
8 37047 37048 37053 37052 37352 37353 37358 37357
8 37048 7113 7112 37053 37353 7052 7051 37358
8 1198 37049 37054 1199 1137 37354 37359 1138
8 37049 37050 37055 37054 37354 37355 37360 37359
8 37050 37051 37056 37055 37355 37356 37361 37360
8 37051 37052 37057 37056 37356 37357 37362 37361
8 37052 37053 37058 37057 37357 37358 37363 37362
8 37053 7112 7111 37058 37358 7051 7050 37363
8 1199 37054 37059 1200 1138 37359 37364 1139
8 37054 37055 37060 37059 37359 37360 37365 37364
8 37055 37056 37061 37060 37360 37361 37366 37365
8 37056 37057 37062 37061 37361 37362 37367 37366
8 37057 37058 37063 37062 37362 37363 37368 37367
8 37058 7111 7110 37063 37363 7050 7049 37368
8 1200 37059 37064 1201 1139 37364 37369 1140
8 37059 37060 37065 37064 37364 37365 37370 37369
8 37060 37061 37066 37065 37365 37366 37371 37370
8 37061 37062 37067 37066 37366 37367 37372 37371
8 37062 37063 37068 37067 37367 37368 37373 37372
8 37063 7110 7109 37068 37368 7049 7048 37373
8 1201 37064 37069 1202 1140 37369 37374 1141
8 37064 37065 37070 37069 37369 37370 37375 37374
8 37065 37066 37071 37070 37370 37371 37376 37375
8 37066 37067 37072 37071 37371 37372 37377 37376
8 37067 37068 37073 37072 37372 37373 37378 37377
8 37068 7109 7108 37073 37373 7048 7047 37378
8 1202 37069 37074 1203 1141 37374 37379 1142
8 37069 37070 37075 37074 37374 37375 37380 37379
8 37070 37071 37076 37075 37375 37376 37381 37380
8 37071 37072 37077 37076 37376 37377 37382 37381
8 37072 37073 37078 37077 37377 37378 37383 37382
8 37073 7108 7107 37078 37378 7047 7046 37383
8 1203 37074 37079 1204 1142 37379 37384 1143
8 37074 37075 37080 37079 37379 37380 37385 37384
8 37075 37076 37081 37080 37380 37381 37386 37385
8 37076 37077 37082 37081 37381 37382 37387 37386
8 37077 37078 37083 37082 37382 37383 37388 37387
8 37078 7107 7106 37083 37383 7046 7045 37388
8 1204 37079 37084 1205 1143 37384 37389 1144
8 37079 37080 37085 37084 37384 37385 37390 37389
8 37080 37081 37086 37085 37385 37386 37391 37390
8 37081 37082 37087 37086 37386 37387 37392 37391
8 37082 37083 37088 37087 37387 37388 37393 37392
8 37083 7106 7105 37088 37388 7045 7044 37393
8 1205 37084 37089 1206 1144 37389 37394 1145
8 37084 37085 37090 37089 37389 37390 37395 37394
8 37085 37086 37091 37090 37390 37391 37396 37395
8 37086 37087 37092 37091 37391 37392 37397 37396
8 37087 37088 37093 37092 37392 37393 37398 37397
8 37088 7105 7104 37093 37393 7044 7043 37398
8 1206 37089 37094 1207 1145 37394 37399 1146
8 37089 37090 37095 37094 37394 37395 37400 37399
8 37090 37091 37096 37095 37395 37396 37401 37400
8 37091 37092 37097 37096 37396 37397 37402 37401
8 37092 37093 37098 37097 37397 37398 37403 37402
8 37093 7104 7103 37098 37398 7043 7042 37403
8 1207 37094 37099 1208 1146 37399 37404 1147
8 37094 37095 37100 37099 37399 37400 37405 37404
8 37095 37096 37101 37100 37400 37401 37406 37405
8 37096 37097 37102 37101 37401 37402 37407 37406
8 37097 37098 37103 37102 37402 37403 37408 37407
8 37098 7103 7102 37103 37403 7042 7041 37408
8 1208 37099 37104 1209 1147 37404 37409 1148
8 37099 37100 37105 37104 37404 37405 37410 37409
8 37100 37101 37106 37105 37405 37406 37411 37410
8 37101 37102 37107 37106 37406 37407 37412 37411
8 37102 37103 37108 37107 37407 37408 37413 37412
8 37103 7102 7101 37108 37408 7041 7040 37413
8 1209 37104 37109 1210 1148 37409 37414 1149
8 37104 37105 37110 37109 37409 37410 37415 37414
8 37105 37106 37111 37110 37410 37411 37416 37415
8 37106 37107 37112 37111 37411 37412 37417 37416
8 37107 37108 37113 37112 37412 37413 37418 37417
8 37108 7101 7100 37113 37413 7040 7039 37418
8 37109 37110 37115 37114 37414 37415 37420 37419
8 37110 37111 37116 37115 37415 37416 37421 37420
8 37111 37112 37117 37116 37416 37417 37422 37421
8 37112 37113 37118 37117 37417 37418 37423 37422
8 37113 7100 7099 37118 37418 7039 7038 37423
8 37114 37115 37120 37119 37419 37420 37425 37424
8 37115 37116 37121 37120 37420 37421 37426 37425
8 37116 37117 37122 37121 37421 37422 37427 37426
8 37117 37118 37123 37122 37422 37423 37428 37427
8 37118 7099 7098 37123 37423 7038 7037 37428
8 37119 37120 37125 37124 37424 37425 37430 37429
8 37120 37121 37126 37125 37425 37426 37431 37430
8 37121 37122 37127 37126 37426 37427 37432 37431
8 37122 37123 37128 37127 37427 37428 37433 37432
8 37123 7098 7097 37128 37428 7037 7036 37433
8 37124 37125 37130 37129 37429 37430 37435 37434
8 37125 37126 37131 37130 37430 37431 37436 37435
8 37126 37127 37132 37131 37431 37432 37437 37436
8 37127 37128 37133 37132 37432 37433 37438 37437
8 37128 7097 7096 37133 37433 7036 7035 37438
8 37129 37130 37135 37134 37434 37435 37440 37439
8 37130 37131 37136 37135 37435 37436 37441 37440
8 37131 37132 37137 37136 37436 37437 37442 37441
8 37132 37133 37138 37137 37437 37438 37443 37442
8 37133 7096 7095 37138 37438 7035 7034 37443
8 1215 37134 37139 1216 1154 37439 37444 1155
8 37134 37135 37140 37139 37439 37440 37445 37444
8 37135 37136 37141 37140 37440 37441 37446 37445
8 37136 37137 37142 37141 37441 37442 37447 37446
8 37137 37138 37143 37142 37442 37443 37448 37447
8 37138 7095 7094 37143 37443 7034 7033 37448
8 1216 37139 37144 1217 1155 37444 37449 1156
8 37139 37140 37145 37144 37444 37445 37450 37449
8 37140 37141 37146 37145 37445 37446 37451 37450
8 37141 37142 37147 37146 37446 37447 37452 37451
8 37142 37143 37148 37147 37447 37448 37453 37452
8 37143 7094 7093 37148 37448 7033 7032 37453
8 1217 37144 37149 1218 1156 37449 37454 1157
8 37144 37145 37150 37149 37449 37450 37455 37454
8 37145 37146 37151 37150 37450 37451 37456 37455
8 37146 37147 37152 37151 37451 37452 37457 37456
8 37147 37148 37153 37152 37452 37453 37458 37457
8 37148 7093 7092 37153 37453 7032 7031 37458
8 1218 37149 37154 1219 1157 37454 37459 1158
8 37149 37150 37155 37154 37454 37455 37460 37459
8 37150 37151 37156 37155 37455 37456 37461 37460
8 37151 37152 37157 37156 37456 37457 37462 37461
8 37152 37153 37158 37157 37457 37458 37463 37462
8 37153 7092 7091 37158 37458 7031 7030 37463
8 1219 37154 37159 1220 1158 37459 37464 1159
8 37154 37155 37160 37159 37459 37460 37465 37464
8 37155 37156 37161 37160 37460 37461 37466 37465
8 37156 37157 37162 37161 37461 37462 37467 37466
8 37157 37158 37163 37162 37462 37463 37468 37467
8 37158 7091 7090 37163 37463 7030 7029 37468
8 1220 37159 37164 1221 1159 37464 37469 1160
8 37159 37160 37165 37164 37464 37465 37470 37469
8 37160 37161 37166 37165 37465 37466 37471 37470
8 37161 37162 37167 37166 37466 37467 37472 37471
8 37162 37163 37168 37167 37467 37468 37473 37472
8 37163 7090 7089 37168 37468 7029 7028 37473
8 1221 37164 37169 1222 1160 37469 37474 1161
8 37164 37165 37170 37169 37469 37470 37475 37474
8 37165 37166 37171 37170 37470 37471 37476 37475
8 37166 37167 37172 37171 37471 37472 37477 37476
8 37167 37168 37173 37172 37472 37473 37478 37477
8 37168 7089 7088 37173 37473 7028 7027 37478
8 1222 37169 37174 1223 1161 37474 37479 1162
8 37169 37170 37175 37174 37474 37475 37480 37479
8 37170 37171 37176 37175 37475 37476 37481 37480
8 37171 37172 37177 37176 37476 37477 37482 37481
8 37172 37173 37178 37177 37477 37478 37483 37482
8 37173 7088 7087 37178 37478 7027 7026 37483
8 1223 37174 37179 1224 1162 37479 37484 1163
8 37174 37175 37180 37179 37479 37480 37485 37484
8 37175 37176 37181 37180 37480 37481 37486 37485
8 37176 37177 37182 37181 37481 37482 37487 37486
8 37177 37178 37183 37182 37482 37483 37488 37487
8 37178 7087 7086 37183 37483 7026 7025 37488
8 1224 37179 12699 78 1163 37484 12694 77
8 37179 37180 12700 12699 37484 37485 12695 12694
8 37180 37181 12701 12700 37485 37486 12696 12695
8 37181 37182 12702 12701 37486 37487 12697 12696
8 37182 37183 12703 12702 37487 37488 12698 12697
8 37183 7086 6217 12703 37488 7025 6218 12698
8 296 12244 37184 1103 297 12249 37489 1042
8 12244 12245 37185 37184 12249 12250 37490 37489
8 12245 12246 37186 37185 12250 12251 37491 37490
8 12246 12247 37187 37186 12251 12252 37492 37491
8 12247 12248 37188 37187 12252 12253 37493 37492
8 12248 5999 7085 37188 12253 5998 7024 37493
8 1103 37184 37189 1104 1042 37489 37494 1043
8 37184 37185 37190 37189 37489 37490 37495 37494
8 37185 37186 37191 37190 37490 37491 37496 37495
8 37186 37187 37192 37191 37491 37492 37497 37496
8 37187 37188 37193 37192 37492 37493 37498 37497
8 37188 7085 7084 37193 37493 7024 7023 37498
8 1104 37189 37194 1105 1043 37494 37499 1044
8 37189 37190 37195 37194 37494 37495 37500 37499
8 37190 37191 37196 37195 37495 37496 37501 37500
8 37191 37192 37197 37196 37496 37497 37502 37501
8 37192 37193 37198 37197 37497 37498 37503 37502
8 37193 7084 7083 37198 37498 7023 7022 37503
8 1105 37194 37199 1106 1044 37499 37504 1045
8 37194 37195 37200 37199 37499 37500 37505 37504
8 37195 37196 37201 37200 37500 37501 37506 37505
8 37196 37197 37202 37201 37501 37502 37507 37506
8 37197 37198 37203 37202 37502 37503 37508 37507
8 37198 7083 7082 37203 37503 7022 7021 37508
8 1106 37199 37204 1107 1045 37504 37509 1046
8 37199 37200 37205 37204 37504 37505 37510 37509
8 37200 37201 37206 37205 37505 37506 37511 37510
8 37201 37202 37207 37206 37506 37507 37512 37511
8 37202 37203 37208 37207 37507 37508 37513 37512
8 37203 7082 7081 37208 37508 7021 7020 37513
8 1107 37204 37209 1108 1046 37509 37514 1047
8 37204 37205 37210 37209 37509 37510 37515 37514
8 37205 37206 37211 37210 37510 37511 37516 37515
8 37206 37207 37212 37211 37511 37512 37517 37516
8 37207 37208 37213 37212 37512 37513 37518 37517
8 37208 7081 7080 37213 37513 7020 7019 37518
8 1108 37209 37214 1109 1047 37514 37519 1048
8 37209 37210 37215 37214 37514 37515 37520 37519
8 37210 37211 37216 37215 37515 37516 37521 37520
8 37211 37212 37217 37216 37516 37517 37522 37521
8 37212 37213 37218 37217 37517 37518 37523 37522
8 37213 7080 7079 37218 37518 7019 7018 37523
8 1109 37214 37219 1110 1048 37519 37524 1049
8 37214 37215 37220 37219 37519 37520 37525 37524
8 37215 37216 37221 37220 37520 37521 37526 37525
8 37216 37217 37222 37221 37521 37522 37527 37526
8 37217 37218 37223 37222 37522 37523 37528 37527
8 37218 7079 7078 37223 37523 7018 7017 37528
8 1110 37219 37224 1111 1049 37524 37529 1050
8 37219 37220 37225 37224 37524 37525 37530 37529
8 37220 37221 37226 37225 37525 37526 37531 37530
8 37221 37222 37227 37226 37526 37527 37532 37531
8 37222 37223 37228 37227 37527 37528 37533 37532
8 37223 7078 7077 37228 37528 7017 7016 37533
8 1111 37224 37229 1112 1050 37529 37534 1051
8 37224 37225 37230 37229 37529 37530 37535 37534
8 37225 37226 37231 37230 37530 37531 37536 37535
8 37226 37227 37232 37231 37531 37532 37537 37536
8 37227 37228 37233 37232 37532 37533 37538 37537
8 37228 7077 7076 37233 37533 7016 7015 37538
8 1112 37229 37234 1113 1051 37534 37539 1052
8 37229 37230 37235 37234 37534 37535 37540 37539
8 37230 37231 37236 37235 37535 37536 37541 37540
8 37231 37232 37237 37236 37536 37537 37542 37541
8 37232 37233 37238 37237 37537 37538 37543 37542
8 37233 7076 7075 37238 37538 7015 7014 37543
8 1113 37234 37239 1114 1052 37539 37544 1053
8 37234 37235 37240 37239 37539 37540 37545 37544
8 37235 37236 37241 37240 37540 37541 37546 37545
8 37236 37237 37242 37241 37541 37542 37547 37546
8 37237 37238 37243 37242 37542 37543 37548 37547
8 37238 7075 7074 37243 37543 7014 7013 37548
8 1114 37239 37244 1115 1053 37544 37549 1054
8 37239 37240 37245 37244 37544 37545 37550 37549
8 37240 37241 37246 37245 37545 37546 37551 37550
8 37241 37242 37247 37246 37546 37547 37552 37551
8 37242 37243 37248 37247 37547 37548 37553 37552
8 37243 7074 7073 37248 37548 7013 7012 37553
8 1115 37244 37249 1116 1054 37549 37554 1055
8 37244 37245 37250 37249 37549 37550 37555 37554
8 37245 37246 37251 37250 37550 37551 37556 37555
8 37246 37247 37252 37251 37551 37552 37557 37556
8 37247 37248 37253 37252 37552 37553 37558 37557
8 37248 7073 7072 37253 37553 7012 7011 37558
8 1116 37249 37254 1117 1055 37554 37559 1056
8 37249 37250 37255 37254 37554 37555 37560 37559
8 37250 37251 37256 37255 37555 37556 37561 37560
8 37251 37252 37257 37256 37556 37557 37562 37561
8 37252 37253 37258 37257 37557 37558 37563 37562
8 37253 7072 7071 37258 37558 7011 7010 37563
8 1117 37254 37259 1118 1056 37559 37564 1057
8 37254 37255 37260 37259 37559 37560 37565 37564
8 37255 37256 37261 37260 37560 37561 37566 37565
8 37256 37257 37262 37261 37561 37562 37567 37566
8 37257 37258 37263 37262 37562 37563 37568 37567
8 37258 7071 7070 37263 37563 7010 7009 37568
8 1118 37259 37264 1119 1057 37564 37569 1058
8 37259 37260 37265 37264 37564 37565 37570 37569
8 37260 37261 37266 37265 37565 37566 37571 37570
8 37261 37262 37267 37266 37566 37567 37572 37571
8 37262 37263 37268 37267 37567 37568 37573 37572
8 37263 7070 7069 37268 37568 7009 7008 37573
8 1119 37264 37269 1120 1058 37569 37574 1059
8 37264 37265 37270 37269 37569 37570 37575 37574
8 37265 37266 37271 37270 37570 37571 37576 37575
8 37266 37267 37272 37271 37571 37572 37577 37576
8 37267 37268 37273 37272 37572 37573 37578 37577
8 37268 7069 7068 37273 37573 7008 7007 37578
8 1120 37269 37274 1121 1059 37574 37579 1060
8 37269 37270 37275 37274 37574 37575 37580 37579
8 37270 37271 37276 37275 37575 37576 37581 37580
8 37271 37272 37277 37276 37576 37577 37582 37581
8 37272 37273 37278 37277 37577 37578 37583 37582
8 37273 7068 7067 37278 37578 7007 7006 37583
8 1121 37274 37279 1122 1060 37579 37584 1061
8 37274 37275 37280 37279 37579 37580 37585 37584
8 37275 37276 37281 37280 37580 37581 37586 37585
8 37276 37277 37282 37281 37581 37582 37587 37586
8 37277 37278 37283 37282 37582 37583 37588 37587
8 37278 7067 7066 37283 37583 7006 7005 37588
8 1122 37279 37284 1123 1061 37584 37589 1062
8 37279 37280 37285 37284 37584 37585 37590 37589
8 37280 37281 37286 37285 37585 37586 37591 37590
8 37281 37282 37287 37286 37586 37587 37592 37591
8 37282 37283 37288 37287 37587 37588 37593 37592
8 37283 7066 7065 37288 37588 7005 7004 37593
8 1123 37284 37289 1124 1062 37589 37594 1063
8 37284 37285 37290 37289 37589 37590 37595 37594
8 37285 37286 37291 37290 37590 37591 37596 37595
8 37286 37287 37292 37291 37591 37592 37597 37596
8 37287 37288 37293 37292 37592 37593 37598 37597
8 37288 7065 7064 37293 37593 7004 7003 37598
8 37289 37290 37295 37294 37594 37595 37600 37599
8 37290 37291 37296 37295 37595 37596 37601 37600
8 37291 37292 37297 37296 37596 37597 37602 37601
8 37292 37293 37298 37297 37597 37598 37603 37602
8 37293 7064 7063 37298 37598 7003 7002 37603
8 37294 37295 37300 37299 37599 37600 37605 37604
8 37295 37296 37301 37300 37600 37601 37606 37605
8 37296 37297 37302 37301 37601 37602 37607 37606
8 37297 37298 37303 37302 37602 37603 37608 37607
8 37298 7063 7062 37303 37603 7002 7001 37608
8 37299 37300 37305 37304 37604 37605 37610 37609
8 37300 37301 37306 37305 37605 37606 37611 37610
8 37301 37302 37307 37306 37606 37607 37612 37611
8 37302 37303 37308 37307 37607 37608 37613 37612
8 37303 7062 7061 37308 37608 7001 7000 37613
8 37304 37305 37310 37309 37609 37610 37615 37614
8 37305 37306 37311 37310 37610 37611 37616 37615
8 37306 37307 37312 37311 37611 37612 37617 37616
8 37307 37308 37313 37312 37612 37613 37618 37617
8 37308 7061 7060 37313 37613 7000 6999 37618
8 37309 37310 37315 37314 37614 37615 37620 37619
8 37310 37311 37316 37315 37615 37616 37621 37620
8 37311 37312 37317 37316 37616 37617 37622 37621
8 37312 37313 37318 37317 37617 37618 37623 37622
8 37313 7060 7059 37318 37618 6999 6998 37623
8 1129 37314 37319 1130 1068 37619 37624 1069
8 37314 37315 37320 37319 37619 37620 37625 37624
8 37315 37316 37321 37320 37620 37621 37626 37625
8 37316 37317 37322 37321 37621 37622 37627 37626
8 37317 37318 37323 37322 37622 37623 37628 37627
8 37318 7059 7058 37323 37623 6998 6997 37628
8 1130 37319 37324 1131 1069 37624 37629 1070
8 37319 37320 37325 37324 37624 37625 37630 37629
8 37320 37321 37326 37325 37625 37626 37631 37630
8 37321 37322 37327 37326 37626 37627 37632 37631
8 37322 37323 37328 37327 37627 37628 37633 37632
8 37323 7058 7057 37328 37628 6997 6996 37633
8 1131 37324 37329 1132 1070 37629 37634 1071
8 37324 37325 37330 37329 37629 37630 37635 37634
8 37325 37326 37331 37330 37630 37631 37636 37635
8 37326 37327 37332 37331 37631 37632 37637 37636
8 37327 37328 37333 37332 37632 37633 37638 37637
8 37328 7057 7056 37333 37633 6996 6995 37638
8 1132 37329 37334 1133 1071 37634 37639 1072
8 37329 37330 37335 37334 37634 37635 37640 37639
8 37330 37331 37336 37335 37635 37636 37641 37640
8 37331 37332 37337 37336 37636 37637 37642 37641
8 37332 37333 37338 37337 37637 37638 37643 37642
8 37333 7056 7055 37338 37638 6995 6994 37643
8 1133 37334 37339 1134 1072 37639 37644 1073
8 37334 37335 37340 37339 37639 37640 37645 37644
8 37335 37336 37341 37340 37640 37641 37646 37645
8 37336 37337 37342 37341 37641 37642 37647 37646
8 37337 37338 37343 37342 37642 37643 37648 37647
8 37338 7055 7054 37343 37643 6994 6993 37648
8 1134 37339 37344 1135 1073 37644 37649 1074
8 37339 37340 37345 37344 37644 37645 37650 37649
8 37340 37341 37346 37345 37645 37646 37651 37650
8 37341 37342 37347 37346 37646 37647 37652 37651
8 37342 37343 37348 37347 37647 37648 37653 37652
8 37343 7054 7053 37348 37648 6993 6992 37653
8 1135 37344 37349 1136 1074 37649 37654 1075
8 37344 37345 37350 37349 37649 37650 37655 37654
8 37345 37346 37351 37350 37650 37651 37656 37655
8 37346 37347 37352 37351 37651 37652 37657 37656
8 37347 37348 37353 37352 37652 37653 37658 37657
8 37348 7053 7052 37353 37653 6992 6991 37658
8 1136 37349 37354 1137 1075 37654 37659 1076
8 37349 37350 37355 37354 37654 37655 37660 37659
8 37350 37351 37356 37355 37655 37656 37661 37660
8 37351 37352 37357 37356 37656 37657 37662 37661
8 37352 37353 37358 37357 37657 37658 37663 37662
8 37353 7052 7051 37358 37658 6991 6990 37663
8 1137 37354 37359 1138 1076 37659 37664 1077
8 37354 37355 37360 37359 37659 37660 37665 37664
8 37355 37356 37361 37360 37660 37661 37666 37665
8 37356 37357 37362 37361 37661 37662 37667 37666
8 37357 37358 37363 37362 37662 37663 37668 37667
8 37358 7051 7050 37363 37663 6990 6989 37668
8 1138 37359 37364 1139 1077 37664 37669 1078
8 37359 37360 37365 37364 37664 37665 37670 37669
8 37360 37361 37366 37365 37665 37666 37671 37670
8 37361 37362 37367 37366 37666 37667 37672 37671
8 37362 37363 37368 37367 37667 37668 37673 37672
8 37363 7050 7049 37368 37668 6989 6988 37673
8 1139 37364 37369 1140 1078 37669 37674 1079
8 37364 37365 37370 37369 37669 37670 37675 37674
8 37365 37366 37371 37370 37670 37671 37676 37675
8 37366 37367 37372 37371 37671 37672 37677 37676
8 37367 37368 37373 37372 37672 37673 37678 37677
8 37368 7049 7048 37373 37673 6988 6987 37678
8 1140 37369 37374 1141 1079 37674 37679 1080
8 37369 37370 37375 37374 37674 37675 37680 37679
8 37370 37371 37376 37375 37675 37676 37681 37680
8 37371 37372 37377 37376 37676 37677 37682 37681
8 37372 37373 37378 37377 37677 37678 37683 37682
8 37373 7048 7047 37378 37678 6987 6986 37683
8 1141 37374 37379 1142 1080 37679 37684 1081
8 37374 37375 37380 37379 37679 37680 37685 37684
8 37375 37376 37381 37380 37680 37681 37686 37685
8 37376 37377 37382 37381 37681 37682 37687 37686
8 37377 37378 37383 37382 37682 37683 37688 37687
8 37378 7047 7046 37383 37683 6986 6985 37688
8 1142 37379 37384 1143 1081 37684 37689 1082
8 37379 37380 37385 37384 37684 37685 37690 37689
8 37380 37381 37386 37385 37685 37686 37691 37690
8 37381 37382 37387 37386 37686 37687 37692 37691
8 37382 37383 37388 37387 37687 37688 37693 37692
8 37383 7046 7045 37388 37688 6985 6984 37693
8 1143 37384 37389 1144 1082 37689 37694 1083
8 37384 37385 37390 37389 37689 37690 37695 37694
8 37385 37386 37391 37390 37690 37691 37696 37695
8 37386 37387 37392 37391 37691 37692 37697 37696
8 37387 37388 37393 37392 37692 37693 37698 37697
8 37388 7045 7044 37393 37693 6984 6983 37698
8 1144 37389 37394 1145 1083 37694 37699 1084
8 37389 37390 37395 37394 37694 37695 37700 37699
8 37390 37391 37396 37395 37695 37696 37701 37700
8 37391 37392 37397 37396 37696 37697 37702 37701
8 37392 37393 37398 37397 37697 37698 37703 37702
8 37393 7044 7043 37398 37698 6983 6982 37703
8 1145 37394 37399 1146 1084 37699 37704 1085
8 37394 37395 37400 37399 37699 37700 37705 37704
8 37395 37396 37401 37400 37700 37701 37706 37705
8 37396 37397 37402 37401 37701 37702 37707 37706
8 37397 37398 37403 37402 37702 37703 37708 37707
8 37398 7043 7042 37403 37703 6982 6981 37708
8 1146 37399 37404 1147 1085 37704 37709 1086
8 37399 37400 37405 37404 37704 37705 37710 37709
8 37400 37401 37406 37405 37705 37706 37711 37710
8 37401 37402 37407 37406 37706 37707 37712 37711
8 37402 37403 37408 37407 37707 37708 37713 37712
8 37403 7042 7041 37408 37708 6981 6980 37713
8 1147 37404 37409 1148 1086 37709 37714 1087
8 37404 37405 37410 37409 37709 37710 37715 37714
8 37405 37406 37411 37410 37710 37711 37716 37715
8 37406 37407 37412 37411 37711 37712 37717 37716
8 37407 37408 37413 37412 37712 37713 37718 37717
8 37408 7041 7040 37413 37713 6980 6979 37718
8 1148 37409 37414 1149 1087 37714 37719 1088
8 37409 37410 37415 37414 37714 37715 37720 37719
8 37410 37411 37416 37415 37715 37716 37721 37720
8 37411 37412 37417 37416 37716 37717 37722 37721
8 37412 37413 37418 37417 37717 37718 37723 37722
8 37413 7040 7039 37418 37718 6979 6978 37723
8 37414 37415 37420 37419 37719 37720 37725 37724
8 37415 37416 37421 37420 37720 37721 37726 37725
8 37416 37417 37422 37421 37721 37722 37727 37726
8 37417 37418 37423 37422 37722 37723 37728 37727
8 37418 7039 7038 37423 37723 6978 6977 37728
8 37419 37420 37425 37424 37724 37725 37730 37729
8 37420 37421 37426 37425 37725 37726 37731 37730
8 37421 37422 37427 37426 37726 37727 37732 37731
8 37422 37423 37428 37427 37727 37728 37733 37732
8 37423 7038 7037 37428 37728 6977 6976 37733
8 37424 37425 37430 37429 37729 37730 37735 37734
8 37425 37426 37431 37430 37730 37731 37736 37735
8 37426 37427 37432 37431 37731 37732 37737 37736
8 37427 37428 37433 37432 37732 37733 37738 37737
8 37428 7037 7036 37433 37733 6976 6975 37738
8 37429 37430 37435 37434 37734 37735 37740 37739
8 37430 37431 37436 37435 37735 37736 37741 37740
8 37431 37432 37437 37436 37736 37737 37742 37741
8 37432 37433 37438 37437 37737 37738 37743 37742
8 37433 7036 7035 37438 37738 6975 6974 37743
8 37434 37435 37440 37439 37739 37740 37745 37744
8 37435 37436 37441 37440 37740 37741 37746 37745
8 37436 37437 37442 37441 37741 37742 37747 37746
8 37437 37438 37443 37442 37742 37743 37748 37747
8 37438 7035 7034 37443 37743 6974 6973 37748
8 1154 37439 37444 1155 1093 37744 37749 1094
8 37439 37440 37445 37444 37744 37745 37750 37749
8 37440 37441 37446 37445 37745 37746 37751 37750
8 37441 37442 37447 37446 37746 37747 37752 37751
8 37442 37443 37448 37447 37747 37748 37753 37752
8 37443 7034 7033 37448 37748 6973 6972 37753
8 1155 37444 37449 1156 1094 37749 37754 1095
8 37444 37445 37450 37449 37749 37750 37755 37754
8 37445 37446 37451 37450 37750 37751 37756 37755
8 37446 37447 37452 37451 37751 37752 37757 37756
8 37447 37448 37453 37452 37752 37753 37758 37757
8 37448 7033 7032 37453 37753 6972 6971 37758
8 1156 37449 37454 1157 1095 37754 37759 1096
8 37449 37450 37455 37454 37754 37755 37760 37759
8 37450 37451 37456 37455 37755 37756 37761 37760
8 37451 37452 37457 37456 37756 37757 37762 37761
8 37452 37453 37458 37457 37757 37758 37763 37762
8 37453 7032 7031 37458 37758 6971 6970 37763
8 1157 37454 37459 1158 1096 37759 37764 1097
8 37454 37455 37460 37459 37759 37760 37765 37764
8 37455 37456 37461 37460 37760 37761 37766 37765
8 37456 37457 37462 37461 37761 37762 37767 37766
8 37457 37458 37463 37462 37762 37763 37768 37767
8 37458 7031 7030 37463 37763 6970 6969 37768
8 1158 37459 37464 1159 1097 37764 37769 1098
8 37459 37460 37465 37464 37764 37765 37770 37769
8 37460 37461 37466 37465 37765 37766 37771 37770
8 37461 37462 37467 37466 37766 37767 37772 37771
8 37462 37463 37468 37467 37767 37768 37773 37772
8 37463 7030 7029 37468 37768 6969 6968 37773
8 1159 37464 37469 1160 1098 37769 37774 1099
8 37464 37465 37470 37469 37769 37770 37775 37774
8 37465 37466 37471 37470 37770 37771 37776 37775
8 37466 37467 37472 37471 37771 37772 37777 37776
8 37467 37468 37473 37472 37772 37773 37778 37777
8 37468 7029 7028 37473 37773 6968 6967 37778
8 1160 37469 37474 1161 1099 37774 37779 1100
8 37469 37470 37475 37474 37774 37775 37780 37779
8 37470 37471 37476 37475 37775 37776 37781 37780
8 37471 37472 37477 37476 37776 37777 37782 37781
8 37472 37473 37478 37477 37777 37778 37783 37782
8 37473 7028 7027 37478 37778 6967 6966 37783
8 1161 37474 37479 1162 1100 37779 37784 1101
8 37474 37475 37480 37479 37779 37780 37785 37784
8 37475 37476 37481 37480 37780 37781 37786 37785
8 37476 37477 37482 37481 37781 37782 37787 37786
8 37477 37478 37483 37482 37782 37783 37788 37787
8 37478 7027 7026 37483 37783 6966 6965 37788
8 1162 37479 37484 1163 1101 37784 37789 1102
8 37479 37480 37485 37484 37784 37785 37790 37789
8 37480 37481 37486 37485 37785 37786 37791 37790
8 37481 37482 37487 37486 37786 37787 37792 37791
8 37482 37483 37488 37487 37787 37788 37793 37792
8 37483 7026 7025 37488 37788 6965 6964 37793
8 1163 37484 12694 77 1102 37789 12689 76
8 37484 37485 12695 12694 37789 37790 12690 12689
8 37485 37486 12696 12695 37790 37791 12691 12690
8 37486 37487 12697 12696 37791 37792 12692 12691
8 37487 37488 12698 12697 37792 37793 12693 12692
8 37488 7025 6218 12698 37793 6964 6219 12693
8 297 12249 37489 1042 298 12254 37794 981
8 12249 12250 37490 37489 12254 12255 37795 37794
8 12250 12251 37491 37490 12255 12256 37796 37795
8 12251 12252 37492 37491 12256 12257 37797 37796
8 12252 12253 37493 37492 12257 12258 37798 37797
8 12253 5998 7024 37493 12258 5997 6963 37798
8 1042 37489 37494 1043 981 37794 37799 982
8 37489 37490 37495 37494 37794 37795 37800 37799
8 37490 37491 37496 37495 37795 37796 37801 37800
8 37491 37492 37497 37496 37796 37797 37802 37801
8 37492 37493 37498 37497 37797 37798 37803 37802
8 37493 7024 7023 37498 37798 6963 6962 37803
8 1043 37494 37499 1044 982 37799 37804 983
8 37494 37495 37500 37499 37799 37800 37805 37804
8 37495 37496 37501 37500 37800 37801 37806 37805
8 37496 37497 37502 37501 37801 37802 37807 37806
8 37497 37498 37503 37502 37802 37803 37808 37807
8 37498 7023 7022 37503 37803 6962 6961 37808
8 1044 37499 37504 1045 983 37804 37809 984
8 37499 37500 37505 37504 37804 37805 37810 37809
8 37500 37501 37506 37505 37805 37806 37811 37810
8 37501 37502 37507 37506 37806 37807 37812 37811
8 37502 37503 37508 37507 37807 37808 37813 37812
8 37503 7022 7021 37508 37808 6961 6960 37813
8 1045 37504 37509 1046 984 37809 37814 985
8 37504 37505 37510 37509 37809 37810 37815 37814
8 37505 37506 37511 37510 37810 37811 37816 37815
8 37506 37507 37512 37511 37811 37812 37817 37816
8 37507 37508 37513 37512 37812 37813 37818 37817
8 37508 7021 7020 37513 37813 6960 6959 37818
8 1046 37509 37514 1047 985 37814 37819 986
8 37509 37510 37515 37514 37814 37815 37820 37819
8 37510 37511 37516 37515 37815 37816 37821 37820
8 37511 37512 37517 37516 37816 37817 37822 37821
8 37512 37513 37518 37517 37817 37818 37823 37822
8 37513 7020 7019 37518 37818 6959 6958 37823
8 1047 37514 37519 1048 986 37819 37824 987
8 37514 37515 37520 37519 37819 37820 37825 37824
8 37515 37516 37521 37520 37820 37821 37826 37825
8 37516 37517 37522 37521 37821 37822 37827 37826
8 37517 37518 37523 37522 37822 37823 37828 37827
8 37518 7019 7018 37523 37823 6958 6957 37828
8 1048 37519 37524 1049 987 37824 37829 988
8 37519 37520 37525 37524 37824 37825 37830 37829
8 37520 37521 37526 37525 37825 37826 37831 37830
8 37521 37522 37527 37526 37826 37827 37832 37831
8 37522 37523 37528 37527 37827 37828 37833 37832
8 37523 7018 7017 37528 37828 6957 6956 37833
8 1049 37524 37529 1050 988 37829 37834 989
8 37524 37525 37530 37529 37829 37830 37835 37834
8 37525 37526 37531 37530 37830 37831 37836 37835
8 37526 37527 37532 37531 37831 37832 37837 37836
8 37527 37528 37533 37532 37832 37833 37838 37837
8 37528 7017 7016 37533 37833 6956 6955 37838
8 1050 37529 37534 1051 989 37834 37839 990
8 37529 37530 37535 37534 37834 37835 37840 37839
8 37530 37531 37536 37535 37835 37836 37841 37840
8 37531 37532 37537 37536 37836 37837 37842 37841
8 37532 37533 37538 37537 37837 37838 37843 37842
8 37533 7016 7015 37538 37838 6955 6954 37843
8 1051 37534 37539 1052 990 37839 37844 991
8 37534 37535 37540 37539 37839 37840 37845 37844
8 37535 37536 37541 37540 37840 37841 37846 37845
8 37536 37537 37542 37541 37841 37842 37847 37846
8 37537 37538 37543 37542 37842 37843 37848 37847
8 37538 7015 7014 37543 37843 6954 6953 37848
8 1052 37539 37544 1053 991 37844 37849 992
8 37539 37540 37545 37544 37844 37845 37850 37849
8 37540 37541 37546 37545 37845 37846 37851 37850
8 37541 37542 37547 37546 37846 37847 37852 37851
8 37542 37543 37548 37547 37847 37848 37853 37852
8 37543 7014 7013 37548 37848 6953 6952 37853
8 1053 37544 37549 1054 992 37849 37854 993
8 37544 37545 37550 37549 37849 37850 37855 37854
8 37545 37546 37551 37550 37850 37851 37856 37855
8 37546 37547 37552 37551 37851 37852 37857 37856
8 37547 37548 37553 37552 37852 37853 37858 37857
8 37548 7013 7012 37553 37853 6952 6951 37858
8 1054 37549 37554 1055 993 37854 37859 994
8 37549 37550 37555 37554 37854 37855 37860 37859
8 37550 37551 37556 37555 37855 37856 37861 37860
8 37551 37552 37557 37556 37856 37857 37862 37861
8 37552 37553 37558 37557 37857 37858 37863 37862
8 37553 7012 7011 37558 37858 6951 6950 37863
8 1055 37554 37559 1056 994 37859 37864 995
8 37554 37555 37560 37559 37859 37860 37865 37864
8 37555 37556 37561 37560 37860 37861 37866 37865
8 37556 37557 37562 37561 37861 37862 37867 37866
8 37557 37558 37563 37562 37862 37863 37868 37867
8 37558 7011 7010 37563 37863 6950 6949 37868
8 1056 37559 37564 1057 995 37864 37869 996
8 37559 37560 37565 37564 37864 37865 37870 37869
8 37560 37561 37566 37565 37865 37866 37871 37870
8 37561 37562 37567 37566 37866 37867 37872 37871
8 37562 37563 37568 37567 37867 37868 37873 37872
8 37563 7010 7009 37568 37868 6949 6948 37873
8 1057 37564 37569 1058 996 37869 37874 997
8 37564 37565 37570 37569 37869 37870 37875 37874
8 37565 37566 37571 37570 37870 37871 37876 37875
8 37566 37567 37572 37571 37871 37872 37877 37876
8 37567 37568 37573 37572 37872 37873 37878 37877
8 37568 7009 7008 37573 37873 6948 6947 37878
8 1058 37569 37574 1059 997 37874 37879 998
8 37569 37570 37575 37574 37874 37875 37880 37879
8 37570 37571 37576 37575 37875 37876 37881 37880
8 37571 37572 37577 37576 37876 37877 37882 37881
8 37572 37573 37578 37577 37877 37878 37883 37882
8 37573 7008 7007 37578 37878 6947 6946 37883
8 1059 37574 37579 1060 998 37879 37884 999
8 37574 37575 37580 37579 37879 37880 37885 37884
8 37575 37576 37581 37580 37880 37881 37886 37885
8 37576 37577 37582 37581 37881 37882 37887 37886
8 37577 37578 37583 37582 37882 37883 37888 37887
8 37578 7007 7006 37583 37883 6946 6945 37888
8 1060 37579 37584 1061 999 37884 37889 1000
8 37579 37580 37585 37584 37884 37885 37890 37889
8 37580 37581 37586 37585 37885 37886 37891 37890
8 37581 37582 37587 37586 37886 37887 37892 37891
8 37582 37583 37588 37587 37887 37888 37893 37892
8 37583 7006 7005 37588 37888 6945 6944 37893
8 1061 37584 37589 1062 1000 37889 37894 1001
8 37584 37585 37590 37589 37889 37890 37895 37894
8 37585 37586 37591 37590 37890 37891 37896 37895
8 37586 37587 37592 37591 37891 37892 37897 37896
8 37587 37588 37593 37592 37892 37893 37898 37897
8 37588 7005 7004 37593 37893 6944 6943 37898
8 1062 37589 37594 1063 1001 37894 37899 1002
8 37589 37590 37595 37594 37894 37895 37900 37899
8 37590 37591 37596 37595 37895 37896 37901 37900
8 37591 37592 37597 37596 37896 37897 37902 37901
8 37592 37593 37598 37597 37897 37898 37903 37902
8 37593 7004 7003 37598 37898 6943 6942 37903
8 37594 37595 37600 37599 37899 37900 37905 37904
8 37595 37596 37601 37600 37900 37901 37906 37905
8 37596 37597 37602 37601 37901 37902 37907 37906
8 37597 37598 37603 37602 37902 37903 37908 37907
8 37598 7003 7002 37603 37903 6942 6941 37908
8 37599 37600 37605 37604 37904 37905 37910 37909
8 37600 37601 37606 37605 37905 37906 37911 37910
8 37601 37602 37607 37606 37906 37907 37912 37911
8 37602 37603 37608 37607 37907 37908 37913 37912
8 37603 7002 7001 37608 37908 6941 6940 37913
8 37604 37605 37610 37609 37909 37910 37915 37914
8 37605 37606 37611 37610 37910 37911 37916 37915
8 37606 37607 37612 37611 37911 37912 37917 37916
8 37607 37608 37613 37612 37912 37913 37918 37917
8 37608 7001 7000 37613 37913 6940 6939 37918
8 37609 37610 37615 37614 37914 37915 37920 37919
8 37610 37611 37616 37615 37915 37916 37921 37920
8 37611 37612 37617 37616 37916 37917 37922 37921
8 37612 37613 37618 37617 37917 37918 37923 37922
8 37613 7000 6999 37618 37918 6939 6938 37923
8 37614 37615 37620 37619 37919 37920 37925 37924
8 37615 37616 37621 37620 37920 37921 37926 37925
8 37616 37617 37622 37621 37921 37922 37927 37926
8 37617 37618 37623 37622 37922 37923 37928 37927
8 37618 6999 6998 37623 37923 6938 6937 37928
8 1068 37619 37624 1069 1007 37924 37929 1008
8 37619 37620 37625 37624 37924 37925 37930 37929
8 37620 37621 37626 37625 37925 37926 37931 37930
8 37621 37622 37627 37626 37926 37927 37932 37931
8 37622 37623 37628 37627 37927 37928 37933 37932
8 37623 6998 6997 37628 37928 6937 6936 37933
8 1069 37624 37629 1070 1008 37929 37934 1009
8 37624 37625 37630 37629 37929 37930 37935 37934
8 37625 37626 37631 37630 37930 37931 37936 37935
8 37626 37627 37632 37631 37931 37932 37937 37936
8 37627 37628 37633 37632 37932 37933 37938 37937
8 37628 6997 6996 37633 37933 6936 6935 37938
8 1070 37629 37634 1071 1009 37934 37939 1010
8 37629 37630 37635 37634 37934 37935 37940 37939
8 37630 37631 37636 37635 37935 37936 37941 37940
8 37631 37632 37637 37636 37936 37937 37942 37941
8 37632 37633 37638 37637 37937 37938 37943 37942
8 37633 6996 6995 37638 37938 6935 6934 37943
8 1071 37634 37639 1072 1010 37939 37944 1011
8 37634 37635 37640 37639 37939 37940 37945 37944
8 37635 37636 37641 37640 37940 37941 37946 37945
8 37636 37637 37642 37641 37941 37942 37947 37946
8 37637 37638 37643 37642 37942 37943 37948 37947
8 37638 6995 6994 37643 37943 6934 6933 37948
8 1072 37639 37644 1073 1011 37944 37949 1012
8 37639 37640 37645 37644 37944 37945 37950 37949
8 37640 37641 37646 37645 37945 37946 37951 37950
8 37641 37642 37647 37646 37946 37947 37952 37951
8 37642 37643 37648 37647 37947 37948 37953 37952
8 37643 6994 6993 37648 37948 6933 6932 37953
8 1073 37644 37649 1074 1012 37949 37954 1013
8 37644 37645 37650 37649 37949 37950 37955 37954
8 37645 37646 37651 37650 37950 37951 37956 37955
8 37646 37647 37652 37651 37951 37952 37957 37956
8 37647 37648 37653 37652 37952 37953 37958 37957
8 37648 6993 6992 37653 37953 6932 6931 37958
8 1074 37649 37654 1075 1013 37954 37959 1014
8 37649 37650 37655 37654 37954 37955 37960 37959
8 37650 37651 37656 37655 37955 37956 37961 37960
8 37651 37652 37657 37656 37956 37957 37962 37961
8 37652 37653 37658 37657 37957 37958 37963 37962
8 37653 6992 6991 37658 37958 6931 6930 37963
8 1075 37654 37659 1076 1014 37959 37964 1015
8 37654 37655 37660 37659 37959 37960 37965 37964
8 37655 37656 37661 37660 37960 37961 37966 37965
8 37656 37657 37662 37661 37961 37962 37967 37966
8 37657 37658 37663 37662 37962 37963 37968 37967
8 37658 6991 6990 37663 37963 6930 6929 37968
8 1076 37659 37664 1077 1015 37964 37969 1016
8 37659 37660 37665 37664 37964 37965 37970 37969
8 37660 37661 37666 37665 37965 37966 37971 37970
8 37661 37662 37667 37666 37966 37967 37972 37971
8 37662 37663 37668 37667 37967 37968 37973 37972
8 37663 6990 6989 37668 37968 6929 6928 37973
8 1077 37664 37669 1078 1016 37969 37974 1017
8 37664 37665 37670 37669 37969 37970 37975 37974
8 37665 37666 37671 37670 37970 37971 37976 37975
8 37666 37667 37672 37671 37971 37972 37977 37976
8 37667 37668 37673 37672 37972 37973 37978 37977
8 37668 6989 6988 37673 37973 6928 6927 37978
8 1078 37669 37674 1079 1017 37974 37979 1018
8 37669 37670 37675 37674 37974 37975 37980 37979
8 37670 37671 37676 37675 37975 37976 37981 37980
8 37671 37672 37677 37676 37976 37977 37982 37981
8 37672 37673 37678 37677 37977 37978 37983 37982
8 37673 6988 6987 37678 37978 6927 6926 37983
8 1079 37674 37679 1080 1018 37979 37984 1019
8 37674 37675 37680 37679 37979 37980 37985 37984
8 37675 37676 37681 37680 37980 37981 37986 37985
8 37676 37677 37682 37681 37981 37982 37987 37986
8 37677 37678 37683 37682 37982 37983 37988 37987
8 37678 6987 6986 37683 37983 6926 6925 37988
8 1080 37679 37684 1081 1019 37984 37989 1020
8 37679 37680 37685 37684 37984 37985 37990 37989
8 37680 37681 37686 37685 37985 37986 37991 37990
8 37681 37682 37687 37686 37986 37987 37992 37991
8 37682 37683 37688 37687 37987 37988 37993 37992
8 37683 6986 6985 37688 37988 6925 6924 37993
8 1081 37684 37689 1082 1020 37989 37994 1021
8 37684 37685 37690 37689 37989 37990 37995 37994
8 37685 37686 37691 37690 37990 37991 37996 37995
8 37686 37687 37692 37691 37991 37992 37997 37996
8 37687 37688 37693 37692 37992 37993 37998 37997
8 37688 6985 6984 37693 37993 6924 6923 37998
8 1082 37689 37694 1083 1021 37994 37999 1022
8 37689 37690 37695 37694 37994 37995 38000 37999
8 37690 37691 37696 37695 37995 37996 38001 38000
8 37691 37692 37697 37696 37996 37997 38002 38001
8 37692 37693 37698 37697 37997 37998 38003 38002
8 37693 6984 6983 37698 37998 6923 6922 38003
8 1083 37694 37699 1084 1022 37999 38004 1023
8 37694 37695 37700 37699 37999 38000 38005 38004
8 37695 37696 37701 37700 38000 38001 38006 38005
8 37696 37697 37702 37701 38001 38002 38007 38006
8 37697 37698 37703 37702 38002 38003 38008 38007
8 37698 6983 6982 37703 38003 6922 6921 38008
8 1084 37699 37704 1085 1023 38004 38009 1024
8 37699 37700 37705 37704 38004 38005 38010 38009
8 37700 37701 37706 37705 38005 38006 38011 38010
8 37701 37702 37707 37706 38006 38007 38012 38011
8 37702 37703 37708 37707 38007 38008 38013 38012
8 37703 6982 6981 37708 38008 6921 6920 38013
8 1085 37704 37709 1086 1024 38009 38014 1025
8 37704 37705 37710 37709 38009 38010 38015 38014
8 37705 37706 37711 37710 38010 38011 38016 38015
8 37706 37707 37712 37711 38011 38012 38017 38016
8 37707 37708 37713 37712 38012 38013 38018 38017
8 37708 6981 6980 37713 38013 6920 6919 38018
8 1086 37709 37714 1087 1025 38014 38019 1026
8 37709 37710 37715 37714 38014 38015 38020 38019
8 37710 37711 37716 37715 38015 38016 38021 38020
8 37711 37712 37717 37716 38016 38017 38022 38021
8 37712 37713 37718 37717 38017 38018 38023 38022
8 37713 6980 6979 37718 38018 6919 6918 38023
8 1087 37714 37719 1088 1026 38019 38024 1027
8 37714 37715 37720 37719 38019 38020 38025 38024
8 37715 37716 37721 37720 38020 38021 38026 38025
8 37716 37717 37722 37721 38021 38022 38027 38026
8 37717 37718 37723 37722 38022 38023 38028 38027
8 37718 6979 6978 37723 38023 6918 6917 38028
8 37719 37720 37725 37724 38024 38025 38030 38029
8 37720 37721 37726 37725 38025 38026 38031 38030
8 37721 37722 37727 37726 38026 38027 38032 38031
8 37722 37723 37728 37727 38027 38028 38033 38032
8 37723 6978 6977 37728 38028 6917 6916 38033
8 37724 37725 37730 37729 38029 38030 38035 38034
8 37725 37726 37731 37730 38030 38031 38036 38035
8 37726 37727 37732 37731 38031 38032 38037 38036
8 37727 37728 37733 37732 38032 38033 38038 38037
8 37728 6977 6976 37733 38033 6916 6915 38038
8 37729 37730 37735 37734 38034 38035 38040 38039
8 37730 37731 37736 37735 38035 38036 38041 38040
8 37731 37732 37737 37736 38036 38037 38042 38041
8 37732 37733 37738 37737 38037 38038 38043 38042
8 37733 6976 6975 37738 38038 6915 6914 38043
8 37734 37735 37740 37739 38039 38040 38045 38044
8 37735 37736 37741 37740 38040 38041 38046 38045
8 37736 37737 37742 37741 38041 38042 38047 38046
8 37737 37738 37743 37742 38042 38043 38048 38047
8 37738 6975 6974 37743 38043 6914 6913 38048
8 37739 37740 37745 37744 38044 38045 38050 38049
8 37740 37741 37746 37745 38045 38046 38051 38050
8 37741 37742 37747 37746 38046 38047 38052 38051
8 37742 37743 37748 37747 38047 38048 38053 38052
8 37743 6974 6973 37748 38048 6913 6912 38053
8 1093 37744 37749 1094 1032 38049 38054 1033
8 37744 37745 37750 37749 38049 38050 38055 38054
8 37745 37746 37751 37750 38050 38051 38056 38055
8 37746 37747 37752 37751 38051 38052 38057 38056
8 37747 37748 37753 37752 38052 38053 38058 38057
8 37748 6973 6972 37753 38053 6912 6911 38058
8 1094 37749 37754 1095 1033 38054 38059 1034
8 37749 37750 37755 37754 38054 38055 38060 38059
8 37750 37751 37756 37755 38055 38056 38061 38060
8 37751 37752 37757 37756 38056 38057 38062 38061
8 37752 37753 37758 37757 38057 38058 38063 38062
8 37753 6972 6971 37758 38058 6911 6910 38063
8 1095 37754 37759 1096 1034 38059 38064 1035
8 37754 37755 37760 37759 38059 38060 38065 38064
8 37755 37756 37761 37760 38060 38061 38066 38065
8 37756 37757 37762 37761 38061 38062 38067 38066
8 37757 37758 37763 37762 38062 38063 38068 38067
8 37758 6971 6970 37763 38063 6910 6909 38068
8 1096 37759 37764 1097 1035 38064 38069 1036
8 37759 37760 37765 37764 38064 38065 38070 38069
8 37760 37761 37766 37765 38065 38066 38071 38070
8 37761 37762 37767 37766 38066 38067 38072 38071
8 37762 37763 37768 37767 38067 38068 38073 38072
8 37763 6970 6969 37768 38068 6909 6908 38073
8 1097 37764 37769 1098 1036 38069 38074 1037
8 37764 37765 37770 37769 38069 38070 38075 38074
8 37765 37766 37771 37770 38070 38071 38076 38075
8 37766 37767 37772 37771 38071 38072 38077 38076
8 37767 37768 37773 37772 38072 38073 38078 38077
8 37768 6969 6968 37773 38073 6908 6907 38078
8 1098 37769 37774 1099 1037 38074 38079 1038
8 37769 37770 37775 37774 38074 38075 38080 38079
8 37770 37771 37776 37775 38075 38076 38081 38080
8 37771 37772 37777 37776 38076 38077 38082 38081
8 37772 37773 37778 37777 38077 38078 38083 38082
8 37773 6968 6967 37778 38078 6907 6906 38083
8 1099 37774 37779 1100 1038 38079 38084 1039
8 37774 37775 37780 37779 38079 38080 38085 38084
8 37775 37776 37781 37780 38080 38081 38086 38085
8 37776 37777 37782 37781 38081 38082 38087 38086
8 37777 37778 37783 37782 38082 38083 38088 38087
8 37778 6967 6966 37783 38083 6906 6905 38088
8 1100 37779 37784 1101 1039 38084 38089 1040
8 37779 37780 37785 37784 38084 38085 38090 38089
8 37780 37781 37786 37785 38085 38086 38091 38090
8 37781 37782 37787 37786 38086 38087 38092 38091
8 37782 37783 37788 37787 38087 38088 38093 38092
8 37783 6966 6965 37788 38088 6905 6904 38093
8 1101 37784 37789 1102 1040 38089 38094 1041
8 37784 37785 37790 37789 38089 38090 38095 38094
8 37785 37786 37791 37790 38090 38091 38096 38095
8 37786 37787 37792 37791 38091 38092 38097 38096
8 37787 37788 37793 37792 38092 38093 38098 38097
8 37788 6965 6964 37793 38093 6904 6903 38098
8 1102 37789 12689 76 1041 38094 12684 75
8 37789 37790 12690 12689 38094 38095 12685 12684
8 37790 37791 12691 12690 38095 38096 12686 12685
8 37791 37792 12692 12691 38096 38097 12687 12686
8 37792 37793 12693 12692 38097 38098 12688 12687
8 37793 6964 6219 12693 38098 6903 6220 12688
8 298 12254 37794 981 299 12259 38099 920
8 12254 12255 37795 37794 12259 12260 38100 38099
8 12255 12256 37796 37795 12260 12261 38101 38100
8 12256 12257 37797 37796 12261 12262 38102 38101
8 12257 12258 37798 37797 12262 12263 38103 38102
8 12258 5997 6963 37798 12263 5996 6902 38103
8 981 37794 37799 982 920 38099 38104 921
8 37794 37795 37800 37799 38099 38100 38105 38104
8 37795 37796 37801 37800 38100 38101 38106 38105
8 37796 37797 37802 37801 38101 38102 38107 38106
8 37797 37798 37803 37802 38102 38103 38108 38107
8 37798 6963 6962 37803 38103 6902 6901 38108
8 982 37799 37804 983 921 38104 38109 922
8 37799 37800 37805 37804 38104 38105 38110 38109
8 37800 37801 37806 37805 38105 38106 38111 38110
8 37801 37802 37807 37806 38106 38107 38112 38111
8 37802 37803 37808 37807 38107 38108 38113 38112
8 37803 6962 6961 37808 38108 6901 6900 38113
8 983 37804 37809 984 922 38109 38114 923
8 37804 37805 37810 37809 38109 38110 38115 38114
8 37805 37806 37811 37810 38110 38111 38116 38115
8 37806 37807 37812 37811 38111 38112 38117 38116
8 37807 37808 37813 37812 38112 38113 38118 38117
8 37808 6961 6960 37813 38113 6900 6899 38118
8 984 37809 37814 985 923 38114 38119 924
8 37809 37810 37815 37814 38114 38115 38120 38119
8 37810 37811 37816 37815 38115 38116 38121 38120
8 37811 37812 37817 37816 38116 38117 38122 38121
8 37812 37813 37818 37817 38117 38118 38123 38122
8 37813 6960 6959 37818 38118 6899 6898 38123
8 985 37814 37819 986 924 38119 38124 925
8 37814 37815 37820 37819 38119 38120 38125 38124
8 37815 37816 37821 37820 38120 38121 38126 38125
8 37816 37817 37822 37821 38121 38122 38127 38126
8 37817 37818 37823 37822 38122 38123 38128 38127
8 37818 6959 6958 37823 38123 6898 6897 38128
8 986 37819 37824 987 925 38124 38129 926
8 37819 37820 37825 37824 38124 38125 38130 38129
8 37820 37821 37826 37825 38125 38126 38131 38130
8 37821 37822 37827 37826 38126 38127 38132 38131
8 37822 37823 37828 37827 38127 38128 38133 38132
8 37823 6958 6957 37828 38128 6897 6896 38133
8 987 37824 37829 988 926 38129 38134 927
8 37824 37825 37830 37829 38129 38130 38135 38134
8 37825 37826 37831 37830 38130 38131 38136 38135
8 37826 37827 37832 37831 38131 38132 38137 38136
8 37827 37828 37833 37832 38132 38133 38138 38137
8 37828 6957 6956 37833 38133 6896 6895 38138
8 988 37829 37834 989 927 38134 38139 928
8 37829 37830 37835 37834 38134 38135 38140 38139
8 37830 37831 37836 37835 38135 38136 38141 38140
8 37831 37832 37837 37836 38136 38137 38142 38141
8 37832 37833 37838 37837 38137 38138 38143 38142
8 37833 6956 6955 37838 38138 6895 6894 38143
8 989 37834 37839 990 928 38139 38144 929
8 37834 37835 37840 37839 38139 38140 38145 38144
8 37835 37836 37841 37840 38140 38141 38146 38145
8 37836 37837 37842 37841 38141 38142 38147 38146
8 37837 37838 37843 37842 38142 38143 38148 38147
8 37838 6955 6954 37843 38143 6894 6893 38148
8 990 37839 37844 991 929 38144 38149 930
8 37839 37840 37845 37844 38144 38145 38150 38149
8 37840 37841 37846 37845 38145 38146 38151 38150
8 37841 37842 37847 37846 38146 38147 38152 38151
8 37842 37843 37848 37847 38147 38148 38153 38152
8 37843 6954 6953 37848 38148 6893 6892 38153
8 991 37844 37849 992 930 38149 38154 931
8 37844 37845 37850 37849 38149 38150 38155 38154
8 37845 37846 37851 37850 38150 38151 38156 38155
8 37846 37847 37852 37851 38151 38152 38157 38156
8 37847 37848 37853 37852 38152 38153 38158 38157
8 37848 6953 6952 37853 38153 6892 6891 38158
8 992 37849 37854 993 931 38154 38159 932
8 37849 37850 37855 37854 38154 38155 38160 38159
8 37850 37851 37856 37855 38155 38156 38161 38160
8 37851 37852 37857 37856 38156 38157 38162 38161
8 37852 37853 37858 37857 38157 38158 38163 38162
8 37853 6952 6951 37858 38158 6891 6890 38163
8 993 37854 37859 994 932 38159 38164 933
8 37854 37855 37860 37859 38159 38160 38165 38164
8 37855 37856 37861 37860 38160 38161 38166 38165
8 37856 37857 37862 37861 38161 38162 38167 38166
8 37857 37858 37863 37862 38162 38163 38168 38167
8 37858 6951 6950 37863 38163 6890 6889 38168
8 994 37859 37864 995 933 38164 38169 934
8 37859 37860 37865 37864 38164 38165 38170 38169
8 37860 37861 37866 37865 38165 38166 38171 38170
8 37861 37862 37867 37866 38166 38167 38172 38171
8 37862 37863 37868 37867 38167 38168 38173 38172
8 37863 6950 6949 37868 38168 6889 6888 38173
8 995 37864 37869 996 934 38169 38174 935
8 37864 37865 37870 37869 38169 38170 38175 38174
8 37865 37866 37871 37870 38170 38171 38176 38175
8 37866 37867 37872 37871 38171 38172 38177 38176
8 37867 37868 37873 37872 38172 38173 38178 38177
8 37868 6949 6948 37873 38173 6888 6887 38178
8 996 37869 37874 997 935 38174 38179 936
8 37869 37870 37875 37874 38174 38175 38180 38179
8 37870 37871 37876 37875 38175 38176 38181 38180
8 37871 37872 37877 37876 38176 38177 38182 38181
8 37872 37873 37878 37877 38177 38178 38183 38182
8 37873 6948 6947 37878 38178 6887 6886 38183
8 997 37874 37879 998 936 38179 38184 937
8 37874 37875 37880 37879 38179 38180 38185 38184
8 37875 37876 37881 37880 38180 38181 38186 38185
8 37876 37877 37882 37881 38181 38182 38187 38186
8 37877 37878 37883 37882 38182 38183 38188 38187
8 37878 6947 6946 37883 38183 6886 6885 38188
8 998 37879 37884 999 937 38184 38189 938
8 37879 37880 37885 37884 38184 38185 38190 38189
8 37880 37881 37886 37885 38185 38186 38191 38190
8 37881 37882 37887 37886 38186 38187 38192 38191
8 37882 37883 37888 37887 38187 38188 38193 38192
8 37883 6946 6945 37888 38188 6885 6884 38193
8 999 37884 37889 1000 938 38189 38194 939
8 37884 37885 37890 37889 38189 38190 38195 38194
8 37885 37886 37891 37890 38190 38191 38196 38195
8 37886 37887 37892 37891 38191 38192 38197 38196
8 37887 37888 37893 37892 38192 38193 38198 38197
8 37888 6945 6944 37893 38193 6884 6883 38198
8 1000 37889 37894 1001 939 38194 38199 940
8 37889 37890 37895 37894 38194 38195 38200 38199
8 37890 37891 37896 37895 38195 38196 38201 38200
8 37891 37892 37897 37896 38196 38197 38202 38201
8 37892 37893 37898 37897 38197 38198 38203 38202
8 37893 6944 6943 37898 38198 6883 6882 38203
8 1001 37894 37899 1002 940 38199 38204 941
8 37894 37895 37900 37899 38199 38200 38205 38204
8 37895 37896 37901 37900 38200 38201 38206 38205
8 37896 37897 37902 37901 38201 38202 38207 38206
8 37897 37898 37903 37902 38202 38203 38208 38207
8 37898 6943 6942 37903 38203 6882 6881 38208
8 37899 37900 37905 37904 38204 38205 38210 38209
8 37900 37901 37906 37905 38205 38206 38211 38210
8 37901 37902 37907 37906 38206 38207 38212 38211
8 37902 37903 37908 37907 38207 38208 38213 38212
8 37903 6942 6941 37908 38208 6881 6880 38213
8 37904 37905 37910 37909 38209 38210 38215 38214
8 37905 37906 37911 37910 38210 38211 38216 38215
8 37906 37907 37912 37911 38211 38212 38217 38216
8 37907 37908 37913 37912 38212 38213 38218 38217
8 37908 6941 6940 37913 38213 6880 6879 38218
8 37909 37910 37915 37914 38214 38215 38220 38219
8 37910 37911 37916 37915 38215 38216 38221 38220
8 37911 37912 37917 37916 38216 38217 38222 38221
8 37912 37913 37918 37917 38217 38218 38223 38222
8 37913 6940 6939 37918 38218 6879 6878 38223
8 37914 37915 37920 37919 38219 38220 38225 38224
8 37915 37916 37921 37920 38220 38221 38226 38225
8 37916 37917 37922 37921 38221 38222 38227 38226
8 37917 37918 37923 37922 38222 38223 38228 38227
8 37918 6939 6938 37923 38223 6878 6877 38228
8 37919 37920 37925 37924 38224 38225 38230 38229
8 37920 37921 37926 37925 38225 38226 38231 38230
8 37921 37922 37927 37926 38226 38227 38232 38231
8 37922 37923 37928 37927 38227 38228 38233 38232
8 37923 6938 6937 37928 38228 6877 6876 38233
8 1007 37924 37929 1008 946 38229 38234 947
8 37924 37925 37930 37929 38229 38230 38235 38234
8 37925 37926 37931 37930 38230 38231 38236 38235
8 37926 37927 37932 37931 38231 38232 38237 38236
8 37927 37928 37933 37932 38232 38233 38238 38237
8 37928 6937 6936 37933 38233 6876 6875 38238
8 1008 37929 37934 1009 947 38234 38239 948
8 37929 37930 37935 37934 38234 38235 38240 38239
8 37930 37931 37936 37935 38235 38236 38241 38240
8 37931 37932 37937 37936 38236 38237 38242 38241
8 37932 37933 37938 37937 38237 38238 38243 38242
8 37933 6936 6935 37938 38238 6875 6874 38243
8 1009 37934 37939 1010 948 38239 38244 949
8 37934 37935 37940 37939 38239 38240 38245 38244
8 37935 37936 37941 37940 38240 38241 38246 38245
8 37936 37937 37942 37941 38241 38242 38247 38246
8 37937 37938 37943 37942 38242 38243 38248 38247
8 37938 6935 6934 37943 38243 6874 6873 38248
8 1010 37939 37944 1011 949 38244 38249 950
8 37939 37940 37945 37944 38244 38245 38250 38249
8 37940 37941 37946 37945 38245 38246 38251 38250
8 37941 37942 37947 37946 38246 38247 38252 38251
8 37942 37943 37948 37947 38247 38248 38253 38252
8 37943 6934 6933 37948 38248 6873 6872 38253
8 1011 37944 37949 1012 950 38249 38254 951
8 37944 37945 37950 37949 38249 38250 38255 38254
8 37945 37946 37951 37950 38250 38251 38256 38255
8 37946 37947 37952 37951 38251 38252 38257 38256
8 37947 37948 37953 37952 38252 38253 38258 38257
8 37948 6933 6932 37953 38253 6872 6871 38258
8 1012 37949 37954 1013 951 38254 38259 952
8 37949 37950 37955 37954 38254 38255 38260 38259
8 37950 37951 37956 37955 38255 38256 38261 38260
8 37951 37952 37957 37956 38256 38257 38262 38261
8 37952 37953 37958 37957 38257 38258 38263 38262
8 37953 6932 6931 37958 38258 6871 6870 38263
8 1013 37954 37959 1014 952 38259 38264 953
8 37954 37955 37960 37959 38259 38260 38265 38264
8 37955 37956 37961 37960 38260 38261 38266 38265
8 37956 37957 37962 37961 38261 38262 38267 38266
8 37957 37958 37963 37962 38262 38263 38268 38267
8 37958 6931 6930 37963 38263 6870 6869 38268
8 1014 37959 37964 1015 953 38264 38269 954
8 37959 37960 37965 37964 38264 38265 38270 38269
8 37960 37961 37966 37965 38265 38266 38271 38270
8 37961 37962 37967 37966 38266 38267 38272 38271
8 37962 37963 37968 37967 38267 38268 38273 38272
8 37963 6930 6929 37968 38268 6869 6868 38273
8 1015 37964 37969 1016 954 38269 38274 955
8 37964 37965 37970 37969 38269 38270 38275 38274
8 37965 37966 37971 37970 38270 38271 38276 38275
8 37966 37967 37972 37971 38271 38272 38277 38276
8 37967 37968 37973 37972 38272 38273 38278 38277
8 37968 6929 6928 37973 38273 6868 6867 38278
8 1016 37969 37974 1017 955 38274 38279 956
8 37969 37970 37975 37974 38274 38275 38280 38279
8 37970 37971 37976 37975 38275 38276 38281 38280
8 37971 37972 37977 37976 38276 38277 38282 38281
8 37972 37973 37978 37977 38277 38278 38283 38282
8 37973 6928 6927 37978 38278 6867 6866 38283
8 1017 37974 37979 1018 956 38279 38284 957
8 37974 37975 37980 37979 38279 38280 38285 38284
8 37975 37976 37981 37980 38280 38281 38286 38285
8 37976 37977 37982 37981 38281 38282 38287 38286
8 37977 37978 37983 37982 38282 38283 38288 38287
8 37978 6927 6926 37983 38283 6866 6865 38288
8 1018 37979 37984 1019 957 38284 38289 958
8 37979 37980 37985 37984 38284 38285 38290 38289
8 37980 37981 37986 37985 38285 38286 38291 38290
8 37981 37982 37987 37986 38286 38287 38292 38291
8 37982 37983 37988 37987 38287 38288 38293 38292
8 37983 6926 6925 37988 38288 6865 6864 38293
8 1019 37984 37989 1020 958 38289 38294 959
8 37984 37985 37990 37989 38289 38290 38295 38294
8 37985 37986 37991 37990 38290 38291 38296 38295
8 37986 37987 37992 37991 38291 38292 38297 38296
8 37987 37988 37993 37992 38292 38293 38298 38297
8 37988 6925 6924 37993 38293 6864 6863 38298
8 1020 37989 37994 1021 959 38294 38299 960
8 37989 37990 37995 37994 38294 38295 38300 38299
8 37990 37991 37996 37995 38295 38296 38301 38300
8 37991 37992 37997 37996 38296 38297 38302 38301
8 37992 37993 37998 37997 38297 38298 38303 38302
8 37993 6924 6923 37998 38298 6863 6862 38303
8 1021 37994 37999 1022 960 38299 38304 961
8 37994 37995 38000 37999 38299 38300 38305 38304
8 37995 37996 38001 38000 38300 38301 38306 38305
8 37996 37997 38002 38001 38301 38302 38307 38306
8 37997 37998 38003 38002 38302 38303 38308 38307
8 37998 6923 6922 38003 38303 6862 6861 38308
8 1022 37999 38004 1023 961 38304 38309 962
8 37999 38000 38005 38004 38304 38305 38310 38309
8 38000 38001 38006 38005 38305 38306 38311 38310
8 38001 38002 38007 38006 38306 38307 38312 38311
8 38002 38003 38008 38007 38307 38308 38313 38312
8 38003 6922 6921 38008 38308 6861 6860 38313
8 1023 38004 38009 1024 962 38309 38314 963
8 38004 38005 38010 38009 38309 38310 38315 38314
8 38005 38006 38011 38010 38310 38311 38316 38315
8 38006 38007 38012 38011 38311 38312 38317 38316
8 38007 38008 38013 38012 38312 38313 38318 38317
8 38008 6921 6920 38013 38313 6860 6859 38318
8 1024 38009 38014 1025 963 38314 38319 964
8 38009 38010 38015 38014 38314 38315 38320 38319
8 38010 38011 38016 38015 38315 38316 38321 38320
8 38011 38012 38017 38016 38316 38317 38322 38321
8 38012 38013 38018 38017 38317 38318 38323 38322
8 38013 6920 6919 38018 38318 6859 6858 38323
8 1025 38014 38019 1026 964 38319 38324 965
8 38014 38015 38020 38019 38319 38320 38325 38324
8 38015 38016 38021 38020 38320 38321 38326 38325
8 38016 38017 38022 38021 38321 38322 38327 38326
8 38017 38018 38023 38022 38322 38323 38328 38327
8 38018 6919 6918 38023 38323 6858 6857 38328
8 1026 38019 38024 1027 965 38324 38329 966
8 38019 38020 38025 38024 38324 38325 38330 38329
8 38020 38021 38026 38025 38325 38326 38331 38330
8 38021 38022 38027 38026 38326 38327 38332 38331
8 38022 38023 38028 38027 38327 38328 38333 38332
8 38023 6918 6917 38028 38328 6857 6856 38333
8 38024 38025 38030 38029 38329 38330 38335 38334
8 38025 38026 38031 38030 38330 38331 38336 38335
8 38026 38027 38032 38031 38331 38332 38337 38336
8 38027 38028 38033 38032 38332 38333 38338 38337
8 38028 6917 6916 38033 38333 6856 6855 38338
8 38029 38030 38035 38034 38334 38335 38340 38339
8 38030 38031 38036 38035 38335 38336 38341 38340
8 38031 38032 38037 38036 38336 38337 38342 38341
8 38032 38033 38038 38037 38337 38338 38343 38342
8 38033 6916 6915 38038 38338 6855 6854 38343
8 38034 38035 38040 38039 38339 38340 38345 38344
8 38035 38036 38041 38040 38340 38341 38346 38345
8 38036 38037 38042 38041 38341 38342 38347 38346
8 38037 38038 38043 38042 38342 38343 38348 38347
8 38038 6915 6914 38043 38343 6854 6853 38348
8 38039 38040 38045 38044 38344 38345 38350 38349
8 38040 38041 38046 38045 38345 38346 38351 38350
8 38041 38042 38047 38046 38346 38347 38352 38351
8 38042 38043 38048 38047 38347 38348 38353 38352
8 38043 6914 6913 38048 38348 6853 6852 38353
8 38044 38045 38050 38049 38349 38350 38355 38354
8 38045 38046 38051 38050 38350 38351 38356 38355
8 38046 38047 38052 38051 38351 38352 38357 38356
8 38047 38048 38053 38052 38352 38353 38358 38357
8 38048 6913 6912 38053 38353 6852 6851 38358
8 1032 38049 38054 1033 971 38354 38359 972
8 38049 38050 38055 38054 38354 38355 38360 38359
8 38050 38051 38056 38055 38355 38356 38361 38360
8 38051 38052 38057 38056 38356 38357 38362 38361
8 38052 38053 38058 38057 38357 38358 38363 38362
8 38053 6912 6911 38058 38358 6851 6850 38363
8 1033 38054 38059 1034 972 38359 38364 973
8 38054 38055 38060 38059 38359 38360 38365 38364
8 38055 38056 38061 38060 38360 38361 38366 38365
8 38056 38057 38062 38061 38361 38362 38367 38366
8 38057 38058 38063 38062 38362 38363 38368 38367
8 38058 6911 6910 38063 38363 6850 6849 38368
8 1034 38059 38064 1035 973 38364 38369 974
8 38059 38060 38065 38064 38364 38365 38370 38369
8 38060 38061 38066 38065 38365 38366 38371 38370
8 38061 38062 38067 38066 38366 38367 38372 38371
8 38062 38063 38068 38067 38367 38368 38373 38372
8 38063 6910 6909 38068 38368 6849 6848 38373
8 1035 38064 38069 1036 974 38369 38374 975
8 38064 38065 38070 38069 38369 38370 38375 38374
8 38065 38066 38071 38070 38370 38371 38376 38375
8 38066 38067 38072 38071 38371 38372 38377 38376
8 38067 38068 38073 38072 38372 38373 38378 38377
8 38068 6909 6908 38073 38373 6848 6847 38378
8 1036 38069 38074 1037 975 38374 38379 976
8 38069 38070 38075 38074 38374 38375 38380 38379
8 38070 38071 38076 38075 38375 38376 38381 38380
8 38071 38072 38077 38076 38376 38377 38382 38381
8 38072 38073 38078 38077 38377 38378 38383 38382
8 38073 6908 6907 38078 38378 6847 6846 38383
8 1037 38074 38079 1038 976 38379 38384 977
8 38074 38075 38080 38079 38379 38380 38385 38384
8 38075 38076 38081 38080 38380 38381 38386 38385
8 38076 38077 38082 38081 38381 38382 38387 38386
8 38077 38078 38083 38082 38382 38383 38388 38387
8 38078 6907 6906 38083 38383 6846 6845 38388
8 1038 38079 38084 1039 977 38384 38389 978
8 38079 38080 38085 38084 38384 38385 38390 38389
8 38080 38081 38086 38085 38385 38386 38391 38390
8 38081 38082 38087 38086 38386 38387 38392 38391
8 38082 38083 38088 38087 38387 38388 38393 38392
8 38083 6906 6905 38088 38388 6845 6844 38393
8 1039 38084 38089 1040 978 38389 38394 979
8 38084 38085 38090 38089 38389 38390 38395 38394
8 38085 38086 38091 38090 38390 38391 38396 38395
8 38086 38087 38092 38091 38391 38392 38397 38396
8 38087 38088 38093 38092 38392 38393 38398 38397
8 38088 6905 6904 38093 38393 6844 6843 38398
8 1040 38089 38094 1041 979 38394 38399 980
8 38089 38090 38095 38094 38394 38395 38400 38399
8 38090 38091 38096 38095 38395 38396 38401 38400
8 38091 38092 38097 38096 38396 38397 38402 38401
8 38092 38093 38098 38097 38397 38398 38403 38402
8 38093 6904 6903 38098 38398 6843 6842 38403
8 1041 38094 12684 75 980 38399 12679 74
8 38094 38095 12685 12684 38399 38400 12680 12679
8 38095 38096 12686 12685 38400 38401 12681 12680
8 38096 38097 12687 12686 38401 38402 12682 12681
8 38097 38098 12688 12687 38402 38403 12683 12682
8 38098 6903 6220 12688 38403 6842 6221 12683
8 299 12259 38099 920 300 12264 38404 859
8 12259 12260 38100 38099 12264 12265 38405 38404
8 12260 12261 38101 38100 12265 12266 38406 38405
8 12261 12262 38102 38101 12266 12267 38407 38406
8 12262 12263 38103 38102 12267 12268 38408 38407
8 12263 5996 6902 38103 12268 5995 6841 38408
8 920 38099 38104 921 859 38404 38409 860
8 38099 38100 38105 38104 38404 38405 38410 38409
8 38100 38101 38106 38105 38405 38406 38411 38410
8 38101 38102 38107 38106 38406 38407 38412 38411
8 38102 38103 38108 38107 38407 38408 38413 38412
8 38103 6902 6901 38108 38408 6841 6840 38413
8 921 38104 38109 922 860 38409 38414 861
8 38104 38105 38110 38109 38409 38410 38415 38414
8 38105 38106 38111 38110 38410 38411 38416 38415
8 38106 38107 38112 38111 38411 38412 38417 38416
8 38107 38108 38113 38112 38412 38413 38418 38417
8 38108 6901 6900 38113 38413 6840 6839 38418
8 922 38109 38114 923 861 38414 38419 862
8 38109 38110 38115 38114 38414 38415 38420 38419
8 38110 38111 38116 38115 38415 38416 38421 38420
8 38111 38112 38117 38116 38416 38417 38422 38421
8 38112 38113 38118 38117 38417 38418 38423 38422
8 38113 6900 6899 38118 38418 6839 6838 38423
8 923 38114 38119 924 862 38419 38424 863
8 38114 38115 38120 38119 38419 38420 38425 38424
8 38115 38116 38121 38120 38420 38421 38426 38425
8 38116 38117 38122 38121 38421 38422 38427 38426
8 38117 38118 38123 38122 38422 38423 38428 38427
8 38118 6899 6898 38123 38423 6838 6837 38428
8 924 38119 38124 925 863 38424 38429 864
8 38119 38120 38125 38124 38424 38425 38430 38429
8 38120 38121 38126 38125 38425 38426 38431 38430
8 38121 38122 38127 38126 38426 38427 38432 38431
8 38122 38123 38128 38127 38427 38428 38433 38432
8 38123 6898 6897 38128 38428 6837 6836 38433
8 925 38124 38129 926 864 38429 38434 865
8 38124 38125 38130 38129 38429 38430 38435 38434
8 38125 38126 38131 38130 38430 38431 38436 38435
8 38126 38127 38132 38131 38431 38432 38437 38436
8 38127 38128 38133 38132 38432 38433 38438 38437
8 38128 6897 6896 38133 38433 6836 6835 38438
8 926 38129 38134 927 865 38434 38439 866
8 38129 38130 38135 38134 38434 38435 38440 38439
8 38130 38131 38136 38135 38435 38436 38441 38440
8 38131 38132 38137 38136 38436 38437 38442 38441
8 38132 38133 38138 38137 38437 38438 38443 38442
8 38133 6896 6895 38138 38438 6835 6834 38443
8 927 38134 38139 928 866 38439 38444 867
8 38134 38135 38140 38139 38439 38440 38445 38444
8 38135 38136 38141 38140 38440 38441 38446 38445
8 38136 38137 38142 38141 38441 38442 38447 38446
8 38137 38138 38143 38142 38442 38443 38448 38447
8 38138 6895 6894 38143 38443 6834 6833 38448
8 928 38139 38144 929 867 38444 38449 868
8 38139 38140 38145 38144 38444 38445 38450 38449
8 38140 38141 38146 38145 38445 38446 38451 38450
8 38141 38142 38147 38146 38446 38447 38452 38451
8 38142 38143 38148 38147 38447 38448 38453 38452
8 38143 6894 6893 38148 38448 6833 6832 38453
8 929 38144 38149 930 868 38449 38454 869
8 38144 38145 38150 38149 38449 38450 38455 38454
8 38145 38146 38151 38150 38450 38451 38456 38455
8 38146 38147 38152 38151 38451 38452 38457 38456
8 38147 38148 38153 38152 38452 38453 38458 38457
8 38148 6893 6892 38153 38453 6832 6831 38458
8 930 38149 38154 931 869 38454 38459 870
8 38149 38150 38155 38154 38454 38455 38460 38459
8 38150 38151 38156 38155 38455 38456 38461 38460
8 38151 38152 38157 38156 38456 38457 38462 38461
8 38152 38153 38158 38157 38457 38458 38463 38462
8 38153 6892 6891 38158 38458 6831 6830 38463
8 931 38154 38159 932 870 38459 38464 871
8 38154 38155 38160 38159 38459 38460 38465 38464
8 38155 38156 38161 38160 38460 38461 38466 38465
8 38156 38157 38162 38161 38461 38462 38467 38466
8 38157 38158 38163 38162 38462 38463 38468 38467
8 38158 6891 6890 38163 38463 6830 6829 38468
8 932 38159 38164 933 871 38464 38469 872
8 38159 38160 38165 38164 38464 38465 38470 38469
8 38160 38161 38166 38165 38465 38466 38471 38470
8 38161 38162 38167 38166 38466 38467 38472 38471
8 38162 38163 38168 38167 38467 38468 38473 38472
8 38163 6890 6889 38168 38468 6829 6828 38473
8 933 38164 38169 934 872 38469 38474 873
8 38164 38165 38170 38169 38469 38470 38475 38474
8 38165 38166 38171 38170 38470 38471 38476 38475
8 38166 38167 38172 38171 38471 38472 38477 38476
8 38167 38168 38173 38172 38472 38473 38478 38477
8 38168 6889 6888 38173 38473 6828 6827 38478
8 934 38169 38174 935 873 38474 38479 874
8 38169 38170 38175 38174 38474 38475 38480 38479
8 38170 38171 38176 38175 38475 38476 38481 38480
8 38171 38172 38177 38176 38476 38477 38482 38481
8 38172 38173 38178 38177 38477 38478 38483 38482
8 38173 6888 6887 38178 38478 6827 6826 38483
8 935 38174 38179 936 874 38479 38484 875
8 38174 38175 38180 38179 38479 38480 38485 38484
8 38175 38176 38181 38180 38480 38481 38486 38485
8 38176 38177 38182 38181 38481 38482 38487 38486
8 38177 38178 38183 38182 38482 38483 38488 38487
8 38178 6887 6886 38183 38483 6826 6825 38488
8 936 38179 38184 937 875 38484 38489 876
8 38179 38180 38185 38184 38484 38485 38490 38489
8 38180 38181 38186 38185 38485 38486 38491 38490
8 38181 38182 38187 38186 38486 38487 38492 38491
8 38182 38183 38188 38187 38487 38488 38493 38492
8 38183 6886 6885 38188 38488 6825 6824 38493
8 937 38184 38189 938 876 38489 38494 877
8 38184 38185 38190 38189 38489 38490 38495 38494
8 38185 38186 38191 38190 38490 38491 38496 38495
8 38186 38187 38192 38191 38491 38492 38497 38496
8 38187 38188 38193 38192 38492 38493 38498 38497
8 38188 6885 6884 38193 38493 6824 6823 38498
8 938 38189 38194 939 877 38494 38499 878
8 38189 38190 38195 38194 38494 38495 38500 38499
8 38190 38191 38196 38195 38495 38496 38501 38500
8 38191 38192 38197 38196 38496 38497 38502 38501
8 38192 38193 38198 38197 38497 38498 38503 38502
8 38193 6884 6883 38198 38498 6823 6822 38503
8 939 38194 38199 940 878 38499 38504 879
8 38194 38195 38200 38199 38499 38500 38505 38504
8 38195 38196 38201 38200 38500 38501 38506 38505
8 38196 38197 38202 38201 38501 38502 38507 38506
8 38197 38198 38203 38202 38502 38503 38508 38507
8 38198 6883 6882 38203 38503 6822 6821 38508
8 940 38199 38204 941 879 38504 38509 880
8 38199 38200 38205 38204 38504 38505 38510 38509
8 38200 38201 38206 38205 38505 38506 38511 38510
8 38201 38202 38207 38206 38506 38507 38512 38511
8 38202 38203 38208 38207 38507 38508 38513 38512
8 38203 6882 6881 38208 38508 6821 6820 38513
8 38204 38205 38210 38209 38509 38510 38515 38514
8 38205 38206 38211 38210 38510 38511 38516 38515
8 38206 38207 38212 38211 38511 38512 38517 38516
8 38207 38208 38213 38212 38512 38513 38518 38517
8 38208 6881 6880 38213 38513 6820 6819 38518
8 38209 38210 38215 38214 38514 38515 38520 38519
8 38210 38211 38216 38215 38515 38516 38521 38520
8 38211 38212 38217 38216 38516 38517 38522 38521
8 38212 38213 38218 38217 38517 38518 38523 38522
8 38213 6880 6879 38218 38518 6819 6818 38523
8 38214 38215 38220 38219 38519 38520 38525 38524
8 38215 38216 38221 38220 38520 38521 38526 38525
8 38216 38217 38222 38221 38521 38522 38527 38526
8 38217 38218 38223 38222 38522 38523 38528 38527
8 38218 6879 6878 38223 38523 6818 6817 38528
8 38219 38220 38225 38224 38524 38525 38530 38529
8 38220 38221 38226 38225 38525 38526 38531 38530
8 38221 38222 38227 38226 38526 38527 38532 38531
8 38222 38223 38228 38227 38527 38528 38533 38532
8 38223 6878 6877 38228 38528 6817 6816 38533
8 38224 38225 38230 38229 38529 38530 38535 38534
8 38225 38226 38231 38230 38530 38531 38536 38535
8 38226 38227 38232 38231 38531 38532 38537 38536
8 38227 38228 38233 38232 38532 38533 38538 38537
8 38228 6877 6876 38233 38533 6816 6815 38538
8 946 38229 38234 947 885 38534 38539 886
8 38229 38230 38235 38234 38534 38535 38540 38539
8 38230 38231 38236 38235 38535 38536 38541 38540
8 38231 38232 38237 38236 38536 38537 38542 38541
8 38232 38233 38238 38237 38537 38538 38543 38542
8 38233 6876 6875 38238 38538 6815 6814 38543
8 947 38234 38239 948 886 38539 38544 887
8 38234 38235 38240 38239 38539 38540 38545 38544
8 38235 38236 38241 38240 38540 38541 38546 38545
8 38236 38237 38242 38241 38541 38542 38547 38546
8 38237 38238 38243 38242 38542 38543 38548 38547
8 38238 6875 6874 38243 38543 6814 6813 38548
8 948 38239 38244 949 887 38544 38549 888
8 38239 38240 38245 38244 38544 38545 38550 38549
8 38240 38241 38246 38245 38545 38546 38551 38550
8 38241 38242 38247 38246 38546 38547 38552 38551
8 38242 38243 38248 38247 38547 38548 38553 38552
8 38243 6874 6873 38248 38548 6813 6812 38553
8 949 38244 38249 950 888 38549 38554 889
8 38244 38245 38250 38249 38549 38550 38555 38554
8 38245 38246 38251 38250 38550 38551 38556 38555
8 38246 38247 38252 38251 38551 38552 38557 38556
8 38247 38248 38253 38252 38552 38553 38558 38557
8 38248 6873 6872 38253 38553 6812 6811 38558
8 950 38249 38254 951 889 38554 38559 890
8 38249 38250 38255 38254 38554 38555 38560 38559
8 38250 38251 38256 38255 38555 38556 38561 38560
8 38251 38252 38257 38256 38556 38557 38562 38561
8 38252 38253 38258 38257 38557 38558 38563 38562
8 38253 6872 6871 38258 38558 6811 6810 38563
8 951 38254 38259 952 890 38559 38564 891
8 38254 38255 38260 38259 38559 38560 38565 38564
8 38255 38256 38261 38260 38560 38561 38566 38565
8 38256 38257 38262 38261 38561 38562 38567 38566
8 38257 38258 38263 38262 38562 38563 38568 38567
8 38258 6871 6870 38263 38563 6810 6809 38568
8 952 38259 38264 953 891 38564 38569 892
8 38259 38260 38265 38264 38564 38565 38570 38569
8 38260 38261 38266 38265 38565 38566 38571 38570
8 38261 38262 38267 38266 38566 38567 38572 38571
8 38262 38263 38268 38267 38567 38568 38573 38572
8 38263 6870 6869 38268 38568 6809 6808 38573
8 953 38264 38269 954 892 38569 38574 893
8 38264 38265 38270 38269 38569 38570 38575 38574
8 38265 38266 38271 38270 38570 38571 38576 38575
8 38266 38267 38272 38271 38571 38572 38577 38576
8 38267 38268 38273 38272 38572 38573 38578 38577
8 38268 6869 6868 38273 38573 6808 6807 38578
8 954 38269 38274 955 893 38574 38579 894
8 38269 38270 38275 38274 38574 38575 38580 38579
8 38270 38271 38276 38275 38575 38576 38581 38580
8 38271 38272 38277 38276 38576 38577 38582 38581
8 38272 38273 38278 38277 38577 38578 38583 38582
8 38273 6868 6867 38278 38578 6807 6806 38583
8 955 38274 38279 956 894 38579 38584 895
8 38274 38275 38280 38279 38579 38580 38585 38584
8 38275 38276 38281 38280 38580 38581 38586 38585
8 38276 38277 38282 38281 38581 38582 38587 38586
8 38277 38278 38283 38282 38582 38583 38588 38587
8 38278 6867 6866 38283 38583 6806 6805 38588
8 956 38279 38284 957 895 38584 38589 896
8 38279 38280 38285 38284 38584 38585 38590 38589
8 38280 38281 38286 38285 38585 38586 38591 38590
8 38281 38282 38287 38286 38586 38587 38592 38591
8 38282 38283 38288 38287 38587 38588 38593 38592
8 38283 6866 6865 38288 38588 6805 6804 38593
8 957 38284 38289 958 896 38589 38594 897
8 38284 38285 38290 38289 38589 38590 38595 38594
8 38285 38286 38291 38290 38590 38591 38596 38595
8 38286 38287 38292 38291 38591 38592 38597 38596
8 38287 38288 38293 38292 38592 38593 38598 38597
8 38288 6865 6864 38293 38593 6804 6803 38598
8 958 38289 38294 959 897 38594 38599 898
8 38289 38290 38295 38294 38594 38595 38600 38599
8 38290 38291 38296 38295 38595 38596 38601 38600
8 38291 38292 38297 38296 38596 38597 38602 38601
8 38292 38293 38298 38297 38597 38598 38603 38602
8 38293 6864 6863 38298 38598 6803 6802 38603
8 959 38294 38299 960 898 38599 38604 899
8 38294 38295 38300 38299 38599 38600 38605 38604
8 38295 38296 38301 38300 38600 38601 38606 38605
8 38296 38297 38302 38301 38601 38602 38607 38606
8 38297 38298 38303 38302 38602 38603 38608 38607
8 38298 6863 6862 38303 38603 6802 6801 38608
8 960 38299 38304 961 899 38604 38609 900
8 38299 38300 38305 38304 38604 38605 38610 38609
8 38300 38301 38306 38305 38605 38606 38611 38610
8 38301 38302 38307 38306 38606 38607 38612 38611
8 38302 38303 38308 38307 38607 38608 38613 38612
8 38303 6862 6861 38308 38608 6801 6800 38613
8 961 38304 38309 962 900 38609 38614 901
8 38304 38305 38310 38309 38609 38610 38615 38614
8 38305 38306 38311 38310 38610 38611 38616 38615
8 38306 38307 38312 38311 38611 38612 38617 38616
8 38307 38308 38313 38312 38612 38613 38618 38617
8 38308 6861 6860 38313 38613 6800 6799 38618
8 962 38309 38314 963 901 38614 38619 902
8 38309 38310 38315 38314 38614 38615 38620 38619
8 38310 38311 38316 38315 38615 38616 38621 38620
8 38311 38312 38317 38316 38616 38617 38622 38621
8 38312 38313 38318 38317 38617 38618 38623 38622
8 38313 6860 6859 38318 38618 6799 6798 38623
8 963 38314 38319 964 902 38619 38624 903
8 38314 38315 38320 38319 38619 38620 38625 38624
8 38315 38316 38321 38320 38620 38621 38626 38625
8 38316 38317 38322 38321 38621 38622 38627 38626
8 38317 38318 38323 38322 38622 38623 38628 38627
8 38318 6859 6858 38323 38623 6798 6797 38628
8 964 38319 38324 965 903 38624 38629 904
8 38319 38320 38325 38324 38624 38625 38630 38629
8 38320 38321 38326 38325 38625 38626 38631 38630
8 38321 38322 38327 38326 38626 38627 38632 38631
8 38322 38323 38328 38327 38627 38628 38633 38632
8 38323 6858 6857 38328 38628 6797 6796 38633
8 965 38324 38329 966 904 38629 38634 905
8 38324 38325 38330 38329 38629 38630 38635 38634
8 38325 38326 38331 38330 38630 38631 38636 38635
8 38326 38327 38332 38331 38631 38632 38637 38636
8 38327 38328 38333 38332 38632 38633 38638 38637
8 38328 6857 6856 38333 38633 6796 6795 38638
8 38329 38330 38335 38334 38634 38635 38640 38639
8 38330 38331 38336 38335 38635 38636 38641 38640
8 38331 38332 38337 38336 38636 38637 38642 38641
8 38332 38333 38338 38337 38637 38638 38643 38642
8 38333 6856 6855 38338 38638 6795 6794 38643
8 38334 38335 38340 38339 38639 38640 38645 38644
8 38335 38336 38341 38340 38640 38641 38646 38645
8 38336 38337 38342 38341 38641 38642 38647 38646
8 38337 38338 38343 38342 38642 38643 38648 38647
8 38338 6855 6854 38343 38643 6794 6793 38648
8 38339 38340 38345 38344 38644 38645 38650 38649
8 38340 38341 38346 38345 38645 38646 38651 38650
8 38341 38342 38347 38346 38646 38647 38652 38651
8 38342 38343 38348 38347 38647 38648 38653 38652
8 38343 6854 6853 38348 38648 6793 6792 38653
8 38344 38345 38350 38349 38649 38650 38655 38654
8 38345 38346 38351 38350 38650 38651 38656 38655
8 38346 38347 38352 38351 38651 38652 38657 38656
8 38347 38348 38353 38352 38652 38653 38658 38657
8 38348 6853 6852 38353 38653 6792 6791 38658
8 38349 38350 38355 38354 38654 38655 38660 38659
8 38350 38351 38356 38355 38655 38656 38661 38660
8 38351 38352 38357 38356 38656 38657 38662 38661
8 38352 38353 38358 38357 38657 38658 38663 38662
8 38353 6852 6851 38358 38658 6791 6790 38663
8 971 38354 38359 972 910 38659 38664 911
8 38354 38355 38360 38359 38659 38660 38665 38664
8 38355 38356 38361 38360 38660 38661 38666 38665
8 38356 38357 38362 38361 38661 38662 38667 38666
8 38357 38358 38363 38362 38662 38663 38668 38667
8 38358 6851 6850 38363 38663 6790 6789 38668
8 972 38359 38364 973 911 38664 38669 912
8 38359 38360 38365 38364 38664 38665 38670 38669
8 38360 38361 38366 38365 38665 38666 38671 38670
8 38361 38362 38367 38366 38666 38667 38672 38671
8 38362 38363 38368 38367 38667 38668 38673 38672
8 38363 6850 6849 38368 38668 6789 6788 38673
8 973 38364 38369 974 912 38669 38674 913
8 38364 38365 38370 38369 38669 38670 38675 38674
8 38365 38366 38371 38370 38670 38671 38676 38675
8 38366 38367 38372 38371 38671 38672 38677 38676
8 38367 38368 38373 38372 38672 38673 38678 38677
8 38368 6849 6848 38373 38673 6788 6787 38678
8 974 38369 38374 975 913 38674 38679 914
8 38369 38370 38375 38374 38674 38675 38680 38679
8 38370 38371 38376 38375 38675 38676 38681 38680
8 38371 38372 38377 38376 38676 38677 38682 38681
8 38372 38373 38378 38377 38677 38678 38683 38682
8 38373 6848 6847 38378 38678 6787 6786 38683
8 975 38374 38379 976 914 38679 38684 915
8 38374 38375 38380 38379 38679 38680 38685 38684
8 38375 38376 38381 38380 38680 38681 38686 38685
8 38376 38377 38382 38381 38681 38682 38687 38686
8 38377 38378 38383 38382 38682 38683 38688 38687
8 38378 6847 6846 38383 38683 6786 6785 38688
8 976 38379 38384 977 915 38684 38689 916
8 38379 38380 38385 38384 38684 38685 38690 38689
8 38380 38381 38386 38385 38685 38686 38691 38690
8 38381 38382 38387 38386 38686 38687 38692 38691
8 38382 38383 38388 38387 38687 38688 38693 38692
8 38383 6846 6845 38388 38688 6785 6784 38693
8 977 38384 38389 978 916 38689 38694 917
8 38384 38385 38390 38389 38689 38690 38695 38694
8 38385 38386 38391 38390 38690 38691 38696 38695
8 38386 38387 38392 38391 38691 38692 38697 38696
8 38387 38388 38393 38392 38692 38693 38698 38697
8 38388 6845 6844 38393 38693 6784 6783 38698
8 978 38389 38394 979 917 38694 38699 918
8 38389 38390 38395 38394 38694 38695 38700 38699
8 38390 38391 38396 38395 38695 38696 38701 38700
8 38391 38392 38397 38396 38696 38697 38702 38701
8 38392 38393 38398 38397 38697 38698 38703 38702
8 38393 6844 6843 38398 38698 6783 6782 38703
8 979 38394 38399 980 918 38699 38704 919
8 38394 38395 38400 38399 38699 38700 38705 38704
8 38395 38396 38401 38400 38700 38701 38706 38705
8 38396 38397 38402 38401 38701 38702 38707 38706
8 38397 38398 38403 38402 38702 38703 38708 38707
8 38398 6843 6842 38403 38703 6782 6781 38708
8 980 38399 12679 74 919 38704 12674 73
8 38399 38400 12680 12679 38704 38705 12675 12674
8 38400 38401 12681 12680 38705 38706 12676 12675
8 38401 38402 12682 12681 38706 38707 12677 12676
8 38402 38403 12683 12682 38707 38708 12678 12677
8 38403 6842 6221 12683 38708 6781 6222 12678
8 300 12264 38404 859 301 12269 38709 798
8 12264 12265 38405 38404 12269 12270 38710 38709
8 12265 12266 38406 38405 12270 12271 38711 38710
8 12266 12267 38407 38406 12271 12272 38712 38711
8 12267 12268 38408 38407 12272 12273 38713 38712
8 12268 5995 6841 38408 12273 5994 6780 38713
8 859 38404 38409 860 798 38709 38714 799
8 38404 38405 38410 38409 38709 38710 38715 38714
8 38405 38406 38411 38410 38710 38711 38716 38715
8 38406 38407 38412 38411 38711 38712 38717 38716
8 38407 38408 38413 38412 38712 38713 38718 38717
8 38408 6841 6840 38413 38713 6780 6779 38718
8 860 38409 38414 861 799 38714 38719 800
8 38409 38410 38415 38414 38714 38715 38720 38719
8 38410 38411 38416 38415 38715 38716 38721 38720
8 38411 38412 38417 38416 38716 38717 38722 38721
8 38412 38413 38418 38417 38717 38718 38723 38722
8 38413 6840 6839 38418 38718 6779 6778 38723
8 861 38414 38419 862 800 38719 38724 801
8 38414 38415 38420 38419 38719 38720 38725 38724
8 38415 38416 38421 38420 38720 38721 38726 38725
8 38416 38417 38422 38421 38721 38722 38727 38726
8 38417 38418 38423 38422 38722 38723 38728 38727
8 38418 6839 6838 38423 38723 6778 6777 38728
8 862 38419 38424 863 801 38724 38729 802
8 38419 38420 38425 38424 38724 38725 38730 38729
8 38420 38421 38426 38425 38725 38726 38731 38730
8 38421 38422 38427 38426 38726 38727 38732 38731
8 38422 38423 38428 38427 38727 38728 38733 38732
8 38423 6838 6837 38428 38728 6777 6776 38733
8 863 38424 38429 864 802 38729 38734 803
8 38424 38425 38430 38429 38729 38730 38735 38734
8 38425 38426 38431 38430 38730 38731 38736 38735
8 38426 38427 38432 38431 38731 38732 38737 38736
8 38427 38428 38433 38432 38732 38733 38738 38737
8 38428 6837 6836 38433 38733 6776 6775 38738
8 864 38429 38434 865 803 38734 38739 804
8 38429 38430 38435 38434 38734 38735 38740 38739
8 38430 38431 38436 38435 38735 38736 38741 38740
8 38431 38432 38437 38436 38736 38737 38742 38741
8 38432 38433 38438 38437 38737 38738 38743 38742
8 38433 6836 6835 38438 38738 6775 6774 38743
8 865 38434 38439 866 804 38739 38744 805
8 38434 38435 38440 38439 38739 38740 38745 38744
8 38435 38436 38441 38440 38740 38741 38746 38745
8 38436 38437 38442 38441 38741 38742 38747 38746
8 38437 38438 38443 38442 38742 38743 38748 38747
8 38438 6835 6834 38443 38743 6774 6773 38748
8 866 38439 38444 867 805 38744 38749 806
8 38439 38440 38445 38444 38744 38745 38750 38749
8 38440 38441 38446 38445 38745 38746 38751 38750
8 38441 38442 38447 38446 38746 38747 38752 38751
8 38442 38443 38448 38447 38747 38748 38753 38752
8 38443 6834 6833 38448 38748 6773 6772 38753
8 867 38444 38449 868 806 38749 38754 807
8 38444 38445 38450 38449 38749 38750 38755 38754
8 38445 38446 38451 38450 38750 38751 38756 38755
8 38446 38447 38452 38451 38751 38752 38757 38756
8 38447 38448 38453 38452 38752 38753 38758 38757
8 38448 6833 6832 38453 38753 6772 6771 38758
8 868 38449 38454 869 807 38754 38759 808
8 38449 38450 38455 38454 38754 38755 38760 38759
8 38450 38451 38456 38455 38755 38756 38761 38760
8 38451 38452 38457 38456 38756 38757 38762 38761
8 38452 38453 38458 38457 38757 38758 38763 38762
8 38453 6832 6831 38458 38758 6771 6770 38763
8 869 38454 38459 870 808 38759 38764 809
8 38454 38455 38460 38459 38759 38760 38765 38764
8 38455 38456 38461 38460 38760 38761 38766 38765
8 38456 38457 38462 38461 38761 38762 38767 38766
8 38457 38458 38463 38462 38762 38763 38768 38767
8 38458 6831 6830 38463 38763 6770 6769 38768
8 870 38459 38464 871 809 38764 38769 810
8 38459 38460 38465 38464 38764 38765 38770 38769
8 38460 38461 38466 38465 38765 38766 38771 38770
8 38461 38462 38467 38466 38766 38767 38772 38771
8 38462 38463 38468 38467 38767 38768 38773 38772
8 38463 6830 6829 38468 38768 6769 6768 38773
8 871 38464 38469 872 810 38769 38774 811
8 38464 38465 38470 38469 38769 38770 38775 38774
8 38465 38466 38471 38470 38770 38771 38776 38775
8 38466 38467 38472 38471 38771 38772 38777 38776
8 38467 38468 38473 38472 38772 38773 38778 38777
8 38468 6829 6828 38473 38773 6768 6767 38778
8 872 38469 38474 873 811 38774 38779 812
8 38469 38470 38475 38474 38774 38775 38780 38779
8 38470 38471 38476 38475 38775 38776 38781 38780
8 38471 38472 38477 38476 38776 38777 38782 38781
8 38472 38473 38478 38477 38777 38778 38783 38782
8 38473 6828 6827 38478 38778 6767 6766 38783
8 873 38474 38479 874 812 38779 38784 813
8 38474 38475 38480 38479 38779 38780 38785 38784
8 38475 38476 38481 38480 38780 38781 38786 38785
8 38476 38477 38482 38481 38781 38782 38787 38786
8 38477 38478 38483 38482 38782 38783 38788 38787
8 38478 6827 6826 38483 38783 6766 6765 38788
8 874 38479 38484 875 813 38784 38789 814
8 38479 38480 38485 38484 38784 38785 38790 38789
8 38480 38481 38486 38485 38785 38786 38791 38790
8 38481 38482 38487 38486 38786 38787 38792 38791
8 38482 38483 38488 38487 38787 38788 38793 38792
8 38483 6826 6825 38488 38788 6765 6764 38793
8 875 38484 38489 876 814 38789 38794 815
8 38484 38485 38490 38489 38789 38790 38795 38794
8 38485 38486 38491 38490 38790 38791 38796 38795
8 38486 38487 38492 38491 38791 38792 38797 38796
8 38487 38488 38493 38492 38792 38793 38798 38797
8 38488 6825 6824 38493 38793 6764 6763 38798
8 876 38489 38494 877 815 38794 38799 816
8 38489 38490 38495 38494 38794 38795 38800 38799
8 38490 38491 38496 38495 38795 38796 38801 38800
8 38491 38492 38497 38496 38796 38797 38802 38801
8 38492 38493 38498 38497 38797 38798 38803 38802
8 38493 6824 6823 38498 38798 6763 6762 38803
8 877 38494 38499 878 816 38799 38804 817
8 38494 38495 38500 38499 38799 38800 38805 38804
8 38495 38496 38501 38500 38800 38801 38806 38805
8 38496 38497 38502 38501 38801 38802 38807 38806
8 38497 38498 38503 38502 38802 38803 38808 38807
8 38498 6823 6822 38503 38803 6762 6761 38808
8 878 38499 38504 879 817 38804 38809 818
8 38499 38500 38505 38504 38804 38805 38810 38809
8 38500 38501 38506 38505 38805 38806 38811 38810
8 38501 38502 38507 38506 38806 38807 38812 38811
8 38502 38503 38508 38507 38807 38808 38813 38812
8 38503 6822 6821 38508 38808 6761 6760 38813
8 879 38504 38509 880 818 38809 38814 819
8 38504 38505 38510 38509 38809 38810 38815 38814
8 38505 38506 38511 38510 38810 38811 38816 38815
8 38506 38507 38512 38511 38811 38812 38817 38816
8 38507 38508 38513 38512 38812 38813 38818 38817
8 38508 6821 6820 38513 38813 6760 6759 38818
8 38509 38510 38515 38514 38814 38815 38820 38819
8 38510 38511 38516 38515 38815 38816 38821 38820
8 38511 38512 38517 38516 38816 38817 38822 38821
8 38512 38513 38518 38517 38817 38818 38823 38822
8 38513 6820 6819 38518 38818 6759 6758 38823
8 38514 38515 38520 38519 38819 38820 38825 38824
8 38515 38516 38521 38520 38820 38821 38826 38825
8 38516 38517 38522 38521 38821 38822 38827 38826
8 38517 38518 38523 38522 38822 38823 38828 38827
8 38518 6819 6818 38523 38823 6758 6757 38828
8 38519 38520 38525 38524 38824 38825 38830 38829
8 38520 38521 38526 38525 38825 38826 38831 38830
8 38521 38522 38527 38526 38826 38827 38832 38831
8 38522 38523 38528 38527 38827 38828 38833 38832
8 38523 6818 6817 38528 38828 6757 6756 38833
8 38524 38525 38530 38529 38829 38830 38835 38834
8 38525 38526 38531 38530 38830 38831 38836 38835
8 38526 38527 38532 38531 38831 38832 38837 38836
8 38527 38528 38533 38532 38832 38833 38838 38837
8 38528 6817 6816 38533 38833 6756 6755 38838
8 38529 38530 38535 38534 38834 38835 38840 38839
8 38530 38531 38536 38535 38835 38836 38841 38840
8 38531 38532 38537 38536 38836 38837 38842 38841
8 38532 38533 38538 38537 38837 38838 38843 38842
8 38533 6816 6815 38538 38838 6755 6754 38843
8 885 38534 38539 886 824 38839 38844 825
8 38534 38535 38540 38539 38839 38840 38845 38844
8 38535 38536 38541 38540 38840 38841 38846 38845
8 38536 38537 38542 38541 38841 38842 38847 38846
8 38537 38538 38543 38542 38842 38843 38848 38847
8 38538 6815 6814 38543 38843 6754 6753 38848
8 886 38539 38544 887 825 38844 38849 826
8 38539 38540 38545 38544 38844 38845 38850 38849
8 38540 38541 38546 38545 38845 38846 38851 38850
8 38541 38542 38547 38546 38846 38847 38852 38851
8 38542 38543 38548 38547 38847 38848 38853 38852
8 38543 6814 6813 38548 38848 6753 6752 38853
8 887 38544 38549 888 826 38849 38854 827
8 38544 38545 38550 38549 38849 38850 38855 38854
8 38545 38546 38551 38550 38850 38851 38856 38855
8 38546 38547 38552 38551 38851 38852 38857 38856
8 38547 38548 38553 38552 38852 38853 38858 38857
8 38548 6813 6812 38553 38853 6752 6751 38858
8 888 38549 38554 889 827 38854 38859 828
8 38549 38550 38555 38554 38854 38855 38860 38859
8 38550 38551 38556 38555 38855 38856 38861 38860
8 38551 38552 38557 38556 38856 38857 38862 38861
8 38552 38553 38558 38557 38857 38858 38863 38862
8 38553 6812 6811 38558 38858 6751 6750 38863
8 889 38554 38559 890 828 38859 38864 829
8 38554 38555 38560 38559 38859 38860 38865 38864
8 38555 38556 38561 38560 38860 38861 38866 38865
8 38556 38557 38562 38561 38861 38862 38867 38866
8 38557 38558 38563 38562 38862 38863 38868 38867
8 38558 6811 6810 38563 38863 6750 6749 38868
8 890 38559 38564 891 829 38864 38869 830
8 38559 38560 38565 38564 38864 38865 38870 38869
8 38560 38561 38566 38565 38865 38866 38871 38870
8 38561 38562 38567 38566 38866 38867 38872 38871
8 38562 38563 38568 38567 38867 38868 38873 38872
8 38563 6810 6809 38568 38868 6749 6748 38873
8 891 38564 38569 892 830 38869 38874 831
8 38564 38565 38570 38569 38869 38870 38875 38874
8 38565 38566 38571 38570 38870 38871 38876 38875
8 38566 38567 38572 38571 38871 38872 38877 38876
8 38567 38568 38573 38572 38872 38873 38878 38877
8 38568 6809 6808 38573 38873 6748 6747 38878
8 892 38569 38574 893 831 38874 38879 832
8 38569 38570 38575 38574 38874 38875 38880 38879
8 38570 38571 38576 38575 38875 38876 38881 38880
8 38571 38572 38577 38576 38876 38877 38882 38881
8 38572 38573 38578 38577 38877 38878 38883 38882
8 38573 6808 6807 38578 38878 6747 6746 38883
8 893 38574 38579 894 832 38879 38884 833
8 38574 38575 38580 38579 38879 38880 38885 38884
8 38575 38576 38581 38580 38880 38881 38886 38885
8 38576 38577 38582 38581 38881 38882 38887 38886
8 38577 38578 38583 38582 38882 38883 38888 38887
8 38578 6807 6806 38583 38883 6746 6745 38888
8 894 38579 38584 895 833 38884 38889 834
8 38579 38580 38585 38584 38884 38885 38890 38889
8 38580 38581 38586 38585 38885 38886 38891 38890
8 38581 38582 38587 38586 38886 38887 38892 38891
8 38582 38583 38588 38587 38887 38888 38893 38892
8 38583 6806 6805 38588 38888 6745 6744 38893
8 895 38584 38589 896 834 38889 38894 835
8 38584 38585 38590 38589 38889 38890 38895 38894
8 38585 38586 38591 38590 38890 38891 38896 38895
8 38586 38587 38592 38591 38891 38892 38897 38896
8 38587 38588 38593 38592 38892 38893 38898 38897
8 38588 6805 6804 38593 38893 6744 6743 38898
8 896 38589 38594 897 835 38894 38899 836
8 38589 38590 38595 38594 38894 38895 38900 38899
8 38590 38591 38596 38595 38895 38896 38901 38900
8 38591 38592 38597 38596 38896 38897 38902 38901
8 38592 38593 38598 38597 38897 38898 38903 38902
8 38593 6804 6803 38598 38898 6743 6742 38903
8 897 38594 38599 898 836 38899 38904 837
8 38594 38595 38600 38599 38899 38900 38905 38904
8 38595 38596 38601 38600 38900 38901 38906 38905
8 38596 38597 38602 38601 38901 38902 38907 38906
8 38597 38598 38603 38602 38902 38903 38908 38907
8 38598 6803 6802 38603 38903 6742 6741 38908
8 898 38599 38604 899 837 38904 38909 838
8 38599 38600 38605 38604 38904 38905 38910 38909
8 38600 38601 38606 38605 38905 38906 38911 38910
8 38601 38602 38607 38606 38906 38907 38912 38911
8 38602 38603 38608 38607 38907 38908 38913 38912
8 38603 6802 6801 38608 38908 6741 6740 38913
8 899 38604 38609 900 838 38909 38914 839
8 38604 38605 38610 38609 38909 38910 38915 38914
8 38605 38606 38611 38610 38910 38911 38916 38915
8 38606 38607 38612 38611 38911 38912 38917 38916
8 38607 38608 38613 38612 38912 38913 38918 38917
8 38608 6801 6800 38613 38913 6740 6739 38918
8 900 38609 38614 901 839 38914 38919 840
8 38609 38610 38615 38614 38914 38915 38920 38919
8 38610 38611 38616 38615 38915 38916 38921 38920
8 38611 38612 38617 38616 38916 38917 38922 38921
8 38612 38613 38618 38617 38917 38918 38923 38922
8 38613 6800 6799 38618 38918 6739 6738 38923
8 901 38614 38619 902 840 38919 38924 841
8 38614 38615 38620 38619 38919 38920 38925 38924
8 38615 38616 38621 38620 38920 38921 38926 38925
8 38616 38617 38622 38621 38921 38922 38927 38926
8 38617 38618 38623 38622 38922 38923 38928 38927
8 38618 6799 6798 38623 38923 6738 6737 38928
8 902 38619 38624 903 841 38924 38929 842
8 38619 38620 38625 38624 38924 38925 38930 38929
8 38620 38621 38626 38625 38925 38926 38931 38930
8 38621 38622 38627 38626 38926 38927 38932 38931
8 38622 38623 38628 38627 38927 38928 38933 38932
8 38623 6798 6797 38628 38928 6737 6736 38933
8 903 38624 38629 904 842 38929 38934 843
8 38624 38625 38630 38629 38929 38930 38935 38934
8 38625 38626 38631 38630 38930 38931 38936 38935
8 38626 38627 38632 38631 38931 38932 38937 38936
8 38627 38628 38633 38632 38932 38933 38938 38937
8 38628 6797 6796 38633 38933 6736 6735 38938
8 904 38629 38634 905 843 38934 38939 844
8 38629 38630 38635 38634 38934 38935 38940 38939
8 38630 38631 38636 38635 38935 38936 38941 38940
8 38631 38632 38637 38636 38936 38937 38942 38941
8 38632 38633 38638 38637 38937 38938 38943 38942
8 38633 6796 6795 38638 38938 6735 6734 38943
8 38634 38635 38640 38639 38939 38940 38945 38944
8 38635 38636 38641 38640 38940 38941 38946 38945
8 38636 38637 38642 38641 38941 38942 38947 38946
8 38637 38638 38643 38642 38942 38943 38948 38947
8 38638 6795 6794 38643 38943 6734 6733 38948
8 38639 38640 38645 38644 38944 38945 38950 38949
8 38640 38641 38646 38645 38945 38946 38951 38950
8 38641 38642 38647 38646 38946 38947 38952 38951
8 38642 38643 38648 38647 38947 38948 38953 38952
8 38643 6794 6793 38648 38948 6733 6732 38953
8 38644 38645 38650 38649 38949 38950 38955 38954
8 38645 38646 38651 38650 38950 38951 38956 38955
8 38646 38647 38652 38651 38951 38952 38957 38956
8 38647 38648 38653 38652 38952 38953 38958 38957
8 38648 6793 6792 38653 38953 6732 6731 38958
8 38649 38650 38655 38654 38954 38955 38960 38959
8 38650 38651 38656 38655 38955 38956 38961 38960
8 38651 38652 38657 38656 38956 38957 38962 38961
8 38652 38653 38658 38657 38957 38958 38963 38962
8 38653 6792 6791 38658 38958 6731 6730 38963
8 38654 38655 38660 38659 38959 38960 38965 38964
8 38655 38656 38661 38660 38960 38961 38966 38965
8 38656 38657 38662 38661 38961 38962 38967 38966
8 38657 38658 38663 38662 38962 38963 38968 38967
8 38658 6791 6790 38663 38963 6730 6729 38968
8 910 38659 38664 911 849 38964 38969 850
8 38659 38660 38665 38664 38964 38965 38970 38969
8 38660 38661 38666 38665 38965 38966 38971 38970
8 38661 38662 38667 38666 38966 38967 38972 38971
8 38662 38663 38668 38667 38967 38968 38973 38972
8 38663 6790 6789 38668 38968 6729 6728 38973
8 911 38664 38669 912 850 38969 38974 851
8 38664 38665 38670 38669 38969 38970 38975 38974
8 38665 38666 38671 38670 38970 38971 38976 38975
8 38666 38667 38672 38671 38971 38972 38977 38976
8 38667 38668 38673 38672 38972 38973 38978 38977
8 38668 6789 6788 38673 38973 6728 6727 38978
8 912 38669 38674 913 851 38974 38979 852
8 38669 38670 38675 38674 38974 38975 38980 38979
8 38670 38671 38676 38675 38975 38976 38981 38980
8 38671 38672 38677 38676 38976 38977 38982 38981
8 38672 38673 38678 38677 38977 38978 38983 38982
8 38673 6788 6787 38678 38978 6727 6726 38983
8 913 38674 38679 914 852 38979 38984 853
8 38674 38675 38680 38679 38979 38980 38985 38984
8 38675 38676 38681 38680 38980 38981 38986 38985
8 38676 38677 38682 38681 38981 38982 38987 38986
8 38677 38678 38683 38682 38982 38983 38988 38987
8 38678 6787 6786 38683 38983 6726 6725 38988
8 914 38679 38684 915 853 38984 38989 854
8 38679 38680 38685 38684 38984 38985 38990 38989
8 38680 38681 38686 38685 38985 38986 38991 38990
8 38681 38682 38687 38686 38986 38987 38992 38991
8 38682 38683 38688 38687 38987 38988 38993 38992
8 38683 6786 6785 38688 38988 6725 6724 38993
8 915 38684 38689 916 854 38989 38994 855
8 38684 38685 38690 38689 38989 38990 38995 38994
8 38685 38686 38691 38690 38990 38991 38996 38995
8 38686 38687 38692 38691 38991 38992 38997 38996
8 38687 38688 38693 38692 38992 38993 38998 38997
8 38688 6785 6784 38693 38993 6724 6723 38998
8 916 38689 38694 917 855 38994 38999 856
8 38689 38690 38695 38694 38994 38995 39000 38999
8 38690 38691 38696 38695 38995 38996 39001 39000
8 38691 38692 38697 38696 38996 38997 39002 39001
8 38692 38693 38698 38697 38997 38998 39003 39002
8 38693 6784 6783 38698 38998 6723 6722 39003
8 917 38694 38699 918 856 38999 39004 857
8 38694 38695 38700 38699 38999 39000 39005 39004
8 38695 38696 38701 38700 39000 39001 39006 39005
8 38696 38697 38702 38701 39001 39002 39007 39006
8 38697 38698 38703 38702 39002 39003 39008 39007
8 38698 6783 6782 38703 39003 6722 6721 39008
8 918 38699 38704 919 857 39004 39009 858
8 38699 38700 38705 38704 39004 39005 39010 39009
8 38700 38701 38706 38705 39005 39006 39011 39010
8 38701 38702 38707 38706 39006 39007 39012 39011
8 38702 38703 38708 38707 39007 39008 39013 39012
8 38703 6782 6781 38708 39008 6721 6720 39013
8 919 38704 12674 73 858 39009 12669 72
8 38704 38705 12675 12674 39009 39010 12670 12669
8 38705 38706 12676 12675 39010 39011 12671 12670
8 38706 38707 12677 12676 39011 39012 12672 12671
8 38707 38708 12678 12677 39012 39013 12673 12672
8 38708 6781 6222 12678 39013 6720 6223 12673
8 301 12269 38709 798 302 12274 39014 737
8 12269 12270 38710 38709 12274 12275 39015 39014
8 12270 12271 38711 38710 12275 12276 39016 39015
8 12271 12272 38712 38711 12276 12277 39017 39016
8 12272 12273 38713 38712 12277 12278 39018 39017
8 12273 5994 6780 38713 12278 5993 6719 39018
8 798 38709 38714 799 737 39014 39019 738
8 38709 38710 38715 38714 39014 39015 39020 39019
8 38710 38711 38716 38715 39015 39016 39021 39020
8 38711 38712 38717 38716 39016 39017 39022 39021
8 38712 38713 38718 38717 39017 39018 39023 39022
8 38713 6780 6779 38718 39018 6719 6718 39023
8 799 38714 38719 800 738 39019 39024 739
8 38714 38715 38720 38719 39019 39020 39025 39024
8 38715 38716 38721 38720 39020 39021 39026 39025
8 38716 38717 38722 38721 39021 39022 39027 39026
8 38717 38718 38723 38722 39022 39023 39028 39027
8 38718 6779 6778 38723 39023 6718 6717 39028
8 800 38719 38724 801 739 39024 39029 740
8 38719 38720 38725 38724 39024 39025 39030 39029
8 38720 38721 38726 38725 39025 39026 39031 39030
8 38721 38722 38727 38726 39026 39027 39032 39031
8 38722 38723 38728 38727 39027 39028 39033 39032
8 38723 6778 6777 38728 39028 6717 6716 39033
8 801 38724 38729 802 740 39029 39034 741
8 38724 38725 38730 38729 39029 39030 39035 39034
8 38725 38726 38731 38730 39030 39031 39036 39035
8 38726 38727 38732 38731 39031 39032 39037 39036
8 38727 38728 38733 38732 39032 39033 39038 39037
8 38728 6777 6776 38733 39033 6716 6715 39038
8 802 38729 38734 803 741 39034 39039 742
8 38729 38730 38735 38734 39034 39035 39040 39039
8 38730 38731 38736 38735 39035 39036 39041 39040
8 38731 38732 38737 38736 39036 39037 39042 39041
8 38732 38733 38738 38737 39037 39038 39043 39042
8 38733 6776 6775 38738 39038 6715 6714 39043
8 803 38734 38739 804 742 39039 39044 743
8 38734 38735 38740 38739 39039 39040 39045 39044
8 38735 38736 38741 38740 39040 39041 39046 39045
8 38736 38737 38742 38741 39041 39042 39047 39046
8 38737 38738 38743 38742 39042 39043 39048 39047
8 38738 6775 6774 38743 39043 6714 6713 39048
8 804 38739 38744 805 743 39044 39049 744
8 38739 38740 38745 38744 39044 39045 39050 39049
8 38740 38741 38746 38745 39045 39046 39051 39050
8 38741 38742 38747 38746 39046 39047 39052 39051
8 38742 38743 38748 38747 39047 39048 39053 39052
8 38743 6774 6773 38748 39048 6713 6712 39053
8 805 38744 38749 806 744 39049 39054 745
8 38744 38745 38750 38749 39049 39050 39055 39054
8 38745 38746 38751 38750 39050 39051 39056 39055
8 38746 38747 38752 38751 39051 39052 39057 39056
8 38747 38748 38753 38752 39052 39053 39058 39057
8 38748 6773 6772 38753 39053 6712 6711 39058
8 806 38749 38754 807 745 39054 39059 746
8 38749 38750 38755 38754 39054 39055 39060 39059
8 38750 38751 38756 38755 39055 39056 39061 39060
8 38751 38752 38757 38756 39056 39057 39062 39061
8 38752 38753 38758 38757 39057 39058 39063 39062
8 38753 6772 6771 38758 39058 6711 6710 39063
8 807 38754 38759 808 746 39059 39064 747
8 38754 38755 38760 38759 39059 39060 39065 39064
8 38755 38756 38761 38760 39060 39061 39066 39065
8 38756 38757 38762 38761 39061 39062 39067 39066
8 38757 38758 38763 38762 39062 39063 39068 39067
8 38758 6771 6770 38763 39063 6710 6709 39068
8 808 38759 38764 809 747 39064 39069 748
8 38759 38760 38765 38764 39064 39065 39070 39069
8 38760 38761 38766 38765 39065 39066 39071 39070
8 38761 38762 38767 38766 39066 39067 39072 39071
8 38762 38763 38768 38767 39067 39068 39073 39072
8 38763 6770 6769 38768 39068 6709 6708 39073
8 809 38764 38769 810 748 39069 39074 749
8 38764 38765 38770 38769 39069 39070 39075 39074
8 38765 38766 38771 38770 39070 39071 39076 39075
8 38766 38767 38772 38771 39071 39072 39077 39076
8 38767 38768 38773 38772 39072 39073 39078 39077
8 38768 6769 6768 38773 39073 6708 6707 39078
8 810 38769 38774 811 749 39074 39079 750
8 38769 38770 38775 38774 39074 39075 39080 39079
8 38770 38771 38776 38775 39075 39076 39081 39080
8 38771 38772 38777 38776 39076 39077 39082 39081
8 38772 38773 38778 38777 39077 39078 39083 39082
8 38773 6768 6767 38778 39078 6707 6706 39083
8 811 38774 38779 812 750 39079 39084 751
8 38774 38775 38780 38779 39079 39080 39085 39084
8 38775 38776 38781 38780 39080 39081 39086 39085
8 38776 38777 38782 38781 39081 39082 39087 39086
8 38777 38778 38783 38782 39082 39083 39088 39087
8 38778 6767 6766 38783 39083 6706 6705 39088
8 812 38779 38784 813 751 39084 39089 752
8 38779 38780 38785 38784 39084 39085 39090 39089
8 38780 38781 38786 38785 39085 39086 39091 39090
8 38781 38782 38787 38786 39086 39087 39092 39091
8 38782 38783 38788 38787 39087 39088 39093 39092
8 38783 6766 6765 38788 39088 6705 6704 39093
8 813 38784 38789 814 752 39089 39094 753
8 38784 38785 38790 38789 39089 39090 39095 39094
8 38785 38786 38791 38790 39090 39091 39096 39095
8 38786 38787 38792 38791 39091 39092 39097 39096
8 38787 38788 38793 38792 39092 39093 39098 39097
8 38788 6765 6764 38793 39093 6704 6703 39098
8 814 38789 38794 815 753 39094 39099 754
8 38789 38790 38795 38794 39094 39095 39100 39099
8 38790 38791 38796 38795 39095 39096 39101 39100
8 38791 38792 38797 38796 39096 39097 39102 39101
8 38792 38793 38798 38797 39097 39098 39103 39102
8 38793 6764 6763 38798 39098 6703 6702 39103
8 815 38794 38799 816 754 39099 39104 755
8 38794 38795 38800 38799 39099 39100 39105 39104
8 38795 38796 38801 38800 39100 39101 39106 39105
8 38796 38797 38802 38801 39101 39102 39107 39106
8 38797 38798 38803 38802 39102 39103 39108 39107
8 38798 6763 6762 38803 39103 6702 6701 39108
8 816 38799 38804 817 755 39104 39109 756
8 38799 38800 38805 38804 39104 39105 39110 39109
8 38800 38801 38806 38805 39105 39106 39111 39110
8 38801 38802 38807 38806 39106 39107 39112 39111
8 38802 38803 38808 38807 39107 39108 39113 39112
8 38803 6762 6761 38808 39108 6701 6700 39113
8 817 38804 38809 818 756 39109 39114 757
8 38804 38805 38810 38809 39109 39110 39115 39114
8 38805 38806 38811 38810 39110 39111 39116 39115
8 38806 38807 38812 38811 39111 39112 39117 39116
8 38807 38808 38813 38812 39112 39113 39118 39117
8 38808 6761 6760 38813 39113 6700 6699 39118
8 818 38809 38814 819 757 39114 39119 758
8 38809 38810 38815 38814 39114 39115 39120 39119
8 38810 38811 38816 38815 39115 39116 39121 39120
8 38811 38812 38817 38816 39116 39117 39122 39121
8 38812 38813 38818 38817 39117 39118 39123 39122
8 38813 6760 6759 38818 39118 6699 6698 39123
8 38814 38815 38820 38819 39119 39120 39125 39124
8 38815 38816 38821 38820 39120 39121 39126 39125
8 38816 38817 38822 38821 39121 39122 39127 39126
8 38817 38818 38823 38822 39122 39123 39128 39127
8 38818 6759 6758 38823 39123 6698 6697 39128
8 38819 38820 38825 38824 39124 39125 39130 39129
8 38820 38821 38826 38825 39125 39126 39131 39130
8 38821 38822 38827 38826 39126 39127 39132 39131
8 38822 38823 38828 38827 39127 39128 39133 39132
8 38823 6758 6757 38828 39128 6697 6696 39133
8 38824 38825 38830 38829 39129 39130 39135 39134
8 38825 38826 38831 38830 39130 39131 39136 39135
8 38826 38827 38832 38831 39131 39132 39137 39136
8 38827 38828 38833 38832 39132 39133 39138 39137
8 38828 6757 6756 38833 39133 6696 6695 39138
8 38829 38830 38835 38834 39134 39135 39140 39139
8 38830 38831 38836 38835 39135 39136 39141 39140
8 38831 38832 38837 38836 39136 39137 39142 39141
8 38832 38833 38838 38837 39137 39138 39143 39142
8 38833 6756 6755 38838 39138 6695 6694 39143
8 38834 38835 38840 38839 39139 39140 39145 39144
8 38835 38836 38841 38840 39140 39141 39146 39145
8 38836 38837 38842 38841 39141 39142 39147 39146
8 38837 38838 38843 38842 39142 39143 39148 39147
8 38838 6755 6754 38843 39143 6694 6693 39148
8 824 38839 38844 825 763 39144 39149 764
8 38839 38840 38845 38844 39144 39145 39150 39149
8 38840 38841 38846 38845 39145 39146 39151 39150
8 38841 38842 38847 38846 39146 39147 39152 39151
8 38842 38843 38848 38847 39147 39148 39153 39152
8 38843 6754 6753 38848 39148 6693 6692 39153
8 825 38844 38849 826 764 39149 39154 765
8 38844 38845 38850 38849 39149 39150 39155 39154
8 38845 38846 38851 38850 39150 39151 39156 39155
8 38846 38847 38852 38851 39151 39152 39157 39156
8 38847 38848 38853 38852 39152 39153 39158 39157
8 38848 6753 6752 38853 39153 6692 6691 39158
8 826 38849 38854 827 765 39154 39159 766
8 38849 38850 38855 38854 39154 39155 39160 39159
8 38850 38851 38856 38855 39155 39156 39161 39160
8 38851 38852 38857 38856 39156 39157 39162 39161
8 38852 38853 38858 38857 39157 39158 39163 39162
8 38853 6752 6751 38858 39158 6691 6690 39163
8 827 38854 38859 828 766 39159 39164 767
8 38854 38855 38860 38859 39159 39160 39165 39164
8 38855 38856 38861 38860 39160 39161 39166 39165
8 38856 38857 38862 38861 39161 39162 39167 39166
8 38857 38858 38863 38862 39162 39163 39168 39167
8 38858 6751 6750 38863 39163 6690 6689 39168
8 828 38859 38864 829 767 39164 39169 768
8 38859 38860 38865 38864 39164 39165 39170 39169
8 38860 38861 38866 38865 39165 39166 39171 39170
8 38861 38862 38867 38866 39166 39167 39172 39171
8 38862 38863 38868 38867 39167 39168 39173 39172
8 38863 6750 6749 38868 39168 6689 6688 39173
8 829 38864 38869 830 768 39169 39174 769
8 38864 38865 38870 38869 39169 39170 39175 39174
8 38865 38866 38871 38870 39170 39171 39176 39175
8 38866 38867 38872 38871 39171 39172 39177 39176
8 38867 38868 38873 38872 39172 39173 39178 39177
8 38868 6749 6748 38873 39173 6688 6687 39178
8 830 38869 38874 831 769 39174 39179 770
8 38869 38870 38875 38874 39174 39175 39180 39179
8 38870 38871 38876 38875 39175 39176 39181 39180
8 38871 38872 38877 38876 39176 39177 39182 39181
8 38872 38873 38878 38877 39177 39178 39183 39182
8 38873 6748 6747 38878 39178 6687 6686 39183
8 831 38874 38879 832 770 39179 39184 771
8 38874 38875 38880 38879 39179 39180 39185 39184
8 38875 38876 38881 38880 39180 39181 39186 39185
8 38876 38877 38882 38881 39181 39182 39187 39186
8 38877 38878 38883 38882 39182 39183 39188 39187
8 38878 6747 6746 38883 39183 6686 6685 39188
8 832 38879 38884 833 771 39184 39189 772
8 38879 38880 38885 38884 39184 39185 39190 39189
8 38880 38881 38886 38885 39185 39186 39191 39190
8 38881 38882 38887 38886 39186 39187 39192 39191
8 38882 38883 38888 38887 39187 39188 39193 39192
8 38883 6746 6745 38888 39188 6685 6684 39193
8 833 38884 38889 834 772 39189 39194 773
8 38884 38885 38890 38889 39189 39190 39195 39194
8 38885 38886 38891 38890 39190 39191 39196 39195
8 38886 38887 38892 38891 39191 39192 39197 39196
8 38887 38888 38893 38892 39192 39193 39198 39197
8 38888 6745 6744 38893 39193 6684 6683 39198
8 834 38889 38894 835 773 39194 39199 774
8 38889 38890 38895 38894 39194 39195 39200 39199
8 38890 38891 38896 38895 39195 39196 39201 39200
8 38891 38892 38897 38896 39196 39197 39202 39201
8 38892 38893 38898 38897 39197 39198 39203 39202
8 38893 6744 6743 38898 39198 6683 6682 39203
8 835 38894 38899 836 774 39199 39204 775
8 38894 38895 38900 38899 39199 39200 39205 39204
8 38895 38896 38901 38900 39200 39201 39206 39205
8 38896 38897 38902 38901 39201 39202 39207 39206
8 38897 38898 38903 38902 39202 39203 39208 39207
8 38898 6743 6742 38903 39203 6682 6681 39208
8 836 38899 38904 837 775 39204 39209 776
8 38899 38900 38905 38904 39204 39205 39210 39209
8 38900 38901 38906 38905 39205 39206 39211 39210
8 38901 38902 38907 38906 39206 39207 39212 39211
8 38902 38903 38908 38907 39207 39208 39213 39212
8 38903 6742 6741 38908 39208 6681 6680 39213
8 837 38904 38909 838 776 39209 39214 777
8 38904 38905 38910 38909 39209 39210 39215 39214
8 38905 38906 38911 38910 39210 39211 39216 39215
8 38906 38907 38912 38911 39211 39212 39217 39216
8 38907 38908 38913 38912 39212 39213 39218 39217
8 38908 6741 6740 38913 39213 6680 6679 39218
8 838 38909 38914 839 777 39214 39219 778
8 38909 38910 38915 38914 39214 39215 39220 39219
8 38910 38911 38916 38915 39215 39216 39221 39220
8 38911 38912 38917 38916 39216 39217 39222 39221
8 38912 38913 38918 38917 39217 39218 39223 39222
8 38913 6740 6739 38918 39218 6679 6678 39223
8 839 38914 38919 840 778 39219 39224 779
8 38914 38915 38920 38919 39219 39220 39225 39224
8 38915 38916 38921 38920 39220 39221 39226 39225
8 38916 38917 38922 38921 39221 39222 39227 39226
8 38917 38918 38923 38922 39222 39223 39228 39227
8 38918 6739 6738 38923 39223 6678 6677 39228
8 840 38919 38924 841 779 39224 39229 780
8 38919 38920 38925 38924 39224 39225 39230 39229
8 38920 38921 38926 38925 39225 39226 39231 39230
8 38921 38922 38927 38926 39226 39227 39232 39231
8 38922 38923 38928 38927 39227 39228 39233 39232
8 38923 6738 6737 38928 39228 6677 6676 39233
8 841 38924 38929 842 780 39229 39234 781
8 38924 38925 38930 38929 39229 39230 39235 39234
8 38925 38926 38931 38930 39230 39231 39236 39235
8 38926 38927 38932 38931 39231 39232 39237 39236
8 38927 38928 38933 38932 39232 39233 39238 39237
8 38928 6737 6736 38933 39233 6676 6675 39238
8 842 38929 38934 843 781 39234 39239 782
8 38929 38930 38935 38934 39234 39235 39240 39239
8 38930 38931 38936 38935 39235 39236 39241 39240
8 38931 38932 38937 38936 39236 39237 39242 39241
8 38932 38933 38938 38937 39237 39238 39243 39242
8 38933 6736 6735 38938 39238 6675 6674 39243
8 843 38934 38939 844 782 39239 39244 783
8 38934 38935 38940 38939 39239 39240 39245 39244
8 38935 38936 38941 38940 39240 39241 39246 39245
8 38936 38937 38942 38941 39241 39242 39247 39246
8 38937 38938 38943 38942 39242 39243 39248 39247
8 38938 6735 6734 38943 39243 6674 6673 39248
8 38939 38940 38945 38944 39244 39245 39250 39249
8 38940 38941 38946 38945 39245 39246 39251 39250
8 38941 38942 38947 38946 39246 39247 39252 39251
8 38942 38943 38948 38947 39247 39248 39253 39252
8 38943 6734 6733 38948 39248 6673 6672 39253
8 38944 38945 38950 38949 39249 39250 39255 39254
8 38945 38946 38951 38950 39250 39251 39256 39255
8 38946 38947 38952 38951 39251 39252 39257 39256
8 38947 38948 38953 38952 39252 39253 39258 39257
8 38948 6733 6732 38953 39253 6672 6671 39258
8 38949 38950 38955 38954 39254 39255 39260 39259
8 38950 38951 38956 38955 39255 39256 39261 39260
8 38951 38952 38957 38956 39256 39257 39262 39261
8 38952 38953 38958 38957 39257 39258 39263 39262
8 38953 6732 6731 38958 39258 6671 6670 39263
8 38954 38955 38960 38959 39259 39260 39265 39264
8 38955 38956 38961 38960 39260 39261 39266 39265
8 38956 38957 38962 38961 39261 39262 39267 39266
8 38957 38958 38963 38962 39262 39263 39268 39267
8 38958 6731 6730 38963 39263 6670 6669 39268
8 38959 38960 38965 38964 39264 39265 39270 39269
8 38960 38961 38966 38965 39265 39266 39271 39270
8 38961 38962 38967 38966 39266 39267 39272 39271
8 38962 38963 38968 38967 39267 39268 39273 39272
8 38963 6730 6729 38968 39268 6669 6668 39273
8 849 38964 38969 850 788 39269 39274 789
8 38964 38965 38970 38969 39269 39270 39275 39274
8 38965 38966 38971 38970 39270 39271 39276 39275
8 38966 38967 38972 38971 39271 39272 39277 39276
8 38967 38968 38973 38972 39272 39273 39278 39277
8 38968 6729 6728 38973 39273 6668 6667 39278
8 850 38969 38974 851 789 39274 39279 790
8 38969 38970 38975 38974 39274 39275 39280 39279
8 38970 38971 38976 38975 39275 39276 39281 39280
8 38971 38972 38977 38976 39276 39277 39282 39281
8 38972 38973 38978 38977 39277 39278 39283 39282
8 38973 6728 6727 38978 39278 6667 6666 39283
8 851 38974 38979 852 790 39279 39284 791
8 38974 38975 38980 38979 39279 39280 39285 39284
8 38975 38976 38981 38980 39280 39281 39286 39285
8 38976 38977 38982 38981 39281 39282 39287 39286
8 38977 38978 38983 38982 39282 39283 39288 39287
8 38978 6727 6726 38983 39283 6666 6665 39288
8 852 38979 38984 853 791 39284 39289 792
8 38979 38980 38985 38984 39284 39285 39290 39289
8 38980 38981 38986 38985 39285 39286 39291 39290
8 38981 38982 38987 38986 39286 39287 39292 39291
8 38982 38983 38988 38987 39287 39288 39293 39292
8 38983 6726 6725 38988 39288 6665 6664 39293
8 853 38984 38989 854 792 39289 39294 793
8 38984 38985 38990 38989 39289 39290 39295 39294
8 38985 38986 38991 38990 39290 39291 39296 39295
8 38986 38987 38992 38991 39291 39292 39297 39296
8 38987 38988 38993 38992 39292 39293 39298 39297
8 38988 6725 6724 38993 39293 6664 6663 39298
8 854 38989 38994 855 793 39294 39299 794
8 38989 38990 38995 38994 39294 39295 39300 39299
8 38990 38991 38996 38995 39295 39296 39301 39300
8 38991 38992 38997 38996 39296 39297 39302 39301
8 38992 38993 38998 38997 39297 39298 39303 39302
8 38993 6724 6723 38998 39298 6663 6662 39303
8 855 38994 38999 856 794 39299 39304 795
8 38994 38995 39000 38999 39299 39300 39305 39304
8 38995 38996 39001 39000 39300 39301 39306 39305
8 38996 38997 39002 39001 39301 39302 39307 39306
8 38997 38998 39003 39002 39302 39303 39308 39307
8 38998 6723 6722 39003 39303 6662 6661 39308
8 856 38999 39004 857 795 39304 39309 796
8 38999 39000 39005 39004 39304 39305 39310 39309
8 39000 39001 39006 39005 39305 39306 39311 39310
8 39001 39002 39007 39006 39306 39307 39312 39311
8 39002 39003 39008 39007 39307 39308 39313 39312
8 39003 6722 6721 39008 39308 6661 6660 39313
8 857 39004 39009 858 796 39309 39314 797
8 39004 39005 39010 39009 39309 39310 39315 39314
8 39005 39006 39011 39010 39310 39311 39316 39315
8 39006 39007 39012 39011 39311 39312 39317 39316
8 39007 39008 39013 39012 39312 39313 39318 39317
8 39008 6721 6720 39013 39313 6660 6659 39318
8 858 39009 12669 72 797 39314 12664 71
8 39009 39010 12670 12669 39314 39315 12665 12664
8 39010 39011 12671 12670 39315 39316 12666 12665
8 39011 39012 12672 12671 39316 39317 12667 12666
8 39012 39013 12673 12672 39317 39318 12668 12667
8 39013 6720 6223 12673 39318 6659 6224 12668
8 302 12274 39014 737 303 12279 39319 676
8 12274 12275 39015 39014 12279 12280 39320 39319
8 12275 12276 39016 39015 12280 12281 39321 39320
8 12276 12277 39017 39016 12281 12282 39322 39321
8 12277 12278 39018 39017 12282 12283 39323 39322
8 12278 5993 6719 39018 12283 5992 6658 39323
8 737 39014 39019 738 676 39319 39324 677
8 39014 39015 39020 39019 39319 39320 39325 39324
8 39015 39016 39021 39020 39320 39321 39326 39325
8 39016 39017 39022 39021 39321 39322 39327 39326
8 39017 39018 39023 39022 39322 39323 39328 39327
8 39018 6719 6718 39023 39323 6658 6657 39328
8 738 39019 39024 739 677 39324 39329 678
8 39019 39020 39025 39024 39324 39325 39330 39329
8 39020 39021 39026 39025 39325 39326 39331 39330
8 39021 39022 39027 39026 39326 39327 39332 39331
8 39022 39023 39028 39027 39327 39328 39333 39332
8 39023 6718 6717 39028 39328 6657 6656 39333
8 739 39024 39029 740 678 39329 39334 679
8 39024 39025 39030 39029 39329 39330 39335 39334
8 39025 39026 39031 39030 39330 39331 39336 39335
8 39026 39027 39032 39031 39331 39332 39337 39336
8 39027 39028 39033 39032 39332 39333 39338 39337
8 39028 6717 6716 39033 39333 6656 6655 39338
8 740 39029 39034 741 679 39334 39339 680
8 39029 39030 39035 39034 39334 39335 39340 39339
8 39030 39031 39036 39035 39335 39336 39341 39340
8 39031 39032 39037 39036 39336 39337 39342 39341
8 39032 39033 39038 39037 39337 39338 39343 39342
8 39033 6716 6715 39038 39338 6655 6654 39343
8 741 39034 39039 742 680 39339 39344 681
8 39034 39035 39040 39039 39339 39340 39345 39344
8 39035 39036 39041 39040 39340 39341 39346 39345
8 39036 39037 39042 39041 39341 39342 39347 39346
8 39037 39038 39043 39042 39342 39343 39348 39347
8 39038 6715 6714 39043 39343 6654 6653 39348
8 742 39039 39044 743 681 39344 39349 682
8 39039 39040 39045 39044 39344 39345 39350 39349
8 39040 39041 39046 39045 39345 39346 39351 39350
8 39041 39042 39047 39046 39346 39347 39352 39351
8 39042 39043 39048 39047 39347 39348 39353 39352
8 39043 6714 6713 39048 39348 6653 6652 39353
8 743 39044 39049 744 682 39349 39354 683
8 39044 39045 39050 39049 39349 39350 39355 39354
8 39045 39046 39051 39050 39350 39351 39356 39355
8 39046 39047 39052 39051 39351 39352 39357 39356
8 39047 39048 39053 39052 39352 39353 39358 39357
8 39048 6713 6712 39053 39353 6652 6651 39358
8 744 39049 39054 745 683 39354 39359 684
8 39049 39050 39055 39054 39354 39355 39360 39359
8 39050 39051 39056 39055 39355 39356 39361 39360
8 39051 39052 39057 39056 39356 39357 39362 39361
8 39052 39053 39058 39057 39357 39358 39363 39362
8 39053 6712 6711 39058 39358 6651 6650 39363
8 745 39054 39059 746 684 39359 39364 685
8 39054 39055 39060 39059 39359 39360 39365 39364
8 39055 39056 39061 39060 39360 39361 39366 39365
8 39056 39057 39062 39061 39361 39362 39367 39366
8 39057 39058 39063 39062 39362 39363 39368 39367
8 39058 6711 6710 39063 39363 6650 6649 39368
8 746 39059 39064 747 685 39364 39369 686
8 39059 39060 39065 39064 39364 39365 39370 39369
8 39060 39061 39066 39065 39365 39366 39371 39370
8 39061 39062 39067 39066 39366 39367 39372 39371
8 39062 39063 39068 39067 39367 39368 39373 39372
8 39063 6710 6709 39068 39368 6649 6648 39373
8 747 39064 39069 748 686 39369 39374 687
8 39064 39065 39070 39069 39369 39370 39375 39374
8 39065 39066 39071 39070 39370 39371 39376 39375
8 39066 39067 39072 39071 39371 39372 39377 39376
8 39067 39068 39073 39072 39372 39373 39378 39377
8 39068 6709 6708 39073 39373 6648 6647 39378
8 748 39069 39074 749 687 39374 39379 688
8 39069 39070 39075 39074 39374 39375 39380 39379
8 39070 39071 39076 39075 39375 39376 39381 39380
8 39071 39072 39077 39076 39376 39377 39382 39381
8 39072 39073 39078 39077 39377 39378 39383 39382
8 39073 6708 6707 39078 39378 6647 6646 39383
8 749 39074 39079 750 688 39379 39384 689
8 39074 39075 39080 39079 39379 39380 39385 39384
8 39075 39076 39081 39080 39380 39381 39386 39385
8 39076 39077 39082 39081 39381 39382 39387 39386
8 39077 39078 39083 39082 39382 39383 39388 39387
8 39078 6707 6706 39083 39383 6646 6645 39388
8 750 39079 39084 751 689 39384 39389 690
8 39079 39080 39085 39084 39384 39385 39390 39389
8 39080 39081 39086 39085 39385 39386 39391 39390
8 39081 39082 39087 39086 39386 39387 39392 39391
8 39082 39083 39088 39087 39387 39388 39393 39392
8 39083 6706 6705 39088 39388 6645 6644 39393
8 751 39084 39089 752 690 39389 39394 691
8 39084 39085 39090 39089 39389 39390 39395 39394
8 39085 39086 39091 39090 39390 39391 39396 39395
8 39086 39087 39092 39091 39391 39392 39397 39396
8 39087 39088 39093 39092 39392 39393 39398 39397
8 39088 6705 6704 39093 39393 6644 6643 39398
8 752 39089 39094 753 691 39394 39399 692
8 39089 39090 39095 39094 39394 39395 39400 39399
8 39090 39091 39096 39095 39395 39396 39401 39400
8 39091 39092 39097 39096 39396 39397 39402 39401
8 39092 39093 39098 39097 39397 39398 39403 39402
8 39093 6704 6703 39098 39398 6643 6642 39403
8 753 39094 39099 754 692 39399 39404 693
8 39094 39095 39100 39099 39399 39400 39405 39404
8 39095 39096 39101 39100 39400 39401 39406 39405
8 39096 39097 39102 39101 39401 39402 39407 39406
8 39097 39098 39103 39102 39402 39403 39408 39407
8 39098 6703 6702 39103 39403 6642 6641 39408
8 754 39099 39104 755 693 39404 39409 694
8 39099 39100 39105 39104 39404 39405 39410 39409
8 39100 39101 39106 39105 39405 39406 39411 39410
8 39101 39102 39107 39106 39406 39407 39412 39411
8 39102 39103 39108 39107 39407 39408 39413 39412
8 39103 6702 6701 39108 39408 6641 6640 39413
8 755 39104 39109 756 694 39409 39414 695
8 39104 39105 39110 39109 39409 39410 39415 39414
8 39105 39106 39111 39110 39410 39411 39416 39415
8 39106 39107 39112 39111 39411 39412 39417 39416
8 39107 39108 39113 39112 39412 39413 39418 39417
8 39108 6701 6700 39113 39413 6640 6639 39418
8 756 39109 39114 757 695 39414 39419 696
8 39109 39110 39115 39114 39414 39415 39420 39419
8 39110 39111 39116 39115 39415 39416 39421 39420
8 39111 39112 39117 39116 39416 39417 39422 39421
8 39112 39113 39118 39117 39417 39418 39423 39422
8 39113 6700 6699 39118 39418 6639 6638 39423
8 757 39114 39119 758 696 39419 39424 697
8 39114 39115 39120 39119 39419 39420 39425 39424
8 39115 39116 39121 39120 39420 39421 39426 39425
8 39116 39117 39122 39121 39421 39422 39427 39426
8 39117 39118 39123 39122 39422 39423 39428 39427
8 39118 6699 6698 39123 39423 6638 6637 39428
8 39119 39120 39125 39124 39424 39425 39430 39429
8 39120 39121 39126 39125 39425 39426 39431 39430
8 39121 39122 39127 39126 39426 39427 39432 39431
8 39122 39123 39128 39127 39427 39428 39433 39432
8 39123 6698 6697 39128 39428 6637 6636 39433
8 39124 39125 39130 39129 39429 39430 39435 39434
8 39125 39126 39131 39130 39430 39431 39436 39435
8 39126 39127 39132 39131 39431 39432 39437 39436
8 39127 39128 39133 39132 39432 39433 39438 39437
8 39128 6697 6696 39133 39433 6636 6635 39438
8 39129 39130 39135 39134 39434 39435 39440 39439
8 39130 39131 39136 39135 39435 39436 39441 39440
8 39131 39132 39137 39136 39436 39437 39442 39441
8 39132 39133 39138 39137 39437 39438 39443 39442
8 39133 6696 6695 39138 39438 6635 6634 39443
8 39134 39135 39140 39139 39439 39440 39445 39444
8 39135 39136 39141 39140 39440 39441 39446 39445
8 39136 39137 39142 39141 39441 39442 39447 39446
8 39137 39138 39143 39142 39442 39443 39448 39447
8 39138 6695 6694 39143 39443 6634 6633 39448
8 39139 39140 39145 39144 39444 39445 39450 39449
8 39140 39141 39146 39145 39445 39446 39451 39450
8 39141 39142 39147 39146 39446 39447 39452 39451
8 39142 39143 39148 39147 39447 39448 39453 39452
8 39143 6694 6693 39148 39448 6633 6632 39453
8 763 39144 39149 764 702 39449 39454 703
8 39144 39145 39150 39149 39449 39450 39455 39454
8 39145 39146 39151 39150 39450 39451 39456 39455
8 39146 39147 39152 39151 39451 39452 39457 39456
8 39147 39148 39153 39152 39452 39453 39458 39457
8 39148 6693 6692 39153 39453 6632 6631 39458
8 764 39149 39154 765 703 39454 39459 704
8 39149 39150 39155 39154 39454 39455 39460 39459
8 39150 39151 39156 39155 39455 39456 39461 39460
8 39151 39152 39157 39156 39456 39457 39462 39461
8 39152 39153 39158 39157 39457 39458 39463 39462
8 39153 6692 6691 39158 39458 6631 6630 39463
8 765 39154 39159 766 704 39459 39464 705
8 39154 39155 39160 39159 39459 39460 39465 39464
8 39155 39156 39161 39160 39460 39461 39466 39465
8 39156 39157 39162 39161 39461 39462 39467 39466
8 39157 39158 39163 39162 39462 39463 39468 39467
8 39158 6691 6690 39163 39463 6630 6629 39468
8 766 39159 39164 767 705 39464 39469 706
8 39159 39160 39165 39164 39464 39465 39470 39469
8 39160 39161 39166 39165 39465 39466 39471 39470
8 39161 39162 39167 39166 39466 39467 39472 39471
8 39162 39163 39168 39167 39467 39468 39473 39472
8 39163 6690 6689 39168 39468 6629 6628 39473
8 767 39164 39169 768 706 39469 39474 707
8 39164 39165 39170 39169 39469 39470 39475 39474
8 39165 39166 39171 39170 39470 39471 39476 39475
8 39166 39167 39172 39171 39471 39472 39477 39476
8 39167 39168 39173 39172 39472 39473 39478 39477
8 39168 6689 6688 39173 39473 6628 6627 39478
8 768 39169 39174 769 707 39474 39479 708
8 39169 39170 39175 39174 39474 39475 39480 39479
8 39170 39171 39176 39175 39475 39476 39481 39480
8 39171 39172 39177 39176 39476 39477 39482 39481
8 39172 39173 39178 39177 39477 39478 39483 39482
8 39173 6688 6687 39178 39478 6627 6626 39483
8 769 39174 39179 770 708 39479 39484 709
8 39174 39175 39180 39179 39479 39480 39485 39484
8 39175 39176 39181 39180 39480 39481 39486 39485
8 39176 39177 39182 39181 39481 39482 39487 39486
8 39177 39178 39183 39182 39482 39483 39488 39487
8 39178 6687 6686 39183 39483 6626 6625 39488
8 770 39179 39184 771 709 39484 39489 710
8 39179 39180 39185 39184 39484 39485 39490 39489
8 39180 39181 39186 39185 39485 39486 39491 39490
8 39181 39182 39187 39186 39486 39487 39492 39491
8 39182 39183 39188 39187 39487 39488 39493 39492
8 39183 6686 6685 39188 39488 6625 6624 39493
8 771 39184 39189 772 710 39489 39494 711
8 39184 39185 39190 39189 39489 39490 39495 39494
8 39185 39186 39191 39190 39490 39491 39496 39495
8 39186 39187 39192 39191 39491 39492 39497 39496
8 39187 39188 39193 39192 39492 39493 39498 39497
8 39188 6685 6684 39193 39493 6624 6623 39498
8 772 39189 39194 773 711 39494 39499 712
8 39189 39190 39195 39194 39494 39495 39500 39499
8 39190 39191 39196 39195 39495 39496 39501 39500
8 39191 39192 39197 39196 39496 39497 39502 39501
8 39192 39193 39198 39197 39497 39498 39503 39502
8 39193 6684 6683 39198 39498 6623 6622 39503
8 773 39194 39199 774 712 39499 39504 713
8 39194 39195 39200 39199 39499 39500 39505 39504
8 39195 39196 39201 39200 39500 39501 39506 39505
8 39196 39197 39202 39201 39501 39502 39507 39506
8 39197 39198 39203 39202 39502 39503 39508 39507
8 39198 6683 6682 39203 39503 6622 6621 39508
8 774 39199 39204 775 713 39504 39509 714
8 39199 39200 39205 39204 39504 39505 39510 39509
8 39200 39201 39206 39205 39505 39506 39511 39510
8 39201 39202 39207 39206 39506 39507 39512 39511
8 39202 39203 39208 39207 39507 39508 39513 39512
8 39203 6682 6681 39208 39508 6621 6620 39513
8 775 39204 39209 776 714 39509 39514 715
8 39204 39205 39210 39209 39509 39510 39515 39514
8 39205 39206 39211 39210 39510 39511 39516 39515
8 39206 39207 39212 39211 39511 39512 39517 39516
8 39207 39208 39213 39212 39512 39513 39518 39517
8 39208 6681 6680 39213 39513 6620 6619 39518
8 776 39209 39214 777 715 39514 39519 716
8 39209 39210 39215 39214 39514 39515 39520 39519
8 39210 39211 39216 39215 39515 39516 39521 39520
8 39211 39212 39217 39216 39516 39517 39522 39521
8 39212 39213 39218 39217 39517 39518 39523 39522
8 39213 6680 6679 39218 39518 6619 6618 39523
8 777 39214 39219 778 716 39519 39524 717
8 39214 39215 39220 39219 39519 39520 39525 39524
8 39215 39216 39221 39220 39520 39521 39526 39525
8 39216 39217 39222 39221 39521 39522 39527 39526
8 39217 39218 39223 39222 39522 39523 39528 39527
8 39218 6679 6678 39223 39523 6618 6617 39528
8 778 39219 39224 779 717 39524 39529 718
8 39219 39220 39225 39224 39524 39525 39530 39529
8 39220 39221 39226 39225 39525 39526 39531 39530
8 39221 39222 39227 39226 39526 39527 39532 39531
8 39222 39223 39228 39227 39527 39528 39533 39532
8 39223 6678 6677 39228 39528 6617 6616 39533
8 779 39224 39229 780 718 39529 39534 719
8 39224 39225 39230 39229 39529 39530 39535 39534
8 39225 39226 39231 39230 39530 39531 39536 39535
8 39226 39227 39232 39231 39531 39532 39537 39536
8 39227 39228 39233 39232 39532 39533 39538 39537
8 39228 6677 6676 39233 39533 6616 6615 39538
8 780 39229 39234 781 719 39534 39539 720
8 39229 39230 39235 39234 39534 39535 39540 39539
8 39230 39231 39236 39235 39535 39536 39541 39540
8 39231 39232 39237 39236 39536 39537 39542 39541
8 39232 39233 39238 39237 39537 39538 39543 39542
8 39233 6676 6675 39238 39538 6615 6614 39543
8 781 39234 39239 782 720 39539 39544 721
8 39234 39235 39240 39239 39539 39540 39545 39544
8 39235 39236 39241 39240 39540 39541 39546 39545
8 39236 39237 39242 39241 39541 39542 39547 39546
8 39237 39238 39243 39242 39542 39543 39548 39547
8 39238 6675 6674 39243 39543 6614 6613 39548
8 782 39239 39244 783 721 39544 39549 722
8 39239 39240 39245 39244 39544 39545 39550 39549
8 39240 39241 39246 39245 39545 39546 39551 39550
8 39241 39242 39247 39246 39546 39547 39552 39551
8 39242 39243 39248 39247 39547 39548 39553 39552
8 39243 6674 6673 39248 39548 6613 6612 39553
8 39244 39245 39250 39249 39549 39550 39555 39554
8 39245 39246 39251 39250 39550 39551 39556 39555
8 39246 39247 39252 39251 39551 39552 39557 39556
8 39247 39248 39253 39252 39552 39553 39558 39557
8 39248 6673 6672 39253 39553 6612 6611 39558
8 39249 39250 39255 39254 39554 39555 39560 39559
8 39250 39251 39256 39255 39555 39556 39561 39560
8 39251 39252 39257 39256 39556 39557 39562 39561
8 39252 39253 39258 39257 39557 39558 39563 39562
8 39253 6672 6671 39258 39558 6611 6610 39563
8 39254 39255 39260 39259 39559 39560 39565 39564
8 39255 39256 39261 39260 39560 39561 39566 39565
8 39256 39257 39262 39261 39561 39562 39567 39566
8 39257 39258 39263 39262 39562 39563 39568 39567
8 39258 6671 6670 39263 39563 6610 6609 39568
8 39259 39260 39265 39264 39564 39565 39570 39569
8 39260 39261 39266 39265 39565 39566 39571 39570
8 39261 39262 39267 39266 39566 39567 39572 39571
8 39262 39263 39268 39267 39567 39568 39573 39572
8 39263 6670 6669 39268 39568 6609 6608 39573
8 39264 39265 39270 39269 39569 39570 39575 39574
8 39265 39266 39271 39270 39570 39571 39576 39575
8 39266 39267 39272 39271 39571 39572 39577 39576
8 39267 39268 39273 39272 39572 39573 39578 39577
8 39268 6669 6668 39273 39573 6608 6607 39578
8 788 39269 39274 789 727 39574 39579 728
8 39269 39270 39275 39274 39574 39575 39580 39579
8 39270 39271 39276 39275 39575 39576 39581 39580
8 39271 39272 39277 39276 39576 39577 39582 39581
8 39272 39273 39278 39277 39577 39578 39583 39582
8 39273 6668 6667 39278 39578 6607 6606 39583
8 789 39274 39279 790 728 39579 39584 729
8 39274 39275 39280 39279 39579 39580 39585 39584
8 39275 39276 39281 39280 39580 39581 39586 39585
8 39276 39277 39282 39281 39581 39582 39587 39586
8 39277 39278 39283 39282 39582 39583 39588 39587
8 39278 6667 6666 39283 39583 6606 6605 39588
8 790 39279 39284 791 729 39584 39589 730
8 39279 39280 39285 39284 39584 39585 39590 39589
8 39280 39281 39286 39285 39585 39586 39591 39590
8 39281 39282 39287 39286 39586 39587 39592 39591
8 39282 39283 39288 39287 39587 39588 39593 39592
8 39283 6666 6665 39288 39588 6605 6604 39593
8 791 39284 39289 792 730 39589 39594 731
8 39284 39285 39290 39289 39589 39590 39595 39594
8 39285 39286 39291 39290 39590 39591 39596 39595
8 39286 39287 39292 39291 39591 39592 39597 39596
8 39287 39288 39293 39292 39592 39593 39598 39597
8 39288 6665 6664 39293 39593 6604 6603 39598
8 792 39289 39294 793 731 39594 39599 732
8 39289 39290 39295 39294 39594 39595 39600 39599
8 39290 39291 39296 39295 39595 39596 39601 39600
8 39291 39292 39297 39296 39596 39597 39602 39601
8 39292 39293 39298 39297 39597 39598 39603 39602
8 39293 6664 6663 39298 39598 6603 6602 39603
8 793 39294 39299 794 732 39599 39604 733
8 39294 39295 39300 39299 39599 39600 39605 39604
8 39295 39296 39301 39300 39600 39601 39606 39605
8 39296 39297 39302 39301 39601 39602 39607 39606
8 39297 39298 39303 39302 39602 39603 39608 39607
8 39298 6663 6662 39303 39603 6602 6601 39608
8 794 39299 39304 795 733 39604 39609 734
8 39299 39300 39305 39304 39604 39605 39610 39609
8 39300 39301 39306 39305 39605 39606 39611 39610
8 39301 39302 39307 39306 39606 39607 39612 39611
8 39302 39303 39308 39307 39607 39608 39613 39612
8 39303 6662 6661 39308 39608 6601 6600 39613
8 795 39304 39309 796 734 39609 39614 735
8 39304 39305 39310 39309 39609 39610 39615 39614
8 39305 39306 39311 39310 39610 39611 39616 39615
8 39306 39307 39312 39311 39611 39612 39617 39616
8 39307 39308 39313 39312 39612 39613 39618 39617
8 39308 6661 6660 39313 39613 6600 6599 39618
8 796 39309 39314 797 735 39614 39619 736
8 39309 39310 39315 39314 39614 39615 39620 39619
8 39310 39311 39316 39315 39615 39616 39621 39620
8 39311 39312 39317 39316 39616 39617 39622 39621
8 39312 39313 39318 39317 39617 39618 39623 39622
8 39313 6660 6659 39318 39618 6599 6598 39623
8 797 39314 12664 71 736 39619 12659 70
8 39314 39315 12665 12664 39619 39620 12660 12659
8 39315 39316 12666 12665 39620 39621 12661 12660
8 39316 39317 12667 12666 39621 39622 12662 12661
8 39317 39318 12668 12667 39622 39623 12663 12662
8 39318 6659 6224 12668 39623 6598 6225 12663
8 303 12279 39319 676 304 12284 39624 615
8 12279 12280 39320 39319 12284 12285 39625 39624
8 12280 12281 39321 39320 12285 12286 39626 39625
8 12281 12282 39322 39321 12286 12287 39627 39626
8 12282 12283 39323 39322 12287 12288 39628 39627
8 12283 5992 6658 39323 12288 5991 6597 39628
8 676 39319 39324 677 615 39624 39629 616
8 39319 39320 39325 39324 39624 39625 39630 39629
8 39320 39321 39326 39325 39625 39626 39631 39630
8 39321 39322 39327 39326 39626 39627 39632 39631
8 39322 39323 39328 39327 39627 39628 39633 39632
8 39323 6658 6657 39328 39628 6597 6596 39633
8 677 39324 39329 678 616 39629 39634 617
8 39324 39325 39330 39329 39629 39630 39635 39634
8 39325 39326 39331 39330 39630 39631 39636 39635
8 39326 39327 39332 39331 39631 39632 39637 39636
8 39327 39328 39333 39332 39632 39633 39638 39637
8 39328 6657 6656 39333 39633 6596 6595 39638
8 678 39329 39334 679 617 39634 39639 618
8 39329 39330 39335 39334 39634 39635 39640 39639
8 39330 39331 39336 39335 39635 39636 39641 39640
8 39331 39332 39337 39336 39636 39637 39642 39641
8 39332 39333 39338 39337 39637 39638 39643 39642
8 39333 6656 6655 39338 39638 6595 6594 39643
8 679 39334 39339 680 618 39639 39644 619
8 39334 39335 39340 39339 39639 39640 39645 39644
8 39335 39336 39341 39340 39640 39641 39646 39645
8 39336 39337 39342 39341 39641 39642 39647 39646
8 39337 39338 39343 39342 39642 39643 39648 39647
8 39338 6655 6654 39343 39643 6594 6593 39648
8 680 39339 39344 681 619 39644 39649 620
8 39339 39340 39345 39344 39644 39645 39650 39649
8 39340 39341 39346 39345 39645 39646 39651 39650
8 39341 39342 39347 39346 39646 39647 39652 39651
8 39342 39343 39348 39347 39647 39648 39653 39652
8 39343 6654 6653 39348 39648 6593 6592 39653
8 681 39344 39349 682 620 39649 39654 621
8 39344 39345 39350 39349 39649 39650 39655 39654
8 39345 39346 39351 39350 39650 39651 39656 39655
8 39346 39347 39352 39351 39651 39652 39657 39656
8 39347 39348 39353 39352 39652 39653 39658 39657
8 39348 6653 6652 39353 39653 6592 6591 39658
8 682 39349 39354 683 621 39654 39659 622
8 39349 39350 39355 39354 39654 39655 39660 39659
8 39350 39351 39356 39355 39655 39656 39661 39660
8 39351 39352 39357 39356 39656 39657 39662 39661
8 39352 39353 39358 39357 39657 39658 39663 39662
8 39353 6652 6651 39358 39658 6591 6590 39663
8 683 39354 39359 684 622 39659 39664 623
8 39354 39355 39360 39359 39659 39660 39665 39664
8 39355 39356 39361 39360 39660 39661 39666 39665
8 39356 39357 39362 39361 39661 39662 39667 39666
8 39357 39358 39363 39362 39662 39663 39668 39667
8 39358 6651 6650 39363 39663 6590 6589 39668
8 684 39359 39364 685 623 39664 39669 624
8 39359 39360 39365 39364 39664 39665 39670 39669
8 39360 39361 39366 39365 39665 39666 39671 39670
8 39361 39362 39367 39366 39666 39667 39672 39671
8 39362 39363 39368 39367 39667 39668 39673 39672
8 39363 6650 6649 39368 39668 6589 6588 39673
8 685 39364 39369 686 624 39669 39674 625
8 39364 39365 39370 39369 39669 39670 39675 39674
8 39365 39366 39371 39370 39670 39671 39676 39675
8 39366 39367 39372 39371 39671 39672 39677 39676
8 39367 39368 39373 39372 39672 39673 39678 39677
8 39368 6649 6648 39373 39673 6588 6587 39678
8 686 39369 39374 687 625 39674 39679 626
8 39369 39370 39375 39374 39674 39675 39680 39679
8 39370 39371 39376 39375 39675 39676 39681 39680
8 39371 39372 39377 39376 39676 39677 39682 39681
8 39372 39373 39378 39377 39677 39678 39683 39682
8 39373 6648 6647 39378 39678 6587 6586 39683
8 687 39374 39379 688 626 39679 39684 627
8 39374 39375 39380 39379 39679 39680 39685 39684
8 39375 39376 39381 39380 39680 39681 39686 39685
8 39376 39377 39382 39381 39681 39682 39687 39686
8 39377 39378 39383 39382 39682 39683 39688 39687
8 39378 6647 6646 39383 39683 6586 6585 39688
8 688 39379 39384 689 627 39684 39689 628
8 39379 39380 39385 39384 39684 39685 39690 39689
8 39380 39381 39386 39385 39685 39686 39691 39690
8 39381 39382 39387 39386 39686 39687 39692 39691
8 39382 39383 39388 39387 39687 39688 39693 39692
8 39383 6646 6645 39388 39688 6585 6584 39693
8 689 39384 39389 690 628 39689 39694 629
8 39384 39385 39390 39389 39689 39690 39695 39694
8 39385 39386 39391 39390 39690 39691 39696 39695
8 39386 39387 39392 39391 39691 39692 39697 39696
8 39387 39388 39393 39392 39692 39693 39698 39697
8 39388 6645 6644 39393 39693 6584 6583 39698
8 690 39389 39394 691 629 39694 39699 630
8 39389 39390 39395 39394 39694 39695 39700 39699
8 39390 39391 39396 39395 39695 39696 39701 39700
8 39391 39392 39397 39396 39696 39697 39702 39701
8 39392 39393 39398 39397 39697 39698 39703 39702
8 39393 6644 6643 39398 39698 6583 6582 39703
8 691 39394 39399 692 630 39699 39704 631
8 39394 39395 39400 39399 39699 39700 39705 39704
8 39395 39396 39401 39400 39700 39701 39706 39705
8 39396 39397 39402 39401 39701 39702 39707 39706
8 39397 39398 39403 39402 39702 39703 39708 39707
8 39398 6643 6642 39403 39703 6582 6581 39708
8 692 39399 39404 693 631 39704 39709 632
8 39399 39400 39405 39404 39704 39705 39710 39709
8 39400 39401 39406 39405 39705 39706 39711 39710
8 39401 39402 39407 39406 39706 39707 39712 39711
8 39402 39403 39408 39407 39707 39708 39713 39712
8 39403 6642 6641 39408 39708 6581 6580 39713
8 693 39404 39409 694 632 39709 39714 633
8 39404 39405 39410 39409 39709 39710 39715 39714
8 39405 39406 39411 39410 39710 39711 39716 39715
8 39406 39407 39412 39411 39711 39712 39717 39716
8 39407 39408 39413 39412 39712 39713 39718 39717
8 39408 6641 6640 39413 39713 6580 6579 39718
8 694 39409 39414 695 633 39714 39719 634
8 39409 39410 39415 39414 39714 39715 39720 39719
8 39410 39411 39416 39415 39715 39716 39721 39720
8 39411 39412 39417 39416 39716 39717 39722 39721
8 39412 39413 39418 39417 39717 39718 39723 39722
8 39413 6640 6639 39418 39718 6579 6578 39723
8 695 39414 39419 696 634 39719 39724 635
8 39414 39415 39420 39419 39719 39720 39725 39724
8 39415 39416 39421 39420 39720 39721 39726 39725
8 39416 39417 39422 39421 39721 39722 39727 39726
8 39417 39418 39423 39422 39722 39723 39728 39727
8 39418 6639 6638 39423 39723 6578 6577 39728
8 696 39419 39424 697 635 39724 39729 636
8 39419 39420 39425 39424 39724 39725 39730 39729
8 39420 39421 39426 39425 39725 39726 39731 39730
8 39421 39422 39427 39426 39726 39727 39732 39731
8 39422 39423 39428 39427 39727 39728 39733 39732
8 39423 6638 6637 39428 39728 6577 6576 39733
8 39424 39425 39430 39429 39729 39730 39735 39734
8 39425 39426 39431 39430 39730 39731 39736 39735
8 39426 39427 39432 39431 39731 39732 39737 39736
8 39427 39428 39433 39432 39732 39733 39738 39737
8 39428 6637 6636 39433 39733 6576 6575 39738
8 39429 39430 39435 39434 39734 39735 39740 39739
8 39430 39431 39436 39435 39735 39736 39741 39740
8 39431 39432 39437 39436 39736 39737 39742 39741
8 39432 39433 39438 39437 39737 39738 39743 39742
8 39433 6636 6635 39438 39738 6575 6574 39743
8 39434 39435 39440 39439 39739 39740 39745 39744
8 39435 39436 39441 39440 39740 39741 39746 39745
8 39436 39437 39442 39441 39741 39742 39747 39746
8 39437 39438 39443 39442 39742 39743 39748 39747
8 39438 6635 6634 39443 39743 6574 6573 39748
8 39439 39440 39445 39444 39744 39745 39750 39749
8 39440 39441 39446 39445 39745 39746 39751 39750
8 39441 39442 39447 39446 39746 39747 39752 39751
8 39442 39443 39448 39447 39747 39748 39753 39752
8 39443 6634 6633 39448 39748 6573 6572 39753
8 39444 39445 39450 39449 39749 39750 39755 39754
8 39445 39446 39451 39450 39750 39751 39756 39755
8 39446 39447 39452 39451 39751 39752 39757 39756
8 39447 39448 39453 39452 39752 39753 39758 39757
8 39448 6633 6632 39453 39753 6572 6571 39758
8 702 39449 39454 703 641 39754 39759 642
8 39449 39450 39455 39454 39754 39755 39760 39759
8 39450 39451 39456 39455 39755 39756 39761 39760
8 39451 39452 39457 39456 39756 39757 39762 39761
8 39452 39453 39458 39457 39757 39758 39763 39762
8 39453 6632 6631 39458 39758 6571 6570 39763
8 703 39454 39459 704 642 39759 39764 643
8 39454 39455 39460 39459 39759 39760 39765 39764
8 39455 39456 39461 39460 39760 39761 39766 39765
8 39456 39457 39462 39461 39761 39762 39767 39766
8 39457 39458 39463 39462 39762 39763 39768 39767
8 39458 6631 6630 39463 39763 6570 6569 39768
8 704 39459 39464 705 643 39764 39769 644
8 39459 39460 39465 39464 39764 39765 39770 39769
8 39460 39461 39466 39465 39765 39766 39771 39770
8 39461 39462 39467 39466 39766 39767 39772 39771
8 39462 39463 39468 39467 39767 39768 39773 39772
8 39463 6630 6629 39468 39768 6569 6568 39773
8 705 39464 39469 706 644 39769 39774 645
8 39464 39465 39470 39469 39769 39770 39775 39774
8 39465 39466 39471 39470 39770 39771 39776 39775
8 39466 39467 39472 39471 39771 39772 39777 39776
8 39467 39468 39473 39472 39772 39773 39778 39777
8 39468 6629 6628 39473 39773 6568 6567 39778
8 706 39469 39474 707 645 39774 39779 646
8 39469 39470 39475 39474 39774 39775 39780 39779
8 39470 39471 39476 39475 39775 39776 39781 39780
8 39471 39472 39477 39476 39776 39777 39782 39781
8 39472 39473 39478 39477 39777 39778 39783 39782
8 39473 6628 6627 39478 39778 6567 6566 39783
8 707 39474 39479 708 646 39779 39784 647
8 39474 39475 39480 39479 39779 39780 39785 39784
8 39475 39476 39481 39480 39780 39781 39786 39785
8 39476 39477 39482 39481 39781 39782 39787 39786
8 39477 39478 39483 39482 39782 39783 39788 39787
8 39478 6627 6626 39483 39783 6566 6565 39788
8 708 39479 39484 709 647 39784 39789 648
8 39479 39480 39485 39484 39784 39785 39790 39789
8 39480 39481 39486 39485 39785 39786 39791 39790
8 39481 39482 39487 39486 39786 39787 39792 39791
8 39482 39483 39488 39487 39787 39788 39793 39792
8 39483 6626 6625 39488 39788 6565 6564 39793
8 709 39484 39489 710 648 39789 39794 649
8 39484 39485 39490 39489 39789 39790 39795 39794
8 39485 39486 39491 39490 39790 39791 39796 39795
8 39486 39487 39492 39491 39791 39792 39797 39796
8 39487 39488 39493 39492 39792 39793 39798 39797
8 39488 6625 6624 39493 39793 6564 6563 39798
8 710 39489 39494 711 649 39794 39799 650
8 39489 39490 39495 39494 39794 39795 39800 39799
8 39490 39491 39496 39495 39795 39796 39801 39800
8 39491 39492 39497 39496 39796 39797 39802 39801
8 39492 39493 39498 39497 39797 39798 39803 39802
8 39493 6624 6623 39498 39798 6563 6562 39803
8 711 39494 39499 712 650 39799 39804 651
8 39494 39495 39500 39499 39799 39800 39805 39804
8 39495 39496 39501 39500 39800 39801 39806 39805
8 39496 39497 39502 39501 39801 39802 39807 39806
8 39497 39498 39503 39502 39802 39803 39808 39807
8 39498 6623 6622 39503 39803 6562 6561 39808
8 712 39499 39504 713 651 39804 39809 652
8 39499 39500 39505 39504 39804 39805 39810 39809
8 39500 39501 39506 39505 39805 39806 39811 39810
8 39501 39502 39507 39506 39806 39807 39812 39811
8 39502 39503 39508 39507 39807 39808 39813 39812
8 39503 6622 6621 39508 39808 6561 6560 39813
8 713 39504 39509 714 652 39809 39814 653
8 39504 39505 39510 39509 39809 39810 39815 39814
8 39505 39506 39511 39510 39810 39811 39816 39815
8 39506 39507 39512 39511 39811 39812 39817 39816
8 39507 39508 39513 39512 39812 39813 39818 39817
8 39508 6621 6620 39513 39813 6560 6559 39818
8 714 39509 39514 715 653 39814 39819 654
8 39509 39510 39515 39514 39814 39815 39820 39819
8 39510 39511 39516 39515 39815 39816 39821 39820
8 39511 39512 39517 39516 39816 39817 39822 39821
8 39512 39513 39518 39517 39817 39818 39823 39822
8 39513 6620 6619 39518 39818 6559 6558 39823
8 715 39514 39519 716 654 39819 39824 655
8 39514 39515 39520 39519 39819 39820 39825 39824
8 39515 39516 39521 39520 39820 39821 39826 39825
8 39516 39517 39522 39521 39821 39822 39827 39826
8 39517 39518 39523 39522 39822 39823 39828 39827
8 39518 6619 6618 39523 39823 6558 6557 39828
8 716 39519 39524 717 655 39824 39829 656
8 39519 39520 39525 39524 39824 39825 39830 39829
8 39520 39521 39526 39525 39825 39826 39831 39830
8 39521 39522 39527 39526 39826 39827 39832 39831
8 39522 39523 39528 39527 39827 39828 39833 39832
8 39523 6618 6617 39528 39828 6557 6556 39833
8 717 39524 39529 718 656 39829 39834 657
8 39524 39525 39530 39529 39829 39830 39835 39834
8 39525 39526 39531 39530 39830 39831 39836 39835
8 39526 39527 39532 39531 39831 39832 39837 39836
8 39527 39528 39533 39532 39832 39833 39838 39837
8 39528 6617 6616 39533 39833 6556 6555 39838
8 718 39529 39534 719 657 39834 39839 658
8 39529 39530 39535 39534 39834 39835 39840 39839
8 39530 39531 39536 39535 39835 39836 39841 39840
8 39531 39532 39537 39536 39836 39837 39842 39841
8 39532 39533 39538 39537 39837 39838 39843 39842
8 39533 6616 6615 39538 39838 6555 6554 39843
8 719 39534 39539 720 658 39839 39844 659
8 39534 39535 39540 39539 39839 39840 39845 39844
8 39535 39536 39541 39540 39840 39841 39846 39845
8 39536 39537 39542 39541 39841 39842 39847 39846
8 39537 39538 39543 39542 39842 39843 39848 39847
8 39538 6615 6614 39543 39843 6554 6553 39848
8 720 39539 39544 721 659 39844 39849 660
8 39539 39540 39545 39544 39844 39845 39850 39849
8 39540 39541 39546 39545 39845 39846 39851 39850
8 39541 39542 39547 39546 39846 39847 39852 39851
8 39542 39543 39548 39547 39847 39848 39853 39852
8 39543 6614 6613 39548 39848 6553 6552 39853
8 721 39544 39549 722 660 39849 39854 661
8 39544 39545 39550 39549 39849 39850 39855 39854
8 39545 39546 39551 39550 39850 39851 39856 39855
8 39546 39547 39552 39551 39851 39852 39857 39856
8 39547 39548 39553 39552 39852 39853 39858 39857
8 39548 6613 6612 39553 39853 6552 6551 39858
8 39549 39550 39555 39554 39854 39855 39860 39859
8 39550 39551 39556 39555 39855 39856 39861 39860
8 39551 39552 39557 39556 39856 39857 39862 39861
8 39552 39553 39558 39557 39857 39858 39863 39862
8 39553 6612 6611 39558 39858 6551 6550 39863
8 39554 39555 39560 39559 39859 39860 39865 39864
8 39555 39556 39561 39560 39860 39861 39866 39865
8 39556 39557 39562 39561 39861 39862 39867 39866
8 39557 39558 39563 39562 39862 39863 39868 39867
8 39558 6611 6610 39563 39863 6550 6549 39868
8 39559 39560 39565 39564 39864 39865 39870 39869
8 39560 39561 39566 39565 39865 39866 39871 39870
8 39561 39562 39567 39566 39866 39867 39872 39871
8 39562 39563 39568 39567 39867 39868 39873 39872
8 39563 6610 6609 39568 39868 6549 6548 39873
8 39564 39565 39570 39569 39869 39870 39875 39874
8 39565 39566 39571 39570 39870 39871 39876 39875
8 39566 39567 39572 39571 39871 39872 39877 39876
8 39567 39568 39573 39572 39872 39873 39878 39877
8 39568 6609 6608 39573 39873 6548 6547 39878
8 39569 39570 39575 39574 39874 39875 39880 39879
8 39570 39571 39576 39575 39875 39876 39881 39880
8 39571 39572 39577 39576 39876 39877 39882 39881
8 39572 39573 39578 39577 39877 39878 39883 39882
8 39573 6608 6607 39578 39878 6547 6546 39883
8 727 39574 39579 728 666 39879 39884 667
8 39574 39575 39580 39579 39879 39880 39885 39884
8 39575 39576 39581 39580 39880 39881 39886 39885
8 39576 39577 39582 39581 39881 39882 39887 39886
8 39577 39578 39583 39582 39882 39883 39888 39887
8 39578 6607 6606 39583 39883 6546 6545 39888
8 728 39579 39584 729 667 39884 39889 668
8 39579 39580 39585 39584 39884 39885 39890 39889
8 39580 39581 39586 39585 39885 39886 39891 39890
8 39581 39582 39587 39586 39886 39887 39892 39891
8 39582 39583 39588 39587 39887 39888 39893 39892
8 39583 6606 6605 39588 39888 6545 6544 39893
8 729 39584 39589 730 668 39889 39894 669
8 39584 39585 39590 39589 39889 39890 39895 39894
8 39585 39586 39591 39590 39890 39891 39896 39895
8 39586 39587 39592 39591 39891 39892 39897 39896
8 39587 39588 39593 39592 39892 39893 39898 39897
8 39588 6605 6604 39593 39893 6544 6543 39898
8 730 39589 39594 731 669 39894 39899 670
8 39589 39590 39595 39594 39894 39895 39900 39899
8 39590 39591 39596 39595 39895 39896 39901 39900
8 39591 39592 39597 39596 39896 39897 39902 39901
8 39592 39593 39598 39597 39897 39898 39903 39902
8 39593 6604 6603 39598 39898 6543 6542 39903
8 731 39594 39599 732 670 39899 39904 671
8 39594 39595 39600 39599 39899 39900 39905 39904
8 39595 39596 39601 39600 39900 39901 39906 39905
8 39596 39597 39602 39601 39901 39902 39907 39906
8 39597 39598 39603 39602 39902 39903 39908 39907
8 39598 6603 6602 39603 39903 6542 6541 39908
8 732 39599 39604 733 671 39904 39909 672
8 39599 39600 39605 39604 39904 39905 39910 39909
8 39600 39601 39606 39605 39905 39906 39911 39910
8 39601 39602 39607 39606 39906 39907 39912 39911
8 39602 39603 39608 39607 39907 39908 39913 39912
8 39603 6602 6601 39608 39908 6541 6540 39913
8 733 39604 39609 734 672 39909 39914 673
8 39604 39605 39610 39609 39909 39910 39915 39914
8 39605 39606 39611 39610 39910 39911 39916 39915
8 39606 39607 39612 39611 39911 39912 39917 39916
8 39607 39608 39613 39612 39912 39913 39918 39917
8 39608 6601 6600 39613 39913 6540 6539 39918
8 734 39609 39614 735 673 39914 39919 674
8 39609 39610 39615 39614 39914 39915 39920 39919
8 39610 39611 39616 39615 39915 39916 39921 39920
8 39611 39612 39617 39616 39916 39917 39922 39921
8 39612 39613 39618 39617 39917 39918 39923 39922
8 39613 6600 6599 39618 39918 6539 6538 39923
8 735 39614 39619 736 674 39919 39924 675
8 39614 39615 39620 39619 39919 39920 39925 39924
8 39615 39616 39621 39620 39920 39921 39926 39925
8 39616 39617 39622 39621 39921 39922 39927 39926
8 39617 39618 39623 39622 39922 39923 39928 39927
8 39618 6599 6598 39623 39923 6538 6537 39928
8 736 39619 12659 70 675 39924 12654 69
8 39619 39620 12660 12659 39924 39925 12655 12654
8 39620 39621 12661 12660 39925 39926 12656 12655
8 39621 39622 12662 12661 39926 39927 12657 12656
8 39622 39623 12663 12662 39927 39928 12658 12657
8 39623 6598 6225 12663 39928 6537 6226 12658
8 304 12284 39624 615 305 12289 39929 554
8 12284 12285 39625 39624 12289 12290 39930 39929
8 12285 12286 39626 39625 12290 12291 39931 39930
8 12286 12287 39627 39626 12291 12292 39932 39931
8 12287 12288 39628 39627 12292 12293 39933 39932
8 12288 5991 6597 39628 12293 5990 6536 39933
8 615 39624 39629 616 554 39929 39934 555
8 39624 39625 39630 39629 39929 39930 39935 39934
8 39625 39626 39631 39630 39930 39931 39936 39935
8 39626 39627 39632 39631 39931 39932 39937 39936
8 39627 39628 39633 39632 39932 39933 39938 39937
8 39628 6597 6596 39633 39933 6536 6535 39938
8 616 39629 39634 617 555 39934 39939 556
8 39629 39630 39635 39634 39934 39935 39940 39939
8 39630 39631 39636 39635 39935 39936 39941 39940
8 39631 39632 39637 39636 39936 39937 39942 39941
8 39632 39633 39638 39637 39937 39938 39943 39942
8 39633 6596 6595 39638 39938 6535 6534 39943
8 617 39634 39639 618 556 39939 39944 557
8 39634 39635 39640 39639 39939 39940 39945 39944
8 39635 39636 39641 39640 39940 39941 39946 39945
8 39636 39637 39642 39641 39941 39942 39947 39946
8 39637 39638 39643 39642 39942 39943 39948 39947
8 39638 6595 6594 39643 39943 6534 6533 39948
8 618 39639 39644 619 557 39944 39949 558
8 39639 39640 39645 39644 39944 39945 39950 39949
8 39640 39641 39646 39645 39945 39946 39951 39950
8 39641 39642 39647 39646 39946 39947 39952 39951
8 39642 39643 39648 39647 39947 39948 39953 39952
8 39643 6594 6593 39648 39948 6533 6532 39953
8 619 39644 39649 620 558 39949 39954 559
8 39644 39645 39650 39649 39949 39950 39955 39954
8 39645 39646 39651 39650 39950 39951 39956 39955
8 39646 39647 39652 39651 39951 39952 39957 39956
8 39647 39648 39653 39652 39952 39953 39958 39957
8 39648 6593 6592 39653 39953 6532 6531 39958
8 620 39649 39654 621 559 39954 39959 560
8 39649 39650 39655 39654 39954 39955 39960 39959
8 39650 39651 39656 39655 39955 39956 39961 39960
8 39651 39652 39657 39656 39956 39957 39962 39961
8 39652 39653 39658 39657 39957 39958 39963 39962
8 39653 6592 6591 39658 39958 6531 6530 39963
8 621 39654 39659 622 560 39959 39964 561
8 39654 39655 39660 39659 39959 39960 39965 39964
8 39655 39656 39661 39660 39960 39961 39966 39965
8 39656 39657 39662 39661 39961 39962 39967 39966
8 39657 39658 39663 39662 39962 39963 39968 39967
8 39658 6591 6590 39663 39963 6530 6529 39968
8 622 39659 39664 623 561 39964 39969 562
8 39659 39660 39665 39664 39964 39965 39970 39969
8 39660 39661 39666 39665 39965 39966 39971 39970
8 39661 39662 39667 39666 39966 39967 39972 39971
8 39662 39663 39668 39667 39967 39968 39973 39972
8 39663 6590 6589 39668 39968 6529 6528 39973
8 623 39664 39669 624 562 39969 39974 563
8 39664 39665 39670 39669 39969 39970 39975 39974
8 39665 39666 39671 39670 39970 39971 39976 39975
8 39666 39667 39672 39671 39971 39972 39977 39976
8 39667 39668 39673 39672 39972 39973 39978 39977
8 39668 6589 6588 39673 39973 6528 6527 39978
8 624 39669 39674 625 563 39974 39979 564
8 39669 39670 39675 39674 39974 39975 39980 39979
8 39670 39671 39676 39675 39975 39976 39981 39980
8 39671 39672 39677 39676 39976 39977 39982 39981
8 39672 39673 39678 39677 39977 39978 39983 39982
8 39673 6588 6587 39678 39978 6527 6526 39983
8 625 39674 39679 626 564 39979 39984 565
8 39674 39675 39680 39679 39979 39980 39985 39984
8 39675 39676 39681 39680 39980 39981 39986 39985
8 39676 39677 39682 39681 39981 39982 39987 39986
8 39677 39678 39683 39682 39982 39983 39988 39987
8 39678 6587 6586 39683 39983 6526 6525 39988
8 626 39679 39684 627 565 39984 39989 566
8 39679 39680 39685 39684 39984 39985 39990 39989
8 39680 39681 39686 39685 39985 39986 39991 39990
8 39681 39682 39687 39686 39986 39987 39992 39991
8 39682 39683 39688 39687 39987 39988 39993 39992
8 39683 6586 6585 39688 39988 6525 6524 39993
8 627 39684 39689 628 566 39989 39994 567
8 39684 39685 39690 39689 39989 39990 39995 39994
8 39685 39686 39691 39690 39990 39991 39996 39995
8 39686 39687 39692 39691 39991 39992 39997 39996
8 39687 39688 39693 39692 39992 39993 39998 39997
8 39688 6585 6584 39693 39993 6524 6523 39998
8 628 39689 39694 629 567 39994 39999 568
8 39689 39690 39695 39694 39994 39995 40000 39999
8 39690 39691 39696 39695 39995 39996 40001 40000
8 39691 39692 39697 39696 39996 39997 40002 40001
8 39692 39693 39698 39697 39997 39998 40003 40002
8 39693 6584 6583 39698 39998 6523 6522 40003
8 629 39694 39699 630 568 39999 40004 569
8 39694 39695 39700 39699 39999 40000 40005 40004
8 39695 39696 39701 39700 40000 40001 40006 40005
8 39696 39697 39702 39701 40001 40002 40007 40006
8 39697 39698 39703 39702 40002 40003 40008 40007
8 39698 6583 6582 39703 40003 6522 6521 40008
8 630 39699 39704 631 569 40004 40009 570
8 39699 39700 39705 39704 40004 40005 40010 40009
8 39700 39701 39706 39705 40005 40006 40011 40010
8 39701 39702 39707 39706 40006 40007 40012 40011
8 39702 39703 39708 39707 40007 40008 40013 40012
8 39703 6582 6581 39708 40008 6521 6520 40013
8 631 39704 39709 632 570 40009 40014 571
8 39704 39705 39710 39709 40009 40010 40015 40014
8 39705 39706 39711 39710 40010 40011 40016 40015
8 39706 39707 39712 39711 40011 40012 40017 40016
8 39707 39708 39713 39712 40012 40013 40018 40017
8 39708 6581 6580 39713 40013 6520 6519 40018
8 632 39709 39714 633 571 40014 40019 572
8 39709 39710 39715 39714 40014 40015 40020 40019
8 39710 39711 39716 39715 40015 40016 40021 40020
8 39711 39712 39717 39716 40016 40017 40022 40021
8 39712 39713 39718 39717 40017 40018 40023 40022
8 39713 6580 6579 39718 40018 6519 6518 40023
8 633 39714 39719 634 572 40019 40024 573
8 39714 39715 39720 39719 40019 40020 40025 40024
8 39715 39716 39721 39720 40020 40021 40026 40025
8 39716 39717 39722 39721 40021 40022 40027 40026
8 39717 39718 39723 39722 40022 40023 40028 40027
8 39718 6579 6578 39723 40023 6518 6517 40028
8 634 39719 39724 635 573 40024 40029 574
8 39719 39720 39725 39724 40024 40025 40030 40029
8 39720 39721 39726 39725 40025 40026 40031 40030
8 39721 39722 39727 39726 40026 40027 40032 40031
8 39722 39723 39728 39727 40027 40028 40033 40032
8 39723 6578 6577 39728 40028 6517 6516 40033
8 635 39724 39729 636 574 40029 40034 575
8 39724 39725 39730 39729 40029 40030 40035 40034
8 39725 39726 39731 39730 40030 40031 40036 40035
8 39726 39727 39732 39731 40031 40032 40037 40036
8 39727 39728 39733 39732 40032 40033 40038 40037
8 39728 6577 6576 39733 40033 6516 6515 40038
8 636 39729 39734 637 575 40034 40039 576
8 39729 39730 39735 39734 40034 40035 40040 40039
8 39730 39731 39736 39735 40035 40036 40041 40040
8 39731 39732 39737 39736 40036 40037 40042 40041
8 39732 39733 39738 39737 40037 40038 40043 40042
8 39733 6576 6575 39738 40038 6515 6514 40043
8 637 39734 39739 638 576 40039 40044 577
8 39734 39735 39740 39739 40039 40040 40045 40044
8 39735 39736 39741 39740 40040 40041 40046 40045
8 39736 39737 39742 39741 40041 40042 40047 40046
8 39737 39738 39743 39742 40042 40043 40048 40047
8 39738 6575 6574 39743 40043 6514 6513 40048
8 638 39739 39744 639 577 40044 40049 578
8 39739 39740 39745 39744 40044 40045 40050 40049
8 39740 39741 39746 39745 40045 40046 40051 40050
8 39741 39742 39747 39746 40046 40047 40052 40051
8 39742 39743 39748 39747 40047 40048 40053 40052
8 39743 6574 6573 39748 40048 6513 6512 40053
8 639 39744 39749 640 578 40049 40054 579
8 39744 39745 39750 39749 40049 40050 40055 40054
8 39745 39746 39751 39750 40050 40051 40056 40055
8 39746 39747 39752 39751 40051 40052 40057 40056
8 39747 39748 39753 39752 40052 40053 40058 40057
8 39748 6573 6572 39753 40053 6512 6511 40058
8 640 39749 39754 641 579 40054 40059 580
8 39749 39750 39755 39754 40054 40055 40060 40059
8 39750 39751 39756 39755 40055 40056 40061 40060
8 39751 39752 39757 39756 40056 40057 40062 40061
8 39752 39753 39758 39757 40057 40058 40063 40062
8 39753 6572 6571 39758 40058 6511 6510 40063
8 641 39754 39759 642 580 40059 40064 581
8 39754 39755 39760 39759 40059 40060 40065 40064
8 39755 39756 39761 39760 40060 40061 40066 40065
8 39756 39757 39762 39761 40061 40062 40067 40066
8 39757 39758 39763 39762 40062 40063 40068 40067
8 39758 6571 6570 39763 40063 6510 6509 40068
8 642 39759 39764 643 581 40064 40069 582
8 39759 39760 39765 39764 40064 40065 40070 40069
8 39760 39761 39766 39765 40065 40066 40071 40070
8 39761 39762 39767 39766 40066 40067 40072 40071
8 39762 39763 39768 39767 40067 40068 40073 40072
8 39763 6570 6569 39768 40068 6509 6508 40073
8 643 39764 39769 644 582 40069 40074 583
8 39764 39765 39770 39769 40069 40070 40075 40074
8 39765 39766 39771 39770 40070 40071 40076 40075
8 39766 39767 39772 39771 40071 40072 40077 40076
8 39767 39768 39773 39772 40072 40073 40078 40077
8 39768 6569 6568 39773 40073 6508 6507 40078
8 644 39769 39774 645 583 40074 40079 584
8 39769 39770 39775 39774 40074 40075 40080 40079
8 39770 39771 39776 39775 40075 40076 40081 40080
8 39771 39772 39777 39776 40076 40077 40082 40081
8 39772 39773 39778 39777 40077 40078 40083 40082
8 39773 6568 6567 39778 40078 6507 6506 40083
8 645 39774 39779 646 584 40079 40084 585
8 39774 39775 39780 39779 40079 40080 40085 40084
8 39775 39776 39781 39780 40080 40081 40086 40085
8 39776 39777 39782 39781 40081 40082 40087 40086
8 39777 39778 39783 39782 40082 40083 40088 40087
8 39778 6567 6566 39783 40083 6506 6505 40088
8 646 39779 39784 647 585 40084 40089 586
8 39779 39780 39785 39784 40084 40085 40090 40089
8 39780 39781 39786 39785 40085 40086 40091 40090
8 39781 39782 39787 39786 40086 40087 40092 40091
8 39782 39783 39788 39787 40087 40088 40093 40092
8 39783 6566 6565 39788 40088 6505 6504 40093
8 647 39784 39789 648 586 40089 40094 587
8 39784 39785 39790 39789 40089 40090 40095 40094
8 39785 39786 39791 39790 40090 40091 40096 40095
8 39786 39787 39792 39791 40091 40092 40097 40096
8 39787 39788 39793 39792 40092 40093 40098 40097
8 39788 6565 6564 39793 40093 6504 6503 40098
8 648 39789 39794 649 587 40094 40099 588
8 39789 39790 39795 39794 40094 40095 40100 40099
8 39790 39791 39796 39795 40095 40096 40101 40100
8 39791 39792 39797 39796 40096 40097 40102 40101
8 39792 39793 39798 39797 40097 40098 40103 40102
8 39793 6564 6563 39798 40098 6503 6502 40103
8 649 39794 39799 650 588 40099 40104 589
8 39794 39795 39800 39799 40099 40100 40105 40104
8 39795 39796 39801 39800 40100 40101 40106 40105
8 39796 39797 39802 39801 40101 40102 40107 40106
8 39797 39798 39803 39802 40102 40103 40108 40107
8 39798 6563 6562 39803 40103 6502 6501 40108
8 650 39799 39804 651 589 40104 40109 590
8 39799 39800 39805 39804 40104 40105 40110 40109
8 39800 39801 39806 39805 40105 40106 40111 40110
8 39801 39802 39807 39806 40106 40107 40112 40111
8 39802 39803 39808 39807 40107 40108 40113 40112
8 39803 6562 6561 39808 40108 6501 6500 40113
8 651 39804 39809 652 590 40109 40114 591
8 39804 39805 39810 39809 40109 40110 40115 40114
8 39805 39806 39811 39810 40110 40111 40116 40115
8 39806 39807 39812 39811 40111 40112 40117 40116
8 39807 39808 39813 39812 40112 40113 40118 40117
8 39808 6561 6560 39813 40113 6500 6499 40118
8 652 39809 39814 653 591 40114 40119 592
8 39809 39810 39815 39814 40114 40115 40120 40119
8 39810 39811 39816 39815 40115 40116 40121 40120
8 39811 39812 39817 39816 40116 40117 40122 40121
8 39812 39813 39818 39817 40117 40118 40123 40122
8 39813 6560 6559 39818 40118 6499 6498 40123
8 653 39814 39819 654 592 40119 40124 593
8 39814 39815 39820 39819 40119 40120 40125 40124
8 39815 39816 39821 39820 40120 40121 40126 40125
8 39816 39817 39822 39821 40121 40122 40127 40126
8 39817 39818 39823 39822 40122 40123 40128 40127
8 39818 6559 6558 39823 40123 6498 6497 40128
8 654 39819 39824 655 593 40124 40129 594
8 39819 39820 39825 39824 40124 40125 40130 40129
8 39820 39821 39826 39825 40125 40126 40131 40130
8 39821 39822 39827 39826 40126 40127 40132 40131
8 39822 39823 39828 39827 40127 40128 40133 40132
8 39823 6558 6557 39828 40128 6497 6496 40133
8 655 39824 39829 656 594 40129 40134 595
8 39824 39825 39830 39829 40129 40130 40135 40134
8 39825 39826 39831 39830 40130 40131 40136 40135
8 39826 39827 39832 39831 40131 40132 40137 40136
8 39827 39828 39833 39832 40132 40133 40138 40137
8 39828 6557 6556 39833 40133 6496 6495 40138
8 656 39829 39834 657 595 40134 40139 596
8 39829 39830 39835 39834 40134 40135 40140 40139
8 39830 39831 39836 39835 40135 40136 40141 40140
8 39831 39832 39837 39836 40136 40137 40142 40141
8 39832 39833 39838 39837 40137 40138 40143 40142
8 39833 6556 6555 39838 40138 6495 6494 40143
8 657 39834 39839 658 596 40139 40144 597
8 39834 39835 39840 39839 40139 40140 40145 40144
8 39835 39836 39841 39840 40140 40141 40146 40145
8 39836 39837 39842 39841 40141 40142 40147 40146
8 39837 39838 39843 39842 40142 40143 40148 40147
8 39838 6555 6554 39843 40143 6494 6493 40148
8 658 39839 39844 659 597 40144 40149 598
8 39839 39840 39845 39844 40144 40145 40150 40149
8 39840 39841 39846 39845 40145 40146 40151 40150
8 39841 39842 39847 39846 40146 40147 40152 40151
8 39842 39843 39848 39847 40147 40148 40153 40152
8 39843 6554 6553 39848 40148 6493 6492 40153
8 659 39844 39849 660 598 40149 40154 599
8 39844 39845 39850 39849 40149 40150 40155 40154
8 39845 39846 39851 39850 40150 40151 40156 40155
8 39846 39847 39852 39851 40151 40152 40157 40156
8 39847 39848 39853 39852 40152 40153 40158 40157
8 39848 6553 6552 39853 40153 6492 6491 40158
8 660 39849 39854 661 599 40154 40159 600
8 39849 39850 39855 39854 40154 40155 40160 40159
8 39850 39851 39856 39855 40155 40156 40161 40160
8 39851 39852 39857 39856 40156 40157 40162 40161
8 39852 39853 39858 39857 40157 40158 40163 40162
8 39853 6552 6551 39858 40158 6491 6490 40163
8 661 39854 39859 662 600 40159 40164 601
8 39854 39855 39860 39859 40159 40160 40165 40164
8 39855 39856 39861 39860 40160 40161 40166 40165
8 39856 39857 39862 39861 40161 40162 40167 40166
8 39857 39858 39863 39862 40162 40163 40168 40167
8 39858 6551 6550 39863 40163 6490 6489 40168
8 662 39859 39864 663 601 40164 40169 602
8 39859 39860 39865 39864 40164 40165 40170 40169
8 39860 39861 39866 39865 40165 40166 40171 40170
8 39861 39862 39867 39866 40166 40167 40172 40171
8 39862 39863 39868 39867 40167 40168 40173 40172
8 39863 6550 6549 39868 40168 6489 6488 40173
8 663 39864 39869 664 602 40169 40174 603
8 39864 39865 39870 39869 40169 40170 40175 40174
8 39865 39866 39871 39870 40170 40171 40176 40175
8 39866 39867 39872 39871 40171 40172 40177 40176
8 39867 39868 39873 39872 40172 40173 40178 40177
8 39868 6549 6548 39873 40173 6488 6487 40178
8 664 39869 39874 665 603 40174 40179 604
8 39869 39870 39875 39874 40174 40175 40180 40179
8 39870 39871 39876 39875 40175 40176 40181 40180
8 39871 39872 39877 39876 40176 40177 40182 40181
8 39872 39873 39878 39877 40177 40178 40183 40182
8 39873 6548 6547 39878 40178 6487 6486 40183
8 665 39874 39879 666 604 40179 40184 605
8 39874 39875 39880 39879 40179 40180 40185 40184
8 39875 39876 39881 39880 40180 40181 40186 40185
8 39876 39877 39882 39881 40181 40182 40187 40186
8 39877 39878 39883 39882 40182 40183 40188 40187
8 39878 6547 6546 39883 40183 6486 6485 40188
8 666 39879 39884 667 605 40184 40189 606
8 39879 39880 39885 39884 40184 40185 40190 40189
8 39880 39881 39886 39885 40185 40186 40191 40190
8 39881 39882 39887 39886 40186 40187 40192 40191
8 39882 39883 39888 39887 40187 40188 40193 40192
8 39883 6546 6545 39888 40188 6485 6484 40193
8 667 39884 39889 668 606 40189 40194 607
8 39884 39885 39890 39889 40189 40190 40195 40194
8 39885 39886 39891 39890 40190 40191 40196 40195
8 39886 39887 39892 39891 40191 40192 40197 40196
8 39887 39888 39893 39892 40192 40193 40198 40197
8 39888 6545 6544 39893 40193 6484 6483 40198
8 668 39889 39894 669 607 40194 40199 608
8 39889 39890 39895 39894 40194 40195 40200 40199
8 39890 39891 39896 39895 40195 40196 40201 40200
8 39891 39892 39897 39896 40196 40197 40202 40201
8 39892 39893 39898 39897 40197 40198 40203 40202
8 39893 6544 6543 39898 40198 6483 6482 40203
8 669 39894 39899 670 608 40199 40204 609
8 39894 39895 39900 39899 40199 40200 40205 40204
8 39895 39896 39901 39900 40200 40201 40206 40205
8 39896 39897 39902 39901 40201 40202 40207 40206
8 39897 39898 39903 39902 40202 40203 40208 40207
8 39898 6543 6542 39903 40203 6482 6481 40208
8 670 39899 39904 671 609 40204 40209 610
8 39899 39900 39905 39904 40204 40205 40210 40209
8 39900 39901 39906 39905 40205 40206 40211 40210
8 39901 39902 39907 39906 40206 40207 40212 40211
8 39902 39903 39908 39907 40207 40208 40213 40212
8 39903 6542 6541 39908 40208 6481 6480 40213
8 671 39904 39909 672 610 40209 40214 611
8 39904 39905 39910 39909 40209 40210 40215 40214
8 39905 39906 39911 39910 40210 40211 40216 40215
8 39906 39907 39912 39911 40211 40212 40217 40216
8 39907 39908 39913 39912 40212 40213 40218 40217
8 39908 6541 6540 39913 40213 6480 6479 40218
8 672 39909 39914 673 611 40214 40219 612
8 39909 39910 39915 39914 40214 40215 40220 40219
8 39910 39911 39916 39915 40215 40216 40221 40220
8 39911 39912 39917 39916 40216 40217 40222 40221
8 39912 39913 39918 39917 40217 40218 40223 40222
8 39913 6540 6539 39918 40218 6479 6478 40223
8 673 39914 39919 674 612 40219 40224 613
8 39914 39915 39920 39919 40219 40220 40225 40224
8 39915 39916 39921 39920 40220 40221 40226 40225
8 39916 39917 39922 39921 40221 40222 40227 40226
8 39917 39918 39923 39922 40222 40223 40228 40227
8 39918 6539 6538 39923 40223 6478 6477 40228
8 674 39919 39924 675 613 40224 40229 614
8 39919 39920 39925 39924 40224 40225 40230 40229
8 39920 39921 39926 39925 40225 40226 40231 40230
8 39921 39922 39927 39926 40226 40227 40232 40231
8 39922 39923 39928 39927 40227 40228 40233 40232
8 39923 6538 6537 39928 40228 6477 6476 40233
8 675 39924 12654 69 614 40229 12649 68
8 39924 39925 12655 12654 40229 40230 12650 12649
8 39925 39926 12656 12655 40230 40231 12651 12650
8 39926 39927 12657 12656 40231 40232 12652 12651
8 39927 39928 12658 12657 40232 40233 12653 12652
8 39928 6537 6226 12658 40233 6476 6227 12653
8 305 12289 39929 554 306 12294 40234 493
8 12289 12290 39930 39929 12294 12295 40235 40234
8 12290 12291 39931 39930 12295 12296 40236 40235
8 12291 12292 39932 39931 12296 12297 40237 40236
8 12292 12293 39933 39932 12297 12298 40238 40237
8 12293 5990 6536 39933 12298 5989 6475 40238
8 554 39929 39934 555 493 40234 40239 494
8 39929 39930 39935 39934 40234 40235 40240 40239
8 39930 39931 39936 39935 40235 40236 40241 40240
8 39931 39932 39937 39936 40236 40237 40242 40241
8 39932 39933 39938 39937 40237 40238 40243 40242
8 39933 6536 6535 39938 40238 6475 6474 40243
8 555 39934 39939 556 494 40239 40244 495
8 39934 39935 39940 39939 40239 40240 40245 40244
8 39935 39936 39941 39940 40240 40241 40246 40245
8 39936 39937 39942 39941 40241 40242 40247 40246
8 39937 39938 39943 39942 40242 40243 40248 40247
8 39938 6535 6534 39943 40243 6474 6473 40248
8 556 39939 39944 557 495 40244 40249 496
8 39939 39940 39945 39944 40244 40245 40250 40249
8 39940 39941 39946 39945 40245 40246 40251 40250
8 39941 39942 39947 39946 40246 40247 40252 40251
8 39942 39943 39948 39947 40247 40248 40253 40252
8 39943 6534 6533 39948 40248 6473 6472 40253
8 557 39944 39949 558 496 40249 40254 497
8 39944 39945 39950 39949 40249 40250 40255 40254
8 39945 39946 39951 39950 40250 40251 40256 40255
8 39946 39947 39952 39951 40251 40252 40257 40256
8 39947 39948 39953 39952 40252 40253 40258 40257
8 39948 6533 6532 39953 40253 6472 6471 40258
8 558 39949 39954 559 497 40254 40259 498
8 39949 39950 39955 39954 40254 40255 40260 40259
8 39950 39951 39956 39955 40255 40256 40261 40260
8 39951 39952 39957 39956 40256 40257 40262 40261
8 39952 39953 39958 39957 40257 40258 40263 40262
8 39953 6532 6531 39958 40258 6471 6470 40263
8 559 39954 39959 560 498 40259 40264 499
8 39954 39955 39960 39959 40259 40260 40265 40264
8 39955 39956 39961 39960 40260 40261 40266 40265
8 39956 39957 39962 39961 40261 40262 40267 40266
8 39957 39958 39963 39962 40262 40263 40268 40267
8 39958 6531 6530 39963 40263 6470 6469 40268
8 560 39959 39964 561 499 40264 40269 500
8 39959 39960 39965 39964 40264 40265 40270 40269
8 39960 39961 39966 39965 40265 40266 40271 40270
8 39961 39962 39967 39966 40266 40267 40272 40271
8 39962 39963 39968 39967 40267 40268 40273 40272
8 39963 6530 6529 39968 40268 6469 6468 40273
8 561 39964 39969 562 500 40269 40274 501
8 39964 39965 39970 39969 40269 40270 40275 40274
8 39965 39966 39971 39970 40270 40271 40276 40275
8 39966 39967 39972 39971 40271 40272 40277 40276
8 39967 39968 39973 39972 40272 40273 40278 40277
8 39968 6529 6528 39973 40273 6468 6467 40278
8 562 39969 39974 563 501 40274 40279 502
8 39969 39970 39975 39974 40274 40275 40280 40279
8 39970 39971 39976 39975 40275 40276 40281 40280
8 39971 39972 39977 39976 40276 40277 40282 40281
8 39972 39973 39978 39977 40277 40278 40283 40282
8 39973 6528 6527 39978 40278 6467 6466 40283
8 563 39974 39979 564 502 40279 40284 503
8 39974 39975 39980 39979 40279 40280 40285 40284
8 39975 39976 39981 39980 40280 40281 40286 40285
8 39976 39977 39982 39981 40281 40282 40287 40286
8 39977 39978 39983 39982 40282 40283 40288 40287
8 39978 6527 6526 39983 40283 6466 6465 40288
8 564 39979 39984 565 503 40284 40289 504
8 39979 39980 39985 39984 40284 40285 40290 40289
8 39980 39981 39986 39985 40285 40286 40291 40290
8 39981 39982 39987 39986 40286 40287 40292 40291
8 39982 39983 39988 39987 40287 40288 40293 40292
8 39983 6526 6525 39988 40288 6465 6464 40293
8 565 39984 39989 566 504 40289 40294 505
8 39984 39985 39990 39989 40289 40290 40295 40294
8 39985 39986 39991 39990 40290 40291 40296 40295
8 39986 39987 39992 39991 40291 40292 40297 40296
8 39987 39988 39993 39992 40292 40293 40298 40297
8 39988 6525 6524 39993 40293 6464 6463 40298
8 566 39989 39994 567 505 40294 40299 506
8 39989 39990 39995 39994 40294 40295 40300 40299
8 39990 39991 39996 39995 40295 40296 40301 40300
8 39991 39992 39997 39996 40296 40297 40302 40301
8 39992 39993 39998 39997 40297 40298 40303 40302
8 39993 6524 6523 39998 40298 6463 6462 40303
8 567 39994 39999 568 506 40299 40304 507
8 39994 39995 40000 39999 40299 40300 40305 40304
8 39995 39996 40001 40000 40300 40301 40306 40305
8 39996 39997 40002 40001 40301 40302 40307 40306
8 39997 39998 40003 40002 40302 40303 40308 40307
8 39998 6523 6522 40003 40303 6462 6461 40308
8 568 39999 40004 569 507 40304 40309 508
8 39999 40000 40005 40004 40304 40305 40310 40309
8 40000 40001 40006 40005 40305 40306 40311 40310
8 40001 40002 40007 40006 40306 40307 40312 40311
8 40002 40003 40008 40007 40307 40308 40313 40312
8 40003 6522 6521 40008 40308 6461 6460 40313
8 569 40004 40009 570 508 40309 40314 509
8 40004 40005 40010 40009 40309 40310 40315 40314
8 40005 40006 40011 40010 40310 40311 40316 40315
8 40006 40007 40012 40011 40311 40312 40317 40316
8 40007 40008 40013 40012 40312 40313 40318 40317
8 40008 6521 6520 40013 40313 6460 6459 40318
8 570 40009 40014 571 509 40314 40319 510
8 40009 40010 40015 40014 40314 40315 40320 40319
8 40010 40011 40016 40015 40315 40316 40321 40320
8 40011 40012 40017 40016 40316 40317 40322 40321
8 40012 40013 40018 40017 40317 40318 40323 40322
8 40013 6520 6519 40018 40318 6459 6458 40323
8 571 40014 40019 572 510 40319 40324 511
8 40014 40015 40020 40019 40319 40320 40325 40324
8 40015 40016 40021 40020 40320 40321 40326 40325
8 40016 40017 40022 40021 40321 40322 40327 40326
8 40017 40018 40023 40022 40322 40323 40328 40327
8 40018 6519 6518 40023 40323 6458 6457 40328
8 572 40019 40024 573 511 40324 40329 512
8 40019 40020 40025 40024 40324 40325 40330 40329
8 40020 40021 40026 40025 40325 40326 40331 40330
8 40021 40022 40027 40026 40326 40327 40332 40331
8 40022 40023 40028 40027 40327 40328 40333 40332
8 40023 6518 6517 40028 40328 6457 6456 40333
8 573 40024 40029 574 512 40329 40334 513
8 40024 40025 40030 40029 40329 40330 40335 40334
8 40025 40026 40031 40030 40330 40331 40336 40335
8 40026 40027 40032 40031 40331 40332 40337 40336
8 40027 40028 40033 40032 40332 40333 40338 40337
8 40028 6517 6516 40033 40333 6456 6455 40338
8 574 40029 40034 575 513 40334 40339 514
8 40029 40030 40035 40034 40334 40335 40340 40339
8 40030 40031 40036 40035 40335 40336 40341 40340
8 40031 40032 40037 40036 40336 40337 40342 40341
8 40032 40033 40038 40037 40337 40338 40343 40342
8 40033 6516 6515 40038 40338 6455 6454 40343
8 575 40034 40039 576 514 40339 40344 515
8 40034 40035 40040 40039 40339 40340 40345 40344
8 40035 40036 40041 40040 40340 40341 40346 40345
8 40036 40037 40042 40041 40341 40342 40347 40346
8 40037 40038 40043 40042 40342 40343 40348 40347
8 40038 6515 6514 40043 40343 6454 6453 40348
8 576 40039 40044 577 515 40344 40349 516
8 40039 40040 40045 40044 40344 40345 40350 40349
8 40040 40041 40046 40045 40345 40346 40351 40350
8 40041 40042 40047 40046 40346 40347 40352 40351
8 40042 40043 40048 40047 40347 40348 40353 40352
8 40043 6514 6513 40048 40348 6453 6452 40353
8 577 40044 40049 578 516 40349 40354 517
8 40044 40045 40050 40049 40349 40350 40355 40354
8 40045 40046 40051 40050 40350 40351 40356 40355
8 40046 40047 40052 40051 40351 40352 40357 40356
8 40047 40048 40053 40052 40352 40353 40358 40357
8 40048 6513 6512 40053 40353 6452 6451 40358
8 578 40049 40054 579 517 40354 40359 518
8 40049 40050 40055 40054 40354 40355 40360 40359
8 40050 40051 40056 40055 40355 40356 40361 40360
8 40051 40052 40057 40056 40356 40357 40362 40361
8 40052 40053 40058 40057 40357 40358 40363 40362
8 40053 6512 6511 40058 40358 6451 6450 40363
8 579 40054 40059 580 518 40359 40364 519
8 40054 40055 40060 40059 40359 40360 40365 40364
8 40055 40056 40061 40060 40360 40361 40366 40365
8 40056 40057 40062 40061 40361 40362 40367 40366
8 40057 40058 40063 40062 40362 40363 40368 40367
8 40058 6511 6510 40063 40363 6450 6449 40368
8 580 40059 40064 581 519 40364 40369 520
8 40059 40060 40065 40064 40364 40365 40370 40369
8 40060 40061 40066 40065 40365 40366 40371 40370
8 40061 40062 40067 40066 40366 40367 40372 40371
8 40062 40063 40068 40067 40367 40368 40373 40372
8 40063 6510 6509 40068 40368 6449 6448 40373
8 581 40064 40069 582 520 40369 40374 521
8 40064 40065 40070 40069 40369 40370 40375 40374
8 40065 40066 40071 40070 40370 40371 40376 40375
8 40066 40067 40072 40071 40371 40372 40377 40376
8 40067 40068 40073 40072 40372 40373 40378 40377
8 40068 6509 6508 40073 40373 6448 6447 40378
8 582 40069 40074 583 521 40374 40379 522
8 40069 40070 40075 40074 40374 40375 40380 40379
8 40070 40071 40076 40075 40375 40376 40381 40380
8 40071 40072 40077 40076 40376 40377 40382 40381
8 40072 40073 40078 40077 40377 40378 40383 40382
8 40073 6508 6507 40078 40378 6447 6446 40383
8 583 40074 40079 584 522 40379 40384 523
8 40074 40075 40080 40079 40379 40380 40385 40384
8 40075 40076 40081 40080 40380 40381 40386 40385
8 40076 40077 40082 40081 40381 40382 40387 40386
8 40077 40078 40083 40082 40382 40383 40388 40387
8 40078 6507 6506 40083 40383 6446 6445 40388
8 584 40079 40084 585 523 40384 40389 524
8 40079 40080 40085 40084 40384 40385 40390 40389
8 40080 40081 40086 40085 40385 40386 40391 40390
8 40081 40082 40087 40086 40386 40387 40392 40391
8 40082 40083 40088 40087 40387 40388 40393 40392
8 40083 6506 6505 40088 40388 6445 6444 40393
8 585 40084 40089 586 524 40389 40394 525
8 40084 40085 40090 40089 40389 40390 40395 40394
8 40085 40086 40091 40090 40390 40391 40396 40395
8 40086 40087 40092 40091 40391 40392 40397 40396
8 40087 40088 40093 40092 40392 40393 40398 40397
8 40088 6505 6504 40093 40393 6444 6443 40398
8 586 40089 40094 587 525 40394 40399 526
8 40089 40090 40095 40094 40394 40395 40400 40399
8 40090 40091 40096 40095 40395 40396 40401 40400
8 40091 40092 40097 40096 40396 40397 40402 40401
8 40092 40093 40098 40097 40397 40398 40403 40402
8 40093 6504 6503 40098 40398 6443 6442 40403
8 587 40094 40099 588 526 40399 40404 527
8 40094 40095 40100 40099 40399 40400 40405 40404
8 40095 40096 40101 40100 40400 40401 40406 40405
8 40096 40097 40102 40101 40401 40402 40407 40406
8 40097 40098 40103 40102 40402 40403 40408 40407
8 40098 6503 6502 40103 40403 6442 6441 40408
8 588 40099 40104 589 527 40404 40409 528
8 40099 40100 40105 40104 40404 40405 40410 40409
8 40100 40101 40106 40105 40405 40406 40411 40410
8 40101 40102 40107 40106 40406 40407 40412 40411
8 40102 40103 40108 40107 40407 40408 40413 40412
8 40103 6502 6501 40108 40408 6441 6440 40413
8 589 40104 40109 590 528 40409 40414 529
8 40104 40105 40110 40109 40409 40410 40415 40414
8 40105 40106 40111 40110 40410 40411 40416 40415
8 40106 40107 40112 40111 40411 40412 40417 40416
8 40107 40108 40113 40112 40412 40413 40418 40417
8 40108 6501 6500 40113 40413 6440 6439 40418
8 590 40109 40114 591 529 40414 40419 530
8 40109 40110 40115 40114 40414 40415 40420 40419
8 40110 40111 40116 40115 40415 40416 40421 40420
8 40111 40112 40117 40116 40416 40417 40422 40421
8 40112 40113 40118 40117 40417 40418 40423 40422
8 40113 6500 6499 40118 40418 6439 6438 40423
8 591 40114 40119 592 530 40419 40424 531
8 40114 40115 40120 40119 40419 40420 40425 40424
8 40115 40116 40121 40120 40420 40421 40426 40425
8 40116 40117 40122 40121 40421 40422 40427 40426
8 40117 40118 40123 40122 40422 40423 40428 40427
8 40118 6499 6498 40123 40423 6438 6437 40428
8 592 40119 40124 593 531 40424 40429 532
8 40119 40120 40125 40124 40424 40425 40430 40429
8 40120 40121 40126 40125 40425 40426 40431 40430
8 40121 40122 40127 40126 40426 40427 40432 40431
8 40122 40123 40128 40127 40427 40428 40433 40432
8 40123 6498 6497 40128 40428 6437 6436 40433
8 593 40124 40129 594 532 40429 40434 533
8 40124 40125 40130 40129 40429 40430 40435 40434
8 40125 40126 40131 40130 40430 40431 40436 40435
8 40126 40127 40132 40131 40431 40432 40437 40436
8 40127 40128 40133 40132 40432 40433 40438 40437
8 40128 6497 6496 40133 40433 6436 6435 40438
8 594 40129 40134 595 533 40434 40439 534
8 40129 40130 40135 40134 40434 40435 40440 40439
8 40130 40131 40136 40135 40435 40436 40441 40440
8 40131 40132 40137 40136 40436 40437 40442 40441
8 40132 40133 40138 40137 40437 40438 40443 40442
8 40133 6496 6495 40138 40438 6435 6434 40443
8 595 40134 40139 596 534 40439 40444 535
8 40134 40135 40140 40139 40439 40440 40445 40444
8 40135 40136 40141 40140 40440 40441 40446 40445
8 40136 40137 40142 40141 40441 40442 40447 40446
8 40137 40138 40143 40142 40442 40443 40448 40447
8 40138 6495 6494 40143 40443 6434 6433 40448
8 596 40139 40144 597 535 40444 40449 536
8 40139 40140 40145 40144 40444 40445 40450 40449
8 40140 40141 40146 40145 40445 40446 40451 40450
8 40141 40142 40147 40146 40446 40447 40452 40451
8 40142 40143 40148 40147 40447 40448 40453 40452
8 40143 6494 6493 40148 40448 6433 6432 40453
8 597 40144 40149 598 536 40449 40454 537
8 40144 40145 40150 40149 40449 40450 40455 40454
8 40145 40146 40151 40150 40450 40451 40456 40455
8 40146 40147 40152 40151 40451 40452 40457 40456
8 40147 40148 40153 40152 40452 40453 40458 40457
8 40148 6493 6492 40153 40453 6432 6431 40458
8 598 40149 40154 599 537 40454 40459 538
8 40149 40150 40155 40154 40454 40455 40460 40459
8 40150 40151 40156 40155 40455 40456 40461 40460
8 40151 40152 40157 40156 40456 40457 40462 40461
8 40152 40153 40158 40157 40457 40458 40463 40462
8 40153 6492 6491 40158 40458 6431 6430 40463
8 599 40154 40159 600 538 40459 40464 539
8 40154 40155 40160 40159 40459 40460 40465 40464
8 40155 40156 40161 40160 40460 40461 40466 40465
8 40156 40157 40162 40161 40461 40462 40467 40466
8 40157 40158 40163 40162 40462 40463 40468 40467
8 40158 6491 6490 40163 40463 6430 6429 40468
8 600 40159 40164 601 539 40464 40469 540
8 40159 40160 40165 40164 40464 40465 40470 40469
8 40160 40161 40166 40165 40465 40466 40471 40470
8 40161 40162 40167 40166 40466 40467 40472 40471
8 40162 40163 40168 40167 40467 40468 40473 40472
8 40163 6490 6489 40168 40468 6429 6428 40473
8 601 40164 40169 602 540 40469 40474 541
8 40164 40165 40170 40169 40469 40470 40475 40474
8 40165 40166 40171 40170 40470 40471 40476 40475
8 40166 40167 40172 40171 40471 40472 40477 40476
8 40167 40168 40173 40172 40472 40473 40478 40477
8 40168 6489 6488 40173 40473 6428 6427 40478
8 602 40169 40174 603 541 40474 40479 542
8 40169 40170 40175 40174 40474 40475 40480 40479
8 40170 40171 40176 40175 40475 40476 40481 40480
8 40171 40172 40177 40176 40476 40477 40482 40481
8 40172 40173 40178 40177 40477 40478 40483 40482
8 40173 6488 6487 40178 40478 6427 6426 40483
8 603 40174 40179 604 542 40479 40484 543
8 40174 40175 40180 40179 40479 40480 40485 40484
8 40175 40176 40181 40180 40480 40481 40486 40485
8 40176 40177 40182 40181 40481 40482 40487 40486
8 40177 40178 40183 40182 40482 40483 40488 40487
8 40178 6487 6486 40183 40483 6426 6425 40488
8 604 40179 40184 605 543 40484 40489 544
8 40179 40180 40185 40184 40484 40485 40490 40489
8 40180 40181 40186 40185 40485 40486 40491 40490
8 40181 40182 40187 40186 40486 40487 40492 40491
8 40182 40183 40188 40187 40487 40488 40493 40492
8 40183 6486 6485 40188 40488 6425 6424 40493
8 605 40184 40189 606 544 40489 40494 545
8 40184 40185 40190 40189 40489 40490 40495 40494
8 40185 40186 40191 40190 40490 40491 40496 40495
8 40186 40187 40192 40191 40491 40492 40497 40496
8 40187 40188 40193 40192 40492 40493 40498 40497
8 40188 6485 6484 40193 40493 6424 6423 40498
8 606 40189 40194 607 545 40494 40499 546
8 40189 40190 40195 40194 40494 40495 40500 40499
8 40190 40191 40196 40195 40495 40496 40501 40500
8 40191 40192 40197 40196 40496 40497 40502 40501
8 40192 40193 40198 40197 40497 40498 40503 40502
8 40193 6484 6483 40198 40498 6423 6422 40503
8 607 40194 40199 608 546 40499 40504 547
8 40194 40195 40200 40199 40499 40500 40505 40504
8 40195 40196 40201 40200 40500 40501 40506 40505
8 40196 40197 40202 40201 40501 40502 40507 40506
8 40197 40198 40203 40202 40502 40503 40508 40507
8 40198 6483 6482 40203 40503 6422 6421 40508
8 608 40199 40204 609 547 40504 40509 548
8 40199 40200 40205 40204 40504 40505 40510 40509
8 40200 40201 40206 40205 40505 40506 40511 40510
8 40201 40202 40207 40206 40506 40507 40512 40511
8 40202 40203 40208 40207 40507 40508 40513 40512
8 40203 6482 6481 40208 40508 6421 6420 40513
8 609 40204 40209 610 548 40509 40514 549
8 40204 40205 40210 40209 40509 40510 40515 40514
8 40205 40206 40211 40210 40510 40511 40516 40515
8 40206 40207 40212 40211 40511 40512 40517 40516
8 40207 40208 40213 40212 40512 40513 40518 40517
8 40208 6481 6480 40213 40513 6420 6419 40518
8 610 40209 40214 611 549 40514 40519 550
8 40209 40210 40215 40214 40514 40515 40520 40519
8 40210 40211 40216 40215 40515 40516 40521 40520
8 40211 40212 40217 40216 40516 40517 40522 40521
8 40212 40213 40218 40217 40517 40518 40523 40522
8 40213 6480 6479 40218 40518 6419 6418 40523
8 611 40214 40219 612 550 40519 40524 551
8 40214 40215 40220 40219 40519 40520 40525 40524
8 40215 40216 40221 40220 40520 40521 40526 40525
8 40216 40217 40222 40221 40521 40522 40527 40526
8 40217 40218 40223 40222 40522 40523 40528 40527
8 40218 6479 6478 40223 40523 6418 6417 40528
8 612 40219 40224 613 551 40524 40529 552
8 40219 40220 40225 40224 40524 40525 40530 40529
8 40220 40221 40226 40225 40525 40526 40531 40530
8 40221 40222 40227 40226 40526 40527 40532 40531
8 40222 40223 40228 40227 40527 40528 40533 40532
8 40223 6478 6477 40228 40528 6417 6416 40533
8 613 40224 40229 614 552 40529 40534 553
8 40224 40225 40230 40229 40529 40530 40535 40534
8 40225 40226 40231 40230 40530 40531 40536 40535
8 40226 40227 40232 40231 40531 40532 40537 40536
8 40227 40228 40233 40232 40532 40533 40538 40537
8 40228 6477 6476 40233 40533 6416 6415 40538
8 614 40229 12649 68 553 40534 12644 67
8 40229 40230 12650 12649 40534 40535 12645 12644
8 40230 40231 12651 12650 40535 40536 12646 12645
8 40231 40232 12652 12651 40536 40537 12647 12646
8 40232 40233 12653 12652 40537 40538 12648 12647
8 40233 6476 6227 12653 40538 6415 6228 12648
8 306 12294 40234 493 307 12299 40539 432
8 12294 12295 40235 40234 12299 12300 40540 40539
8 12295 12296 40236 40235 12300 12301 40541 40540
8 12296 12297 40237 40236 12301 12302 40542 40541
8 12297 12298 40238 40237 12302 12303 40543 40542
8 12298 5989 6475 40238 12303 5988 6414 40543
8 493 40234 40239 494 432 40539 40544 433
8 40234 40235 40240 40239 40539 40540 40545 40544
8 40235 40236 40241 40240 40540 40541 40546 40545
8 40236 40237 40242 40241 40541 40542 40547 40546
8 40237 40238 40243 40242 40542 40543 40548 40547
8 40238 6475 6474 40243 40543 6414 6413 40548
8 494 40239 40244 495 433 40544 40549 434
8 40239 40240 40245 40244 40544 40545 40550 40549
8 40240 40241 40246 40245 40545 40546 40551 40550
8 40241 40242 40247 40246 40546 40547 40552 40551
8 40242 40243 40248 40247 40547 40548 40553 40552
8 40243 6474 6473 40248 40548 6413 6412 40553
8 495 40244 40249 496 434 40549 40554 435
8 40244 40245 40250 40249 40549 40550 40555 40554
8 40245 40246 40251 40250 40550 40551 40556 40555
8 40246 40247 40252 40251 40551 40552 40557 40556
8 40247 40248 40253 40252 40552 40553 40558 40557
8 40248 6473 6472 40253 40553 6412 6411 40558
8 496 40249 40254 497 435 40554 40559 436
8 40249 40250 40255 40254 40554 40555 40560 40559
8 40250 40251 40256 40255 40555 40556 40561 40560
8 40251 40252 40257 40256 40556 40557 40562 40561
8 40252 40253 40258 40257 40557 40558 40563 40562
8 40253 6472 6471 40258 40558 6411 6410 40563
8 497 40254 40259 498 436 40559 40564 437
8 40254 40255 40260 40259 40559 40560 40565 40564
8 40255 40256 40261 40260 40560 40561 40566 40565
8 40256 40257 40262 40261 40561 40562 40567 40566
8 40257 40258 40263 40262 40562 40563 40568 40567
8 40258 6471 6470 40263 40563 6410 6409 40568
8 498 40259 40264 499 437 40564 40569 438
8 40259 40260 40265 40264 40564 40565 40570 40569
8 40260 40261 40266 40265 40565 40566 40571 40570
8 40261 40262 40267 40266 40566 40567 40572 40571
8 40262 40263 40268 40267 40567 40568 40573 40572
8 40263 6470 6469 40268 40568 6409 6408 40573
8 499 40264 40269 500 438 40569 40574 439
8 40264 40265 40270 40269 40569 40570 40575 40574
8 40265 40266 40271 40270 40570 40571 40576 40575
8 40266 40267 40272 40271 40571 40572 40577 40576
8 40267 40268 40273 40272 40572 40573 40578 40577
8 40268 6469 6468 40273 40573 6408 6407 40578
8 500 40269 40274 501 439 40574 40579 440
8 40269 40270 40275 40274 40574 40575 40580 40579
8 40270 40271 40276 40275 40575 40576 40581 40580
8 40271 40272 40277 40276 40576 40577 40582 40581
8 40272 40273 40278 40277 40577 40578 40583 40582
8 40273 6468 6467 40278 40578 6407 6406 40583
8 501 40274 40279 502 440 40579 40584 441
8 40274 40275 40280 40279 40579 40580 40585 40584
8 40275 40276 40281 40280 40580 40581 40586 40585
8 40276 40277 40282 40281 40581 40582 40587 40586
8 40277 40278 40283 40282 40582 40583 40588 40587
8 40278 6467 6466 40283 40583 6406 6405 40588
8 502 40279 40284 503 441 40584 40589 442
8 40279 40280 40285 40284 40584 40585 40590 40589
8 40280 40281 40286 40285 40585 40586 40591 40590
8 40281 40282 40287 40286 40586 40587 40592 40591
8 40282 40283 40288 40287 40587 40588 40593 40592
8 40283 6466 6465 40288 40588 6405 6404 40593
8 503 40284 40289 504 442 40589 40594 443
8 40284 40285 40290 40289 40589 40590 40595 40594
8 40285 40286 40291 40290 40590 40591 40596 40595
8 40286 40287 40292 40291 40591 40592 40597 40596
8 40287 40288 40293 40292 40592 40593 40598 40597
8 40288 6465 6464 40293 40593 6404 6403 40598
8 504 40289 40294 505 443 40594 40599 444
8 40289 40290 40295 40294 40594 40595 40600 40599
8 40290 40291 40296 40295 40595 40596 40601 40600
8 40291 40292 40297 40296 40596 40597 40602 40601
8 40292 40293 40298 40297 40597 40598 40603 40602
8 40293 6464 6463 40298 40598 6403 6402 40603
8 505 40294 40299 506 444 40599 40604 445
8 40294 40295 40300 40299 40599 40600 40605 40604
8 40295 40296 40301 40300 40600 40601 40606 40605
8 40296 40297 40302 40301 40601 40602 40607 40606
8 40297 40298 40303 40302 40602 40603 40608 40607
8 40298 6463 6462 40303 40603 6402 6401 40608
8 506 40299 40304 507 445 40604 40609 446
8 40299 40300 40305 40304 40604 40605 40610 40609
8 40300 40301 40306 40305 40605 40606 40611 40610
8 40301 40302 40307 40306 40606 40607 40612 40611
8 40302 40303 40308 40307 40607 40608 40613 40612
8 40303 6462 6461 40308 40608 6401 6400 40613
8 507 40304 40309 508 446 40609 40614 447
8 40304 40305 40310 40309 40609 40610 40615 40614
8 40305 40306 40311 40310 40610 40611 40616 40615
8 40306 40307 40312 40311 40611 40612 40617 40616
8 40307 40308 40313 40312 40612 40613 40618 40617
8 40308 6461 6460 40313 40613 6400 6399 40618
8 508 40309 40314 509 447 40614 40619 448
8 40309 40310 40315 40314 40614 40615 40620 40619
8 40310 40311 40316 40315 40615 40616 40621 40620
8 40311 40312 40317 40316 40616 40617 40622 40621
8 40312 40313 40318 40317 40617 40618 40623 40622
8 40313 6460 6459 40318 40618 6399 6398 40623
8 509 40314 40319 510 448 40619 40624 449
8 40314 40315 40320 40319 40619 40620 40625 40624
8 40315 40316 40321 40320 40620 40621 40626 40625
8 40316 40317 40322 40321 40621 40622 40627 40626
8 40317 40318 40323 40322 40622 40623 40628 40627
8 40318 6459 6458 40323 40623 6398 6397 40628
8 510 40319 40324 511 449 40624 40629 450
8 40319 40320 40325 40324 40624 40625 40630 40629
8 40320 40321 40326 40325 40625 40626 40631 40630
8 40321 40322 40327 40326 40626 40627 40632 40631
8 40322 40323 40328 40327 40627 40628 40633 40632
8 40323 6458 6457 40328 40628 6397 6396 40633
8 511 40324 40329 512 450 40629 40634 451
8 40324 40325 40330 40329 40629 40630 40635 40634
8 40325 40326 40331 40330 40630 40631 40636 40635
8 40326 40327 40332 40331 40631 40632 40637 40636
8 40327 40328 40333 40332 40632 40633 40638 40637
8 40328 6457 6456 40333 40633 6396 6395 40638
8 512 40329 40334 513 451 40634 40639 452
8 40329 40330 40335 40334 40634 40635 40640 40639
8 40330 40331 40336 40335 40635 40636 40641 40640
8 40331 40332 40337 40336 40636 40637 40642 40641
8 40332 40333 40338 40337 40637 40638 40643 40642
8 40333 6456 6455 40338 40638 6395 6394 40643
8 513 40334 40339 514 452 40639 40644 453
8 40334 40335 40340 40339 40639 40640 40645 40644
8 40335 40336 40341 40340 40640 40641 40646 40645
8 40336 40337 40342 40341 40641 40642 40647 40646
8 40337 40338 40343 40342 40642 40643 40648 40647
8 40338 6455 6454 40343 40643 6394 6393 40648
8 514 40339 40344 515 453 40644 40649 454
8 40339 40340 40345 40344 40644 40645 40650 40649
8 40340 40341 40346 40345 40645 40646 40651 40650
8 40341 40342 40347 40346 40646 40647 40652 40651
8 40342 40343 40348 40347 40647 40648 40653 40652
8 40343 6454 6453 40348 40648 6393 6392 40653
8 515 40344 40349 516 454 40649 40654 455
8 40344 40345 40350 40349 40649 40650 40655 40654
8 40345 40346 40351 40350 40650 40651 40656 40655
8 40346 40347 40352 40351 40651 40652 40657 40656
8 40347 40348 40353 40352 40652 40653 40658 40657
8 40348 6453 6452 40353 40653 6392 6391 40658
8 516 40349 40354 517 455 40654 40659 456
8 40349 40350 40355 40354 40654 40655 40660 40659
8 40350 40351 40356 40355 40655 40656 40661 40660
8 40351 40352 40357 40356 40656 40657 40662 40661
8 40352 40353 40358 40357 40657 40658 40663 40662
8 40353 6452 6451 40358 40658 6391 6390 40663
8 517 40354 40359 518 456 40659 40664 457
8 40354 40355 40360 40359 40659 40660 40665 40664
8 40355 40356 40361 40360 40660 40661 40666 40665
8 40356 40357 40362 40361 40661 40662 40667 40666
8 40357 40358 40363 40362 40662 40663 40668 40667
8 40358 6451 6450 40363 40663 6390 6389 40668
8 518 40359 40364 519 457 40664 40669 458
8 40359 40360 40365 40364 40664 40665 40670 40669
8 40360 40361 40366 40365 40665 40666 40671 40670
8 40361 40362 40367 40366 40666 40667 40672 40671
8 40362 40363 40368 40367 40667 40668 40673 40672
8 40363 6450 6449 40368 40668 6389 6388 40673
8 519 40364 40369 520 458 40669 40674 459
8 40364 40365 40370 40369 40669 40670 40675 40674
8 40365 40366 40371 40370 40670 40671 40676 40675
8 40366 40367 40372 40371 40671 40672 40677 40676
8 40367 40368 40373 40372 40672 40673 40678 40677
8 40368 6449 6448 40373 40673 6388 6387 40678
8 520 40369 40374 521 459 40674 40679 460
8 40369 40370 40375 40374 40674 40675 40680 40679
8 40370 40371 40376 40375 40675 40676 40681 40680
8 40371 40372 40377 40376 40676 40677 40682 40681
8 40372 40373 40378 40377 40677 40678 40683 40682
8 40373 6448 6447 40378 40678 6387 6386 40683
8 521 40374 40379 522 460 40679 40684 461
8 40374 40375 40380 40379 40679 40680 40685 40684
8 40375 40376 40381 40380 40680 40681 40686 40685
8 40376 40377 40382 40381 40681 40682 40687 40686
8 40377 40378 40383 40382 40682 40683 40688 40687
8 40378 6447 6446 40383 40683 6386 6385 40688
8 522 40379 40384 523 461 40684 40689 462
8 40379 40380 40385 40384 40684 40685 40690 40689
8 40380 40381 40386 40385 40685 40686 40691 40690
8 40381 40382 40387 40386 40686 40687 40692 40691
8 40382 40383 40388 40387 40687 40688 40693 40692
8 40383 6446 6445 40388 40688 6385 6384 40693
8 523 40384 40389 524 462 40689 40694 463
8 40384 40385 40390 40389 40689 40690 40695 40694
8 40385 40386 40391 40390 40690 40691 40696 40695
8 40386 40387 40392 40391 40691 40692 40697 40696
8 40387 40388 40393 40392 40692 40693 40698 40697
8 40388 6445 6444 40393 40693 6384 6383 40698
8 524 40389 40394 525 463 40694 40699 464
8 40389 40390 40395 40394 40694 40695 40700 40699
8 40390 40391 40396 40395 40695 40696 40701 40700
8 40391 40392 40397 40396 40696 40697 40702 40701
8 40392 40393 40398 40397 40697 40698 40703 40702
8 40393 6444 6443 40398 40698 6383 6382 40703
8 525 40394 40399 526 464 40699 40704 465
8 40394 40395 40400 40399 40699 40700 40705 40704
8 40395 40396 40401 40400 40700 40701 40706 40705
8 40396 40397 40402 40401 40701 40702 40707 40706
8 40397 40398 40403 40402 40702 40703 40708 40707
8 40398 6443 6442 40403 40703 6382 6381 40708
8 526 40399 40404 527 465 40704 40709 466
8 40399 40400 40405 40404 40704 40705 40710 40709
8 40400 40401 40406 40405 40705 40706 40711 40710
8 40401 40402 40407 40406 40706 40707 40712 40711
8 40402 40403 40408 40407 40707 40708 40713 40712
8 40403 6442 6441 40408 40708 6381 6380 40713
8 527 40404 40409 528 466 40709 40714 467
8 40404 40405 40410 40409 40709 40710 40715 40714
8 40405 40406 40411 40410 40710 40711 40716 40715
8 40406 40407 40412 40411 40711 40712 40717 40716
8 40407 40408 40413 40412 40712 40713 40718 40717
8 40408 6441 6440 40413 40713 6380 6379 40718
8 528 40409 40414 529 467 40714 40719 468
8 40409 40410 40415 40414 40714 40715 40720 40719
8 40410 40411 40416 40415 40715 40716 40721 40720
8 40411 40412 40417 40416 40716 40717 40722 40721
8 40412 40413 40418 40417 40717 40718 40723 40722
8 40413 6440 6439 40418 40718 6379 6378 40723
8 529 40414 40419 530 468 40719 40724 469
8 40414 40415 40420 40419 40719 40720 40725 40724
8 40415 40416 40421 40420 40720 40721 40726 40725
8 40416 40417 40422 40421 40721 40722 40727 40726
8 40417 40418 40423 40422 40722 40723 40728 40727
8 40418 6439 6438 40423 40723 6378 6377 40728
8 530 40419 40424 531 469 40724 40729 470
8 40419 40420 40425 40424 40724 40725 40730 40729
8 40420 40421 40426 40425 40725 40726 40731 40730
8 40421 40422 40427 40426 40726 40727 40732 40731
8 40422 40423 40428 40427 40727 40728 40733 40732
8 40423 6438 6437 40428 40728 6377 6376 40733
8 531 40424 40429 532 470 40729 40734 471
8 40424 40425 40430 40429 40729 40730 40735 40734
8 40425 40426 40431 40430 40730 40731 40736 40735
8 40426 40427 40432 40431 40731 40732 40737 40736
8 40427 40428 40433 40432 40732 40733 40738 40737
8 40428 6437 6436 40433 40733 6376 6375 40738
8 532 40429 40434 533 471 40734 40739 472
8 40429 40430 40435 40434 40734 40735 40740 40739
8 40430 40431 40436 40435 40735 40736 40741 40740
8 40431 40432 40437 40436 40736 40737 40742 40741
8 40432 40433 40438 40437 40737 40738 40743 40742
8 40433 6436 6435 40438 40738 6375 6374 40743
8 533 40434 40439 534 472 40739 40744 473
8 40434 40435 40440 40439 40739 40740 40745 40744
8 40435 40436 40441 40440 40740 40741 40746 40745
8 40436 40437 40442 40441 40741 40742 40747 40746
8 40437 40438 40443 40442 40742 40743 40748 40747
8 40438 6435 6434 40443 40743 6374 6373 40748
8 534 40439 40444 535 473 40744 40749 474
8 40439 40440 40445 40444 40744 40745 40750 40749
8 40440 40441 40446 40445 40745 40746 40751 40750
8 40441 40442 40447 40446 40746 40747 40752 40751
8 40442 40443 40448 40447 40747 40748 40753 40752
8 40443 6434 6433 40448 40748 6373 6372 40753
8 535 40444 40449 536 474 40749 40754 475
8 40444 40445 40450 40449 40749 40750 40755 40754
8 40445 40446 40451 40450 40750 40751 40756 40755
8 40446 40447 40452 40451 40751 40752 40757 40756
8 40447 40448 40453 40452 40752 40753 40758 40757
8 40448 6433 6432 40453 40753 6372 6371 40758
8 536 40449 40454 537 475 40754 40759 476
8 40449 40450 40455 40454 40754 40755 40760 40759
8 40450 40451 40456 40455 40755 40756 40761 40760
8 40451 40452 40457 40456 40756 40757 40762 40761
8 40452 40453 40458 40457 40757 40758 40763 40762
8 40453 6432 6431 40458 40758 6371 6370 40763
8 537 40454 40459 538 476 40759 40764 477
8 40454 40455 40460 40459 40759 40760 40765 40764
8 40455 40456 40461 40460 40760 40761 40766 40765
8 40456 40457 40462 40461 40761 40762 40767 40766
8 40457 40458 40463 40462 40762 40763 40768 40767
8 40458 6431 6430 40463 40763 6370 6369 40768
8 538 40459 40464 539 477 40764 40769 478
8 40459 40460 40465 40464 40764 40765 40770 40769
8 40460 40461 40466 40465 40765 40766 40771 40770
8 40461 40462 40467 40466 40766 40767 40772 40771
8 40462 40463 40468 40467 40767 40768 40773 40772
8 40463 6430 6429 40468 40768 6369 6368 40773
8 539 40464 40469 540 478 40769 40774 479
8 40464 40465 40470 40469 40769 40770 40775 40774
8 40465 40466 40471 40470 40770 40771 40776 40775
8 40466 40467 40472 40471 40771 40772 40777 40776
8 40467 40468 40473 40472 40772 40773 40778 40777
8 40468 6429 6428 40473 40773 6368 6367 40778
8 540 40469 40474 541 479 40774 40779 480
8 40469 40470 40475 40474 40774 40775 40780 40779
8 40470 40471 40476 40475 40775 40776 40781 40780
8 40471 40472 40477 40476 40776 40777 40782 40781
8 40472 40473 40478 40477 40777 40778 40783 40782
8 40473 6428 6427 40478 40778 6367 6366 40783
8 541 40474 40479 542 480 40779 40784 481
8 40474 40475 40480 40479 40779 40780 40785 40784
8 40475 40476 40481 40480 40780 40781 40786 40785
8 40476 40477 40482 40481 40781 40782 40787 40786
8 40477 40478 40483 40482 40782 40783 40788 40787
8 40478 6427 6426 40483 40783 6366 6365 40788
8 542 40479 40484 543 481 40784 40789 482
8 40479 40480 40485 40484 40784 40785 40790 40789
8 40480 40481 40486 40485 40785 40786 40791 40790
8 40481 40482 40487 40486 40786 40787 40792 40791
8 40482 40483 40488 40487 40787 40788 40793 40792
8 40483 6426 6425 40488 40788 6365 6364 40793
8 543 40484 40489 544 482 40789 40794 483
8 40484 40485 40490 40489 40789 40790 40795 40794
8 40485 40486 40491 40490 40790 40791 40796 40795
8 40486 40487 40492 40491 40791 40792 40797 40796
8 40487 40488 40493 40492 40792 40793 40798 40797
8 40488 6425 6424 40493 40793 6364 6363 40798
8 544 40489 40494 545 483 40794 40799 484
8 40489 40490 40495 40494 40794 40795 40800 40799
8 40490 40491 40496 40495 40795 40796 40801 40800
8 40491 40492 40497 40496 40796 40797 40802 40801
8 40492 40493 40498 40497 40797 40798 40803 40802
8 40493 6424 6423 40498 40798 6363 6362 40803
8 545 40494 40499 546 484 40799 40804 485
8 40494 40495 40500 40499 40799 40800 40805 40804
8 40495 40496 40501 40500 40800 40801 40806 40805
8 40496 40497 40502 40501 40801 40802 40807 40806
8 40497 40498 40503 40502 40802 40803 40808 40807
8 40498 6423 6422 40503 40803 6362 6361 40808
8 546 40499 40504 547 485 40804 40809 486
8 40499 40500 40505 40504 40804 40805 40810 40809
8 40500 40501 40506 40505 40805 40806 40811 40810
8 40501 40502 40507 40506 40806 40807 40812 40811
8 40502 40503 40508 40507 40807 40808 40813 40812
8 40503 6422 6421 40508 40808 6361 6360 40813
8 547 40504 40509 548 486 40809 40814 487
8 40504 40505 40510 40509 40809 40810 40815 40814
8 40505 40506 40511 40510 40810 40811 40816 40815
8 40506 40507 40512 40511 40811 40812 40817 40816
8 40507 40508 40513 40512 40812 40813 40818 40817
8 40508 6421 6420 40513 40813 6360 6359 40818
8 548 40509 40514 549 487 40814 40819 488
8 40509 40510 40515 40514 40814 40815 40820 40819
8 40510 40511 40516 40515 40815 40816 40821 40820
8 40511 40512 40517 40516 40816 40817 40822 40821
8 40512 40513 40518 40517 40817 40818 40823 40822
8 40513 6420 6419 40518 40818 6359 6358 40823
8 549 40514 40519 550 488 40819 40824 489
8 40514 40515 40520 40519 40819 40820 40825 40824
8 40515 40516 40521 40520 40820 40821 40826 40825
8 40516 40517 40522 40521 40821 40822 40827 40826
8 40517 40518 40523 40522 40822 40823 40828 40827
8 40518 6419 6418 40523 40823 6358 6357 40828
8 550 40519 40524 551 489 40824 40829 490
8 40519 40520 40525 40524 40824 40825 40830 40829
8 40520 40521 40526 40525 40825 40826 40831 40830
8 40521 40522 40527 40526 40826 40827 40832 40831
8 40522 40523 40528 40527 40827 40828 40833 40832
8 40523 6418 6417 40528 40828 6357 6356 40833
8 551 40524 40529 552 490 40829 40834 491
8 40524 40525 40530 40529 40829 40830 40835 40834
8 40525 40526 40531 40530 40830 40831 40836 40835
8 40526 40527 40532 40531 40831 40832 40837 40836
8 40527 40528 40533 40532 40832 40833 40838 40837
8 40528 6417 6416 40533 40833 6356 6355 40838
8 552 40529 40534 553 491 40834 40839 492
8 40529 40530 40535 40534 40834 40835 40840 40839
8 40530 40531 40536 40535 40835 40836 40841 40840
8 40531 40532 40537 40536 40836 40837 40842 40841
8 40532 40533 40538 40537 40837 40838 40843 40842
8 40533 6416 6415 40538 40838 6355 6354 40843
8 553 40534 12644 67 492 40839 12639 66
8 40534 40535 12645 12644 40839 40840 12640 12639
8 40535 40536 12646 12645 40840 40841 12641 12640
8 40536 40537 12647 12646 40841 40842 12642 12641
8 40537 40538 12648 12647 40842 40843 12643 12642
8 40538 6415 6228 12648 40843 6354 6229 12643
8 307 12299 40539 432 308 12304 40844 371
8 12299 12300 40540 40539 12304 12305 40845 40844
8 12300 12301 40541 40540 12305 12306 40846 40845
8 12301 12302 40542 40541 12306 12307 40847 40846
8 12302 12303 40543 40542 12307 12308 40848 40847
8 12303 5988 6414 40543 12308 5987 6353 40848
8 432 40539 40544 433 371 40844 40849 372
8 40539 40540 40545 40544 40844 40845 40850 40849
8 40540 40541 40546 40545 40845 40846 40851 40850
8 40541 40542 40547 40546 40846 40847 40852 40851
8 40542 40543 40548 40547 40847 40848 40853 40852
8 40543 6414 6413 40548 40848 6353 6352 40853
8 433 40544 40549 434 372 40849 40854 373
8 40544 40545 40550 40549 40849 40850 40855 40854
8 40545 40546 40551 40550 40850 40851 40856 40855
8 40546 40547 40552 40551 40851 40852 40857 40856
8 40547 40548 40553 40552 40852 40853 40858 40857
8 40548 6413 6412 40553 40853 6352 6351 40858
8 434 40549 40554 435 373 40854 40859 374
8 40549 40550 40555 40554 40854 40855 40860 40859
8 40550 40551 40556 40555 40855 40856 40861 40860
8 40551 40552 40557 40556 40856 40857 40862 40861
8 40552 40553 40558 40557 40857 40858 40863 40862
8 40553 6412 6411 40558 40858 6351 6350 40863
8 435 40554 40559 436 374 40859 40864 375
8 40554 40555 40560 40559 40859 40860 40865 40864
8 40555 40556 40561 40560 40860 40861 40866 40865
8 40556 40557 40562 40561 40861 40862 40867 40866
8 40557 40558 40563 40562 40862 40863 40868 40867
8 40558 6411 6410 40563 40863 6350 6349 40868
8 436 40559 40564 437 375 40864 40869 376
8 40559 40560 40565 40564 40864 40865 40870 40869
8 40560 40561 40566 40565 40865 40866 40871 40870
8 40561 40562 40567 40566 40866 40867 40872 40871
8 40562 40563 40568 40567 40867 40868 40873 40872
8 40563 6410 6409 40568 40868 6349 6348 40873
8 437 40564 40569 438 376 40869 40874 377
8 40564 40565 40570 40569 40869 40870 40875 40874
8 40565 40566 40571 40570 40870 40871 40876 40875
8 40566 40567 40572 40571 40871 40872 40877 40876
8 40567 40568 40573 40572 40872 40873 40878 40877
8 40568 6409 6408 40573 40873 6348 6347 40878
8 438 40569 40574 439 377 40874 40879 378
8 40569 40570 40575 40574 40874 40875 40880 40879
8 40570 40571 40576 40575 40875 40876 40881 40880
8 40571 40572 40577 40576 40876 40877 40882 40881
8 40572 40573 40578 40577 40877 40878 40883 40882
8 40573 6408 6407 40578 40878 6347 6346 40883
8 439 40574 40579 440 378 40879 40884 379
8 40574 40575 40580 40579 40879 40880 40885 40884
8 40575 40576 40581 40580 40880 40881 40886 40885
8 40576 40577 40582 40581 40881 40882 40887 40886
8 40577 40578 40583 40582 40882 40883 40888 40887
8 40578 6407 6406 40583 40883 6346 6345 40888
8 440 40579 40584 441 379 40884 40889 380
8 40579 40580 40585 40584 40884 40885 40890 40889
8 40580 40581 40586 40585 40885 40886 40891 40890
8 40581 40582 40587 40586 40886 40887 40892 40891
8 40582 40583 40588 40587 40887 40888 40893 40892
8 40583 6406 6405 40588 40888 6345 6344 40893
8 441 40584 40589 442 380 40889 40894 381
8 40584 40585 40590 40589 40889 40890 40895 40894
8 40585 40586 40591 40590 40890 40891 40896 40895
8 40586 40587 40592 40591 40891 40892 40897 40896
8 40587 40588 40593 40592 40892 40893 40898 40897
8 40588 6405 6404 40593 40893 6344 6343 40898
8 442 40589 40594 443 381 40894 40899 382
8 40589 40590 40595 40594 40894 40895 40900 40899
8 40590 40591 40596 40595 40895 40896 40901 40900
8 40591 40592 40597 40596 40896 40897 40902 40901
8 40592 40593 40598 40597 40897 40898 40903 40902
8 40593 6404 6403 40598 40898 6343 6342 40903
8 443 40594 40599 444 382 40899 40904 383
8 40594 40595 40600 40599 40899 40900 40905 40904
8 40595 40596 40601 40600 40900 40901 40906 40905
8 40596 40597 40602 40601 40901 40902 40907 40906
8 40597 40598 40603 40602 40902 40903 40908 40907
8 40598 6403 6402 40603 40903 6342 6341 40908
8 444 40599 40604 445 383 40904 40909 384
8 40599 40600 40605 40604 40904 40905 40910 40909
8 40600 40601 40606 40605 40905 40906 40911 40910
8 40601 40602 40607 40606 40906 40907 40912 40911
8 40602 40603 40608 40607 40907 40908 40913 40912
8 40603 6402 6401 40608 40908 6341 6340 40913
8 445 40604 40609 446 384 40909 40914 385
8 40604 40605 40610 40609 40909 40910 40915 40914
8 40605 40606 40611 40610 40910 40911 40916 40915
8 40606 40607 40612 40611 40911 40912 40917 40916
8 40607 40608 40613 40612 40912 40913 40918 40917
8 40608 6401 6400 40613 40913 6340 6339 40918
8 446 40609 40614 447 385 40914 40919 386
8 40609 40610 40615 40614 40914 40915 40920 40919
8 40610 40611 40616 40615 40915 40916 40921 40920
8 40611 40612 40617 40616 40916 40917 40922 40921
8 40612 40613 40618 40617 40917 40918 40923 40922
8 40613 6400 6399 40618 40918 6339 6338 40923
8 447 40614 40619 448 386 40919 40924 387
8 40614 40615 40620 40619 40919 40920 40925 40924
8 40615 40616 40621 40620 40920 40921 40926 40925
8 40616 40617 40622 40621 40921 40922 40927 40926
8 40617 40618 40623 40622 40922 40923 40928 40927
8 40618 6399 6398 40623 40923 6338 6337 40928
8 448 40619 40624 449 387 40924 40929 388
8 40619 40620 40625 40624 40924 40925 40930 40929
8 40620 40621 40626 40625 40925 40926 40931 40930
8 40621 40622 40627 40626 40926 40927 40932 40931
8 40622 40623 40628 40627 40927 40928 40933 40932
8 40623 6398 6397 40628 40928 6337 6336 40933
8 449 40624 40629 450 388 40929 40934 389
8 40624 40625 40630 40629 40929 40930 40935 40934
8 40625 40626 40631 40630 40930 40931 40936 40935
8 40626 40627 40632 40631 40931 40932 40937 40936
8 40627 40628 40633 40632 40932 40933 40938 40937
8 40628 6397 6396 40633 40933 6336 6335 40938
8 450 40629 40634 451 389 40934 40939 390
8 40629 40630 40635 40634 40934 40935 40940 40939
8 40630 40631 40636 40635 40935 40936 40941 40940
8 40631 40632 40637 40636 40936 40937 40942 40941
8 40632 40633 40638 40637 40937 40938 40943 40942
8 40633 6396 6395 40638 40938 6335 6334 40943
8 451 40634 40639 452 390 40939 40944 391
8 40634 40635 40640 40639 40939 40940 40945 40944
8 40635 40636 40641 40640 40940 40941 40946 40945
8 40636 40637 40642 40641 40941 40942 40947 40946
8 40637 40638 40643 40642 40942 40943 40948 40947
8 40638 6395 6394 40643 40943 6334 6333 40948
8 452 40639 40644 453 391 40944 40949 392
8 40639 40640 40645 40644 40944 40945 40950 40949
8 40640 40641 40646 40645 40945 40946 40951 40950
8 40641 40642 40647 40646 40946 40947 40952 40951
8 40642 40643 40648 40647 40947 40948 40953 40952
8 40643 6394 6393 40648 40948 6333 6332 40953
8 453 40644 40649 454 392 40949 40954 393
8 40644 40645 40650 40649 40949 40950 40955 40954
8 40645 40646 40651 40650 40950 40951 40956 40955
8 40646 40647 40652 40651 40951 40952 40957 40956
8 40647 40648 40653 40652 40952 40953 40958 40957
8 40648 6393 6392 40653 40953 6332 6331 40958
8 454 40649 40654 455 393 40954 40959 394
8 40649 40650 40655 40654 40954 40955 40960 40959
8 40650 40651 40656 40655 40955 40956 40961 40960
8 40651 40652 40657 40656 40956 40957 40962 40961
8 40652 40653 40658 40657 40957 40958 40963 40962
8 40653 6392 6391 40658 40958 6331 6330 40963
8 455 40654 40659 456 394 40959 40964 395
8 40654 40655 40660 40659 40959 40960 40965 40964
8 40655 40656 40661 40660 40960 40961 40966 40965
8 40656 40657 40662 40661 40961 40962 40967 40966
8 40657 40658 40663 40662 40962 40963 40968 40967
8 40658 6391 6390 40663 40963 6330 6329 40968
8 456 40659 40664 457 395 40964 40969 396
8 40659 40660 40665 40664 40964 40965 40970 40969
8 40660 40661 40666 40665 40965 40966 40971 40970
8 40661 40662 40667 40666 40966 40967 40972 40971
8 40662 40663 40668 40667 40967 40968 40973 40972
8 40663 6390 6389 40668 40968 6329 6328 40973
8 457 40664 40669 458 396 40969 40974 397
8 40664 40665 40670 40669 40969 40970 40975 40974
8 40665 40666 40671 40670 40970 40971 40976 40975
8 40666 40667 40672 40671 40971 40972 40977 40976
8 40667 40668 40673 40672 40972 40973 40978 40977
8 40668 6389 6388 40673 40973 6328 6327 40978
8 458 40669 40674 459 397 40974 40979 398
8 40669 40670 40675 40674 40974 40975 40980 40979
8 40670 40671 40676 40675 40975 40976 40981 40980
8 40671 40672 40677 40676 40976 40977 40982 40981
8 40672 40673 40678 40677 40977 40978 40983 40982
8 40673 6388 6387 40678 40978 6327 6326 40983
8 459 40674 40679 460 398 40979 40984 399
8 40674 40675 40680 40679 40979 40980 40985 40984
8 40675 40676 40681 40680 40980 40981 40986 40985
8 40676 40677 40682 40681 40981 40982 40987 40986
8 40677 40678 40683 40682 40982 40983 40988 40987
8 40678 6387 6386 40683 40983 6326 6325 40988
8 460 40679 40684 461 399 40984 40989 400
8 40679 40680 40685 40684 40984 40985 40990 40989
8 40680 40681 40686 40685 40985 40986 40991 40990
8 40681 40682 40687 40686 40986 40987 40992 40991
8 40682 40683 40688 40687 40987 40988 40993 40992
8 40683 6386 6385 40688 40988 6325 6324 40993
8 461 40684 40689 462 400 40989 40994 401
8 40684 40685 40690 40689 40989 40990 40995 40994
8 40685 40686 40691 40690 40990 40991 40996 40995
8 40686 40687 40692 40691 40991 40992 40997 40996
8 40687 40688 40693 40692 40992 40993 40998 40997
8 40688 6385 6384 40693 40993 6324 6323 40998
8 462 40689 40694 463 401 40994 40999 402
8 40689 40690 40695 40694 40994 40995 41000 40999
8 40690 40691 40696 40695 40995 40996 41001 41000
8 40691 40692 40697 40696 40996 40997 41002 41001
8 40692 40693 40698 40697 40997 40998 41003 41002
8 40693 6384 6383 40698 40998 6323 6322 41003
8 463 40694 40699 464 402 40999 41004 403
8 40694 40695 40700 40699 40999 41000 41005 41004
8 40695 40696 40701 40700 41000 41001 41006 41005
8 40696 40697 40702 40701 41001 41002 41007 41006
8 40697 40698 40703 40702 41002 41003 41008 41007
8 40698 6383 6382 40703 41003 6322 6321 41008
8 464 40699 40704 465 403 41004 41009 404
8 40699 40700 40705 40704 41004 41005 41010 41009
8 40700 40701 40706 40705 41005 41006 41011 41010
8 40701 40702 40707 40706 41006 41007 41012 41011
8 40702 40703 40708 40707 41007 41008 41013 41012
8 40703 6382 6381 40708 41008 6321 6320 41013
8 465 40704 40709 466 404 41009 41014 405
8 40704 40705 40710 40709 41009 41010 41015 41014
8 40705 40706 40711 40710 41010 41011 41016 41015
8 40706 40707 40712 40711 41011 41012 41017 41016
8 40707 40708 40713 40712 41012 41013 41018 41017
8 40708 6381 6380 40713 41013 6320 6319 41018
8 466 40709 40714 467 405 41014 41019 406
8 40709 40710 40715 40714 41014 41015 41020 41019
8 40710 40711 40716 40715 41015 41016 41021 41020
8 40711 40712 40717 40716 41016 41017 41022 41021
8 40712 40713 40718 40717 41017 41018 41023 41022
8 40713 6380 6379 40718 41018 6319 6318 41023
8 467 40714 40719 468 406 41019 41024 407
8 40714 40715 40720 40719 41019 41020 41025 41024
8 40715 40716 40721 40720 41020 41021 41026 41025
8 40716 40717 40722 40721 41021 41022 41027 41026
8 40717 40718 40723 40722 41022 41023 41028 41027
8 40718 6379 6378 40723 41023 6318 6317 41028
8 468 40719 40724 469 407 41024 41029 408
8 40719 40720 40725 40724 41024 41025 41030 41029
8 40720 40721 40726 40725 41025 41026 41031 41030
8 40721 40722 40727 40726 41026 41027 41032 41031
8 40722 40723 40728 40727 41027 41028 41033 41032
8 40723 6378 6377 40728 41028 6317 6316 41033
8 469 40724 40729 470 408 41029 41034 409
8 40724 40725 40730 40729 41029 41030 41035 41034
8 40725 40726 40731 40730 41030 41031 41036 41035
8 40726 40727 40732 40731 41031 41032 41037 41036
8 40727 40728 40733 40732 41032 41033 41038 41037
8 40728 6377 6376 40733 41033 6316 6315 41038
8 470 40729 40734 471 409 41034 41039 410
8 40729 40730 40735 40734 41034 41035 41040 41039
8 40730 40731 40736 40735 41035 41036 41041 41040
8 40731 40732 40737 40736 41036 41037 41042 41041
8 40732 40733 40738 40737 41037 41038 41043 41042
8 40733 6376 6375 40738 41038 6315 6314 41043
8 471 40734 40739 472 410 41039 41044 411
8 40734 40735 40740 40739 41039 41040 41045 41044
8 40735 40736 40741 40740 41040 41041 41046 41045
8 40736 40737 40742 40741 41041 41042 41047 41046
8 40737 40738 40743 40742 41042 41043 41048 41047
8 40738 6375 6374 40743 41043 6314 6313 41048
8 472 40739 40744 473 411 41044 41049 412
8 40739 40740 40745 40744 41044 41045 41050 41049
8 40740 40741 40746 40745 41045 41046 41051 41050
8 40741 40742 40747 40746 41046 41047 41052 41051
8 40742 40743 40748 40747 41047 41048 41053 41052
8 40743 6374 6373 40748 41048 6313 6312 41053
8 473 40744 40749 474 412 41049 41054 413
8 40744 40745 40750 40749 41049 41050 41055 41054
8 40745 40746 40751 40750 41050 41051 41056 41055
8 40746 40747 40752 40751 41051 41052 41057 41056
8 40747 40748 40753 40752 41052 41053 41058 41057
8 40748 6373 6372 40753 41053 6312 6311 41058
8 474 40749 40754 475 413 41054 41059 414
8 40749 40750 40755 40754 41054 41055 41060 41059
8 40750 40751 40756 40755 41055 41056 41061 41060
8 40751 40752 40757 40756 41056 41057 41062 41061
8 40752 40753 40758 40757 41057 41058 41063 41062
8 40753 6372 6371 40758 41058 6311 6310 41063
8 475 40754 40759 476 414 41059 41064 415
8 40754 40755 40760 40759 41059 41060 41065 41064
8 40755 40756 40761 40760 41060 41061 41066 41065
8 40756 40757 40762 40761 41061 41062 41067 41066
8 40757 40758 40763 40762 41062 41063 41068 41067
8 40758 6371 6370 40763 41063 6310 6309 41068
8 476 40759 40764 477 415 41064 41069 416
8 40759 40760 40765 40764 41064 41065 41070 41069
8 40760 40761 40766 40765 41065 41066 41071 41070
8 40761 40762 40767 40766 41066 41067 41072 41071
8 40762 40763 40768 40767 41067 41068 41073 41072
8 40763 6370 6369 40768 41068 6309 6308 41073
8 477 40764 40769 478 416 41069 41074 417
8 40764 40765 40770 40769 41069 41070 41075 41074
8 40765 40766 40771 40770 41070 41071 41076 41075
8 40766 40767 40772 40771 41071 41072 41077 41076
8 40767 40768 40773 40772 41072 41073 41078 41077
8 40768 6369 6368 40773 41073 6308 6307 41078
8 478 40769 40774 479 417 41074 41079 418
8 40769 40770 40775 40774 41074 41075 41080 41079
8 40770 40771 40776 40775 41075 41076 41081 41080
8 40771 40772 40777 40776 41076 41077 41082 41081
8 40772 40773 40778 40777 41077 41078 41083 41082
8 40773 6368 6367 40778 41078 6307 6306 41083
8 479 40774 40779 480 418 41079 41084 419
8 40774 40775 40780 40779 41079 41080 41085 41084
8 40775 40776 40781 40780 41080 41081 41086 41085
8 40776 40777 40782 40781 41081 41082 41087 41086
8 40777 40778 40783 40782 41082 41083 41088 41087
8 40778 6367 6366 40783 41083 6306 6305 41088
8 480 40779 40784 481 419 41084 41089 420
8 40779 40780 40785 40784 41084 41085 41090 41089
8 40780 40781 40786 40785 41085 41086 41091 41090
8 40781 40782 40787 40786 41086 41087 41092 41091
8 40782 40783 40788 40787 41087 41088 41093 41092
8 40783 6366 6365 40788 41088 6305 6304 41093
8 481 40784 40789 482 420 41089 41094 421
8 40784 40785 40790 40789 41089 41090 41095 41094
8 40785 40786 40791 40790 41090 41091 41096 41095
8 40786 40787 40792 40791 41091 41092 41097 41096
8 40787 40788 40793 40792 41092 41093 41098 41097
8 40788 6365 6364 40793 41093 6304 6303 41098
8 482 40789 40794 483 421 41094 41099 422
8 40789 40790 40795 40794 41094 41095 41100 41099
8 40790 40791 40796 40795 41095 41096 41101 41100
8 40791 40792 40797 40796 41096 41097 41102 41101
8 40792 40793 40798 40797 41097 41098 41103 41102
8 40793 6364 6363 40798 41098 6303 6302 41103
8 483 40794 40799 484 422 41099 41104 423
8 40794 40795 40800 40799 41099 41100 41105 41104
8 40795 40796 40801 40800 41100 41101 41106 41105
8 40796 40797 40802 40801 41101 41102 41107 41106
8 40797 40798 40803 40802 41102 41103 41108 41107
8 40798 6363 6362 40803 41103 6302 6301 41108
8 484 40799 40804 485 423 41104 41109 424
8 40799 40800 40805 40804 41104 41105 41110 41109
8 40800 40801 40806 40805 41105 41106 41111 41110
8 40801 40802 40807 40806 41106 41107 41112 41111
8 40802 40803 40808 40807 41107 41108 41113 41112
8 40803 6362 6361 40808 41108 6301 6300 41113
8 485 40804 40809 486 424 41109 41114 425
8 40804 40805 40810 40809 41109 41110 41115 41114
8 40805 40806 40811 40810 41110 41111 41116 41115
8 40806 40807 40812 40811 41111 41112 41117 41116
8 40807 40808 40813 40812 41112 41113 41118 41117
8 40808 6361 6360 40813 41113 6300 6299 41118
8 486 40809 40814 487 425 41114 41119 426
8 40809 40810 40815 40814 41114 41115 41120 41119
8 40810 40811 40816 40815 41115 41116 41121 41120
8 40811 40812 40817 40816 41116 41117 41122 41121
8 40812 40813 40818 40817 41117 41118 41123 41122
8 40813 6360 6359 40818 41118 6299 6298 41123
8 487 40814 40819 488 426 41119 41124 427
8 40814 40815 40820 40819 41119 41120 41125 41124
8 40815 40816 40821 40820 41120 41121 41126 41125
8 40816 40817 40822 40821 41121 41122 41127 41126
8 40817 40818 40823 40822 41122 41123 41128 41127
8 40818 6359 6358 40823 41123 6298 6297 41128
8 488 40819 40824 489 427 41124 41129 428
8 40819 40820 40825 40824 41124 41125 41130 41129
8 40820 40821 40826 40825 41125 41126 41131 41130
8 40821 40822 40827 40826 41126 41127 41132 41131
8 40822 40823 40828 40827 41127 41128 41133 41132
8 40823 6358 6357 40828 41128 6297 6296 41133
8 489 40824 40829 490 428 41129 41134 429
8 40824 40825 40830 40829 41129 41130 41135 41134
8 40825 40826 40831 40830 41130 41131 41136 41135
8 40826 40827 40832 40831 41131 41132 41137 41136
8 40827 40828 40833 40832 41132 41133 41138 41137
8 40828 6357 6356 40833 41133 6296 6295 41138
8 490 40829 40834 491 429 41134 41139 430
8 40829 40830 40835 40834 41134 41135 41140 41139
8 40830 40831 40836 40835 41135 41136 41141 41140
8 40831 40832 40837 40836 41136 41137 41142 41141
8 40832 40833 40838 40837 41137 41138 41143 41142
8 40833 6356 6355 40838 41138 6295 6294 41143
8 491 40834 40839 492 430 41139 41144 431
8 40834 40835 40840 40839 41139 41140 41145 41144
8 40835 40836 40841 40840 41140 41141 41146 41145
8 40836 40837 40842 40841 41141 41142 41147 41146
8 40837 40838 40843 40842 41142 41143 41148 41147
8 40838 6355 6354 40843 41143 6294 6293 41148
8 492 40839 12639 66 431 41144 12634 65
8 40839 40840 12640 12639 41144 41145 12635 12634
8 40840 40841 12641 12640 41145 41146 12636 12635
8 40841 40842 12642 12641 41146 41147 12637 12636
8 40842 40843 12643 12642 41147 41148 12638 12637
8 40843 6354 6229 12643 41148 6293 6230 12638
8 308 12304 40844 371 309 12309 41149 310
8 12304 12305 40845 40844 12309 12310 41150 41149
8 12305 12306 40846 40845 12310 12311 41151 41150
8 12306 12307 40847 40846 12311 12312 41152 41151
8 12307 12308 40848 40847 12312 12313 41153 41152
8 12308 5987 6353 40848 12313 5986 6292 41153
8 371 40844 40849 372 310 41149 41154 311
8 40844 40845 40850 40849 41149 41150 41155 41154
8 40845 40846 40851 40850 41150 41151 41156 41155
8 40846 40847 40852 40851 41151 41152 41157 41156
8 40847 40848 40853 40852 41152 41153 41158 41157
8 40848 6353 6352 40853 41153 6292 6291 41158
8 372 40849 40854 373 311 41154 41159 312
8 40849 40850 40855 40854 41154 41155 41160 41159
8 40850 40851 40856 40855 41155 41156 41161 41160
8 40851 40852 40857 40856 41156 41157 41162 41161
8 40852 40853 40858 40857 41157 41158 41163 41162
8 40853 6352 6351 40858 41158 6291 6290 41163
8 373 40854 40859 374 312 41159 41164 313
8 40854 40855 40860 40859 41159 41160 41165 41164
8 40855 40856 40861 40860 41160 41161 41166 41165
8 40856 40857 40862 40861 41161 41162 41167 41166
8 40857 40858 40863 40862 41162 41163 41168 41167
8 40858 6351 6350 40863 41163 6290 6289 41168
8 374 40859 40864 375 313 41164 41169 314
8 40859 40860 40865 40864 41164 41165 41170 41169
8 40860 40861 40866 40865 41165 41166 41171 41170
8 40861 40862 40867 40866 41166 41167 41172 41171
8 40862 40863 40868 40867 41167 41168 41173 41172
8 40863 6350 6349 40868 41168 6289 6288 41173
8 375 40864 40869 376 314 41169 41174 315
8 40864 40865 40870 40869 41169 41170 41175 41174
8 40865 40866 40871 40870 41170 41171 41176 41175
8 40866 40867 40872 40871 41171 41172 41177 41176
8 40867 40868 40873 40872 41172 41173 41178 41177
8 40868 6349 6348 40873 41173 6288 6287 41178
8 376 40869 40874 377 315 41174 41179 316
8 40869 40870 40875 40874 41174 41175 41180 41179
8 40870 40871 40876 40875 41175 41176 41181 41180
8 40871 40872 40877 40876 41176 41177 41182 41181
8 40872 40873 40878 40877 41177 41178 41183 41182
8 40873 6348 6347 40878 41178 6287 6286 41183
8 377 40874 40879 378 316 41179 41184 317
8 40874 40875 40880 40879 41179 41180 41185 41184
8 40875 40876 40881 40880 41180 41181 41186 41185
8 40876 40877 40882 40881 41181 41182 41187 41186
8 40877 40878 40883 40882 41182 41183 41188 41187
8 40878 6347 6346 40883 41183 6286 6285 41188
8 378 40879 40884 379 317 41184 41189 318
8 40879 40880 40885 40884 41184 41185 41190 41189
8 40880 40881 40886 40885 41185 41186 41191 41190
8 40881 40882 40887 40886 41186 41187 41192 41191
8 40882 40883 40888 40887 41187 41188 41193 41192
8 40883 6346 6345 40888 41188 6285 6284 41193
8 379 40884 40889 380 318 41189 41194 319
8 40884 40885 40890 40889 41189 41190 41195 41194
8 40885 40886 40891 40890 41190 41191 41196 41195
8 40886 40887 40892 40891 41191 41192 41197 41196
8 40887 40888 40893 40892 41192 41193 41198 41197
8 40888 6345 6344 40893 41193 6284 6283 41198
8 380 40889 40894 381 319 41194 41199 320
8 40889 40890 40895 40894 41194 41195 41200 41199
8 40890 40891 40896 40895 41195 41196 41201 41200
8 40891 40892 40897 40896 41196 41197 41202 41201
8 40892 40893 40898 40897 41197 41198 41203 41202
8 40893 6344 6343 40898 41198 6283 6282 41203
8 381 40894 40899 382 320 41199 41204 321
8 40894 40895 40900 40899 41199 41200 41205 41204
8 40895 40896 40901 40900 41200 41201 41206 41205
8 40896 40897 40902 40901 41201 41202 41207 41206
8 40897 40898 40903 40902 41202 41203 41208 41207
8 40898 6343 6342 40903 41203 6282 6281 41208
8 382 40899 40904 383 321 41204 41209 322
8 40899 40900 40905 40904 41204 41205 41210 41209
8 40900 40901 40906 40905 41205 41206 41211 41210
8 40901 40902 40907 40906 41206 41207 41212 41211
8 40902 40903 40908 40907 41207 41208 41213 41212
8 40903 6342 6341 40908 41208 6281 6280 41213
8 383 40904 40909 384 322 41209 41214 323
8 40904 40905 40910 40909 41209 41210 41215 41214
8 40905 40906 40911 40910 41210 41211 41216 41215
8 40906 40907 40912 40911 41211 41212 41217 41216
8 40907 40908 40913 40912 41212 41213 41218 41217
8 40908 6341 6340 40913 41213 6280 6279 41218
8 384 40909 40914 385 323 41214 41219 324
8 40909 40910 40915 40914 41214 41215 41220 41219
8 40910 40911 40916 40915 41215 41216 41221 41220
8 40911 40912 40917 40916 41216 41217 41222 41221
8 40912 40913 40918 40917 41217 41218 41223 41222
8 40913 6340 6339 40918 41218 6279 6278 41223
8 385 40914 40919 386 324 41219 41224 325
8 40914 40915 40920 40919 41219 41220 41225 41224
8 40915 40916 40921 40920 41220 41221 41226 41225
8 40916 40917 40922 40921 41221 41222 41227 41226
8 40917 40918 40923 40922 41222 41223 41228 41227
8 40918 6339 6338 40923 41223 6278 6277 41228
8 386 40919 40924 387 325 41224 41229 326
8 40919 40920 40925 40924 41224 41225 41230 41229
8 40920 40921 40926 40925 41225 41226 41231 41230
8 40921 40922 40927 40926 41226 41227 41232 41231
8 40922 40923 40928 40927 41227 41228 41233 41232
8 40923 6338 6337 40928 41228 6277 6276 41233
8 387 40924 40929 388 326 41229 41234 327
8 40924 40925 40930 40929 41229 41230 41235 41234
8 40925 40926 40931 40930 41230 41231 41236 41235
8 40926 40927 40932 40931 41231 41232 41237 41236
8 40927 40928 40933 40932 41232 41233 41238 41237
8 40928 6337 6336 40933 41233 6276 6275 41238
8 388 40929 40934 389 327 41234 41239 328
8 40929 40930 40935 40934 41234 41235 41240 41239
8 40930 40931 40936 40935 41235 41236 41241 41240
8 40931 40932 40937 40936 41236 41237 41242 41241
8 40932 40933 40938 40937 41237 41238 41243 41242
8 40933 6336 6335 40938 41238 6275 6274 41243
8 389 40934 40939 390 328 41239 41244 329
8 40934 40935 40940 40939 41239 41240 41245 41244
8 40935 40936 40941 40940 41240 41241 41246 41245
8 40936 40937 40942 40941 41241 41242 41247 41246
8 40937 40938 40943 40942 41242 41243 41248 41247
8 40938 6335 6334 40943 41243 6274 6273 41248
8 390 40939 40944 391 329 41244 41249 330
8 40939 40940 40945 40944 41244 41245 41250 41249
8 40940 40941 40946 40945 41245 41246 41251 41250
8 40941 40942 40947 40946 41246 41247 41252 41251
8 40942 40943 40948 40947 41247 41248 41253 41252
8 40943 6334 6333 40948 41248 6273 6272 41253
8 391 40944 40949 392 330 41249 41254 331
8 40944 40945 40950 40949 41249 41250 41255 41254
8 40945 40946 40951 40950 41250 41251 41256 41255
8 40946 40947 40952 40951 41251 41252 41257 41256
8 40947 40948 40953 40952 41252 41253 41258 41257
8 40948 6333 6332 40953 41253 6272 6271 41258
8 392 40949 40954 393 331 41254 41259 332
8 40949 40950 40955 40954 41254 41255 41260 41259
8 40950 40951 40956 40955 41255 41256 41261 41260
8 40951 40952 40957 40956 41256 41257 41262 41261
8 40952 40953 40958 40957 41257 41258 41263 41262
8 40953 6332 6331 40958 41258 6271 6270 41263
8 393 40954 40959 394 332 41259 41264 333
8 40954 40955 40960 40959 41259 41260 41265 41264
8 40955 40956 40961 40960 41260 41261 41266 41265
8 40956 40957 40962 40961 41261 41262 41267 41266
8 40957 40958 40963 40962 41262 41263 41268 41267
8 40958 6331 6330 40963 41263 6270 6269 41268
8 394 40959 40964 395 333 41264 41269 334
8 40959 40960 40965 40964 41264 41265 41270 41269
8 40960 40961 40966 40965 41265 41266 41271 41270
8 40961 40962 40967 40966 41266 41267 41272 41271
8 40962 40963 40968 40967 41267 41268 41273 41272
8 40963 6330 6329 40968 41268 6269 6268 41273
8 395 40964 40969 396 334 41269 41274 335
8 40964 40965 40970 40969 41269 41270 41275 41274
8 40965 40966 40971 40970 41270 41271 41276 41275
8 40966 40967 40972 40971 41271 41272 41277 41276
8 40967 40968 40973 40972 41272 41273 41278 41277
8 40968 6329 6328 40973 41273 6268 6267 41278
8 396 40969 40974 397 335 41274 41279 336
8 40969 40970 40975 40974 41274 41275 41280 41279
8 40970 40971 40976 40975 41275 41276 41281 41280
8 40971 40972 40977 40976 41276 41277 41282 41281
8 40972 40973 40978 40977 41277 41278 41283 41282
8 40973 6328 6327 40978 41278 6267 6266 41283
8 397 40974 40979 398 336 41279 41284 337
8 40974 40975 40980 40979 41279 41280 41285 41284
8 40975 40976 40981 40980 41280 41281 41286 41285
8 40976 40977 40982 40981 41281 41282 41287 41286
8 40977 40978 40983 40982 41282 41283 41288 41287
8 40978 6327 6326 40983 41283 6266 6265 41288
8 398 40979 40984 399 337 41284 41289 338
8 40979 40980 40985 40984 41284 41285 41290 41289
8 40980 40981 40986 40985 41285 41286 41291 41290
8 40981 40982 40987 40986 41286 41287 41292 41291
8 40982 40983 40988 40987 41287 41288 41293 41292
8 40983 6326 6325 40988 41288 6265 6264 41293
8 399 40984 40989 400 338 41289 41294 339
8 40984 40985 40990 40989 41289 41290 41295 41294
8 40985 40986 40991 40990 41290 41291 41296 41295
8 40986 40987 40992 40991 41291 41292 41297 41296
8 40987 40988 40993 40992 41292 41293 41298 41297
8 40988 6325 6324 40993 41293 6264 6263 41298
8 400 40989 40994 401 339 41294 41299 340
8 40989 40990 40995 40994 41294 41295 41300 41299
8 40990 40991 40996 40995 41295 41296 41301 41300
8 40991 40992 40997 40996 41296 41297 41302 41301
8 40992 40993 40998 40997 41297 41298 41303 41302
8 40993 6324 6323 40998 41298 6263 6262 41303
8 401 40994 40999 402 340 41299 41304 341
8 40994 40995 41000 40999 41299 41300 41305 41304
8 40995 40996 41001 41000 41300 41301 41306 41305
8 40996 40997 41002 41001 41301 41302 41307 41306
8 40997 40998 41003 41002 41302 41303 41308 41307
8 40998 6323 6322 41003 41303 6262 6261 41308
8 402 40999 41004 403 341 41304 41309 342
8 40999 41000 41005 41004 41304 41305 41310 41309
8 41000 41001 41006 41005 41305 41306 41311 41310
8 41001 41002 41007 41006 41306 41307 41312 41311
8 41002 41003 41008 41007 41307 41308 41313 41312
8 41003 6322 6321 41008 41308 6261 6260 41313
8 403 41004 41009 404 342 41309 41314 343
8 41004 41005 41010 41009 41309 41310 41315 41314
8 41005 41006 41011 41010 41310 41311 41316 41315
8 41006 41007 41012 41011 41311 41312 41317 41316
8 41007 41008 41013 41012 41312 41313 41318 41317
8 41008 6321 6320 41013 41313 6260 6259 41318
8 404 41009 41014 405 343 41314 41319 344
8 41009 41010 41015 41014 41314 41315 41320 41319
8 41010 41011 41016 41015 41315 41316 41321 41320
8 41011 41012 41017 41016 41316 41317 41322 41321
8 41012 41013 41018 41017 41317 41318 41323 41322
8 41013 6320 6319 41018 41318 6259 6258 41323
8 405 41014 41019 406 344 41319 41324 345
8 41014 41015 41020 41019 41319 41320 41325 41324
8 41015 41016 41021 41020 41320 41321 41326 41325
8 41016 41017 41022 41021 41321 41322 41327 41326
8 41017 41018 41023 41022 41322 41323 41328 41327
8 41018 6319 6318 41023 41323 6258 6257 41328
8 406 41019 41024 407 345 41324 41329 346
8 41019 41020 41025 41024 41324 41325 41330 41329
8 41020 41021 41026 41025 41325 41326 41331 41330
8 41021 41022 41027 41026 41326 41327 41332 41331
8 41022 41023 41028 41027 41327 41328 41333 41332
8 41023 6318 6317 41028 41328 6257 6256 41333
8 407 41024 41029 408 346 41329 41334 347
8 41024 41025 41030 41029 41329 41330 41335 41334
8 41025 41026 41031 41030 41330 41331 41336 41335
8 41026 41027 41032 41031 41331 41332 41337 41336
8 41027 41028 41033 41032 41332 41333 41338 41337
8 41028 6317 6316 41033 41333 6256 6255 41338
8 408 41029 41034 409 347 41334 41339 348
8 41029 41030 41035 41034 41334 41335 41340 41339
8 41030 41031 41036 41035 41335 41336 41341 41340
8 41031 41032 41037 41036 41336 41337 41342 41341
8 41032 41033 41038 41037 41337 41338 41343 41342
8 41033 6316 6315 41038 41338 6255 6254 41343
8 409 41034 41039 410 348 41339 41344 349
8 41034 41035 41040 41039 41339 41340 41345 41344
8 41035 41036 41041 41040 41340 41341 41346 41345
8 41036 41037 41042 41041 41341 41342 41347 41346
8 41037 41038 41043 41042 41342 41343 41348 41347
8 41038 6315 6314 41043 41343 6254 6253 41348
8 410 41039 41044 411 349 41344 41349 350
8 41039 41040 41045 41044 41344 41345 41350 41349
8 41040 41041 41046 41045 41345 41346 41351 41350
8 41041 41042 41047 41046 41346 41347 41352 41351
8 41042 41043 41048 41047 41347 41348 41353 41352
8 41043 6314 6313 41048 41348 6253 6252 41353
8 411 41044 41049 412 350 41349 41354 351
8 41044 41045 41050 41049 41349 41350 41355 41354
8 41045 41046 41051 41050 41350 41351 41356 41355
8 41046 41047 41052 41051 41351 41352 41357 41356
8 41047 41048 41053 41052 41352 41353 41358 41357
8 41048 6313 6312 41053 41353 6252 6251 41358
8 412 41049 41054 413 351 41354 41359 352
8 41049 41050 41055 41054 41354 41355 41360 41359
8 41050 41051 41056 41055 41355 41356 41361 41360
8 41051 41052 41057 41056 41356 41357 41362 41361
8 41052 41053 41058 41057 41357 41358 41363 41362
8 41053 6312 6311 41058 41358 6251 6250 41363
8 413 41054 41059 414 352 41359 41364 353
8 41054 41055 41060 41059 41359 41360 41365 41364
8 41055 41056 41061 41060 41360 41361 41366 41365
8 41056 41057 41062 41061 41361 41362 41367 41366
8 41057 41058 41063 41062 41362 41363 41368 41367
8 41058 6311 6310 41063 41363 6250 6249 41368
8 414 41059 41064 415 353 41364 41369 354
8 41059 41060 41065 41064 41364 41365 41370 41369
8 41060 41061 41066 41065 41365 41366 41371 41370
8 41061 41062 41067 41066 41366 41367 41372 41371
8 41062 41063 41068 41067 41367 41368 41373 41372
8 41063 6310 6309 41068 41368 6249 6248 41373
8 415 41064 41069 416 354 41369 41374 355
8 41064 41065 41070 41069 41369 41370 41375 41374
8 41065 41066 41071 41070 41370 41371 41376 41375
8 41066 41067 41072 41071 41371 41372 41377 41376
8 41067 41068 41073 41072 41372 41373 41378 41377
8 41068 6309 6308 41073 41373 6248 6247 41378
8 416 41069 41074 417 355 41374 41379 356
8 41069 41070 41075 41074 41374 41375 41380 41379
8 41070 41071 41076 41075 41375 41376 41381 41380
8 41071 41072 41077 41076 41376 41377 41382 41381
8 41072 41073 41078 41077 41377 41378 41383 41382
8 41073 6308 6307 41078 41378 6247 6246 41383
8 417 41074 41079 418 356 41379 41384 357
8 41074 41075 41080 41079 41379 41380 41385 41384
8 41075 41076 41081 41080 41380 41381 41386 41385
8 41076 41077 41082 41081 41381 41382 41387 41386
8 41077 41078 41083 41082 41382 41383 41388 41387
8 41078 6307 6306 41083 41383 6246 6245 41388
8 418 41079 41084 419 357 41384 41389 358
8 41079 41080 41085 41084 41384 41385 41390 41389
8 41080 41081 41086 41085 41385 41386 41391 41390
8 41081 41082 41087 41086 41386 41387 41392 41391
8 41082 41083 41088 41087 41387 41388 41393 41392
8 41083 6306 6305 41088 41388 6245 6244 41393
8 419 41084 41089 420 358 41389 41394 359
8 41084 41085 41090 41089 41389 41390 41395 41394
8 41085 41086 41091 41090 41390 41391 41396 41395
8 41086 41087 41092 41091 41391 41392 41397 41396
8 41087 41088 41093 41092 41392 41393 41398 41397
8 41088 6305 6304 41093 41393 6244 6243 41398
8 420 41089 41094 421 359 41394 41399 360
8 41089 41090 41095 41094 41394 41395 41400 41399
8 41090 41091 41096 41095 41395 41396 41401 41400
8 41091 41092 41097 41096 41396 41397 41402 41401
8 41092 41093 41098 41097 41397 41398 41403 41402
8 41093 6304 6303 41098 41398 6243 6242 41403
8 421 41094 41099 422 360 41399 41404 361
8 41094 41095 41100 41099 41399 41400 41405 41404
8 41095 41096 41101 41100 41400 41401 41406 41405
8 41096 41097 41102 41101 41401 41402 41407 41406
8 41097 41098 41103 41102 41402 41403 41408 41407
8 41098 6303 6302 41103 41403 6242 6241 41408
8 422 41099 41104 423 361 41404 41409 362
8 41099 41100 41105 41104 41404 41405 41410 41409
8 41100 41101 41106 41105 41405 41406 41411 41410
8 41101 41102 41107 41106 41406 41407 41412 41411
8 41102 41103 41108 41107 41407 41408 41413 41412
8 41103 6302 6301 41108 41408 6241 6240 41413
8 423 41104 41109 424 362 41409 41414 363
8 41104 41105 41110 41109 41409 41410 41415 41414
8 41105 41106 41111 41110 41410 41411 41416 41415
8 41106 41107 41112 41111 41411 41412 41417 41416
8 41107 41108 41113 41112 41412 41413 41418 41417
8 41108 6301 6300 41113 41413 6240 6239 41418
8 424 41109 41114 425 363 41414 41419 364
8 41109 41110 41115 41114 41414 41415 41420 41419
8 41110 41111 41116 41115 41415 41416 41421 41420
8 41111 41112 41117 41116 41416 41417 41422 41421
8 41112 41113 41118 41117 41417 41418 41423 41422
8 41113 6300 6299 41118 41418 6239 6238 41423
8 425 41114 41119 426 364 41419 41424 365
8 41114 41115 41120 41119 41419 41420 41425 41424
8 41115 41116 41121 41120 41420 41421 41426 41425
8 41116 41117 41122 41121 41421 41422 41427 41426
8 41117 41118 41123 41122 41422 41423 41428 41427
8 41118 6299 6298 41123 41423 6238 6237 41428
8 426 41119 41124 427 365 41424 41429 366
8 41119 41120 41125 41124 41424 41425 41430 41429
8 41120 41121 41126 41125 41425 41426 41431 41430
8 41121 41122 41127 41126 41426 41427 41432 41431
8 41122 41123 41128 41127 41427 41428 41433 41432
8 41123 6298 6297 41128 41428 6237 6236 41433
8 427 41124 41129 428 366 41429 41434 367
8 41124 41125 41130 41129 41429 41430 41435 41434
8 41125 41126 41131 41130 41430 41431 41436 41435
8 41126 41127 41132 41131 41431 41432 41437 41436
8 41127 41128 41133 41132 41432 41433 41438 41437
8 41128 6297 6296 41133 41433 6236 6235 41438
8 428 41129 41134 429 367 41434 41439 368
8 41129 41130 41135 41134 41434 41435 41440 41439
8 41130 41131 41136 41135 41435 41436 41441 41440
8 41131 41132 41137 41136 41436 41437 41442 41441
8 41132 41133 41138 41137 41437 41438 41443 41442
8 41133 6296 6295 41138 41438 6235 6234 41443
8 429 41134 41139 430 368 41439 41444 369
8 41134 41135 41140 41139 41439 41440 41445 41444
8 41135 41136 41141 41140 41440 41441 41446 41445
8 41136 41137 41142 41141 41441 41442 41447 41446
8 41137 41138 41143 41142 41442 41443 41448 41447
8 41138 6295 6294 41143 41443 6234 6233 41448
8 430 41139 41144 431 369 41444 41449 370
8 41139 41140 41145 41144 41444 41445 41450 41449
8 41140 41141 41146 41145 41445 41446 41451 41450
8 41141 41142 41147 41146 41446 41447 41452 41451
8 41142 41143 41148 41147 41447 41448 41453 41452
8 41143 6294 6293 41148 41448 6233 6232 41453
8 431 41144 12634 65 370 41449 12629 64
8 41144 41145 12635 12634 41449 41450 12630 12629
8 41145 41146 12636 12635 41450 41451 12631 12630
8 41146 41147 12637 12636 41451 41452 12632 12631
8 41147 41148 12638 12637 41452 41453 12633 12632
8 41148 6293 6230 12638 41453 6232 6231 12633
8 309 12309 41149 310 0 11849 13089 2
8 12309 12310 41150 41149 11849 11850 13090 13089
8 12310 12311 41151 41150 11850 11851 13091 13090
8 12311 12312 41152 41151 11851 11852 13092 13091
8 12312 12313 41153 41152 11852 11853 13093 13092
8 12313 5986 6292 41153 11853 5923 5984 13093
8 310 41149 41154 311 2 13089 13094 3
8 41149 41150 41155 41154 13089 13090 13095 13094
8 41150 41151 41156 41155 13090 13091 13096 13095
8 41151 41152 41157 41156 13091 13092 13097 13096
8 41152 41153 41158 41157 13092 13093 13098 13097
8 41153 6292 6291 41158 13093 5984 5983 13098
8 311 41154 41159 312 3 13094 13099 4
8 41154 41155 41160 41159 13094 13095 13100 13099
8 41155 41156 41161 41160 13095 13096 13101 13100
8 41156 41157 41162 41161 13096 13097 13102 13101
8 41157 41158 41163 41162 13097 13098 13103 13102
8 41158 6291 6290 41163 13098 5983 5982 13103
8 312 41159 41164 313 4 13099 13104 5
8 41159 41160 41165 41164 13099 13100 13105 13104
8 41160 41161 41166 41165 13100 13101 13106 13105
8 41161 41162 41167 41166 13101 13102 13107 13106
8 41162 41163 41168 41167 13102 13103 13108 13107
8 41163 6290 6289 41168 13103 5982 5981 13108
8 313 41164 41169 314 5 13104 13109 6
8 41164 41165 41170 41169 13104 13105 13110 13109
8 41165 41166 41171 41170 13105 13106 13111 13110
8 41166 41167 41172 41171 13106 13107 13112 13111
8 41167 41168 41173 41172 13107 13108 13113 13112
8 41168 6289 6288 41173 13108 5981 5980 13113
8 314 41169 41174 315 6 13109 13114 7
8 41169 41170 41175 41174 13109 13110 13115 13114
8 41170 41171 41176 41175 13110 13111 13116 13115
8 41171 41172 41177 41176 13111 13112 13117 13116
8 41172 41173 41178 41177 13112 13113 13118 13117
8 41173 6288 6287 41178 13113 5980 5979 13118
8 315 41174 41179 316 7 13114 13119 8
8 41174 41175 41180 41179 13114 13115 13120 13119
8 41175 41176 41181 41180 13115 13116 13121 13120
8 41176 41177 41182 41181 13116 13117 13122 13121
8 41177 41178 41183 41182 13117 13118 13123 13122
8 41178 6287 6286 41183 13118 5979 5978 13123
8 316 41179 41184 317 8 13119 13124 9
8 41179 41180 41185 41184 13119 13120 13125 13124
8 41180 41181 41186 41185 13120 13121 13126 13125
8 41181 41182 41187 41186 13121 13122 13127 13126
8 41182 41183 41188 41187 13122 13123 13128 13127
8 41183 6286 6285 41188 13123 5978 5977 13128
8 317 41184 41189 318 9 13124 13129 10
8 41184 41185 41190 41189 13124 13125 13130 13129
8 41185 41186 41191 41190 13125 13126 13131 13130
8 41186 41187 41192 41191 13126 13127 13132 13131
8 41187 41188 41193 41192 13127 13128 13133 13132
8 41188 6285 6284 41193 13128 5977 5976 13133
8 318 41189 41194 319 10 13129 13134 11
8 41189 41190 41195 41194 13129 13130 13135 13134
8 41190 41191 41196 41195 13130 13131 13136 13135
8 41191 41192 41197 41196 13131 13132 13137 13136
8 41192 41193 41198 41197 13132 13133 13138 13137
8 41193 6284 6283 41198 13133 5976 5975 13138
8 319 41194 41199 320 11 13134 13139 12
8 41194 41195 41200 41199 13134 13135 13140 13139
8 41195 41196 41201 41200 13135 13136 13141 13140
8 41196 41197 41202 41201 13136 13137 13142 13141
8 41197 41198 41203 41202 13137 13138 13143 13142
8 41198 6283 6282 41203 13138 5975 5974 13143
8 320 41199 41204 321 12 13139 13144 13
8 41199 41200 41205 41204 13139 13140 13145 13144
8 41200 41201 41206 41205 13140 13141 13146 13145
8 41201 41202 41207 41206 13141 13142 13147 13146
8 41202 41203 41208 41207 13142 13143 13148 13147
8 41203 6282 6281 41208 13143 5974 5973 13148
8 321 41204 41209 322 13 13144 13149 14
8 41204 41205 41210 41209 13144 13145 13150 13149
8 41205 41206 41211 41210 13145 13146 13151 13150
8 41206 41207 41212 41211 13146 13147 13152 13151
8 41207 41208 41213 41212 13147 13148 13153 13152
8 41208 6281 6280 41213 13148 5973 5972 13153
8 322 41209 41214 323 14 13149 13154 15
8 41209 41210 41215 41214 13149 13150 13155 13154
8 41210 41211 41216 41215 13150 13151 13156 13155
8 41211 41212 41217 41216 13151 13152 13157 13156
8 41212 41213 41218 41217 13152 13153 13158 13157
8 41213 6280 6279 41218 13153 5972 5971 13158
8 323 41214 41219 324 15 13154 13159 16
8 41214 41215 41220 41219 13154 13155 13160 13159
8 41215 41216 41221 41220 13155 13156 13161 13160
8 41216 41217 41222 41221 13156 13157 13162 13161
8 41217 41218 41223 41222 13157 13158 13163 13162
8 41218 6279 6278 41223 13158 5971 5970 13163
8 324 41219 41224 325 16 13159 13164 17
8 41219 41220 41225 41224 13159 13160 13165 13164
8 41220 41221 41226 41225 13160 13161 13166 13165
8 41221 41222 41227 41226 13161 13162 13167 13166
8 41222 41223 41228 41227 13162 13163 13168 13167
8 41223 6278 6277 41228 13163 5970 5969 13168
8 325 41224 41229 326 17 13164 13169 18
8 41224 41225 41230 41229 13164 13165 13170 13169
8 41225 41226 41231 41230 13165 13166 13171 13170
8 41226 41227 41232 41231 13166 13167 13172 13171
8 41227 41228 41233 41232 13167 13168 13173 13172
8 41228 6277 6276 41233 13168 5969 5968 13173
8 326 41229 41234 327 18 13169 13174 19
8 41229 41230 41235 41234 13169 13170 13175 13174
8 41230 41231 41236 41235 13170 13171 13176 13175
8 41231 41232 41237 41236 13171 13172 13177 13176
8 41232 41233 41238 41237 13172 13173 13178 13177
8 41233 6276 6275 41238 13173 5968 5967 13178
8 327 41234 41239 328 19 13174 13179 20
8 41234 41235 41240 41239 13174 13175 13180 13179
8 41235 41236 41241 41240 13175 13176 13181 13180
8 41236 41237 41242 41241 13176 13177 13182 13181
8 41237 41238 41243 41242 13177 13178 13183 13182
8 41238 6275 6274 41243 13178 5967 5966 13183
8 328 41239 41244 329 20 13179 13184 21
8 41239 41240 41245 41244 13179 13180 13185 13184
8 41240 41241 41246 41245 13180 13181 13186 13185
8 41241 41242 41247 41246 13181 13182 13187 13186
8 41242 41243 41248 41247 13182 13183 13188 13187
8 41243 6274 6273 41248 13183 5966 5965 13188
8 329 41244 41249 330 21 13184 13189 22
8 41244 41245 41250 41249 13184 13185 13190 13189
8 41245 41246 41251 41250 13185 13186 13191 13190
8 41246 41247 41252 41251 13186 13187 13192 13191
8 41247 41248 41253 41252 13187 13188 13193 13192
8 41248 6273 6272 41253 13188 5965 5964 13193
8 330 41249 41254 331 22 13189 13194 23
8 41249 41250 41255 41254 13189 13190 13195 13194
8 41250 41251 41256 41255 13190 13191 13196 13195
8 41251 41252 41257 41256 13191 13192 13197 13196
8 41252 41253 41258 41257 13192 13193 13198 13197
8 41253 6272 6271 41258 13193 5964 5963 13198
8 331 41254 41259 332 23 13194 13199 24
8 41254 41255 41260 41259 13194 13195 13200 13199
8 41255 41256 41261 41260 13195 13196 13201 13200
8 41256 41257 41262 41261 13196 13197 13202 13201
8 41257 41258 41263 41262 13197 13198 13203 13202
8 41258 6271 6270 41263 13198 5963 5962 13203
8 332 41259 41264 333 24 13199 13204 25
8 41259 41260 41265 41264 13199 13200 13205 13204
8 41260 41261 41266 41265 13200 13201 13206 13205
8 41261 41262 41267 41266 13201 13202 13207 13206
8 41262 41263 41268 41267 13202 13203 13208 13207
8 41263 6270 6269 41268 13203 5962 5961 13208
8 333 41264 41269 334 25 13204 13209 26
8 41264 41265 41270 41269 13204 13205 13210 13209
8 41265 41266 41271 41270 13205 13206 13211 13210
8 41266 41267 41272 41271 13206 13207 13212 13211
8 41267 41268 41273 41272 13207 13208 13213 13212
8 41268 6269 6268 41273 13208 5961 5960 13213
8 334 41269 41274 335 26 13209 13214 27
8 41269 41270 41275 41274 13209 13210 13215 13214
8 41270 41271 41276 41275 13210 13211 13216 13215
8 41271 41272 41277 41276 13211 13212 13217 13216
8 41272 41273 41278 41277 13212 13213 13218 13217
8 41273 6268 6267 41278 13213 5960 5959 13218
8 335 41274 41279 336 27 13214 13219 28
8 41274 41275 41280 41279 13214 13215 13220 13219
8 41275 41276 41281 41280 13215 13216 13221 13220
8 41276 41277 41282 41281 13216 13217 13222 13221
8 41277 41278 41283 41282 13217 13218 13223 13222
8 41278 6267 6266 41283 13218 5959 5958 13223
8 336 41279 41284 337 28 13219 13224 29
8 41279 41280 41285 41284 13219 13220 13225 13224
8 41280 41281 41286 41285 13220 13221 13226 13225
8 41281 41282 41287 41286 13221 13222 13227 13226
8 41282 41283 41288 41287 13222 13223 13228 13227
8 41283 6266 6265 41288 13223 5958 5957 13228
8 337 41284 41289 338 29 13224 13229 30
8 41284 41285 41290 41289 13224 13225 13230 13229
8 41285 41286 41291 41290 13225 13226 13231 13230
8 41286 41287 41292 41291 13226 13227 13232 13231
8 41287 41288 41293 41292 13227 13228 13233 13232
8 41288 6265 6264 41293 13228 5957 5956 13233
8 338 41289 41294 339 30 13229 13234 31
8 41289 41290 41295 41294 13229 13230 13235 13234
8 41290 41291 41296 41295 13230 13231 13236 13235
8 41291 41292 41297 41296 13231 13232 13237 13236
8 41292 41293 41298 41297 13232 13233 13238 13237
8 41293 6264 6263 41298 13233 5956 5955 13238
8 339 41294 41299 340 31 13234 13239 32
8 41294 41295 41300 41299 13234 13235 13240 13239
8 41295 41296 41301 41300 13235 13236 13241 13240
8 41296 41297 41302 41301 13236 13237 13242 13241
8 41297 41298 41303 41302 13237 13238 13243 13242
8 41298 6263 6262 41303 13238 5955 5954 13243
8 340 41299 41304 341 32 13239 13244 33
8 41299 41300 41305 41304 13239 13240 13245 13244
8 41300 41301 41306 41305 13240 13241 13246 13245
8 41301 41302 41307 41306 13241 13242 13247 13246
8 41302 41303 41308 41307 13242 13243 13248 13247
8 41303 6262 6261 41308 13243 5954 5953 13248
8 341 41304 41309 342 33 13244 13249 34
8 41304 41305 41310 41309 13244 13245 13250 13249
8 41305 41306 41311 41310 13245 13246 13251 13250
8 41306 41307 41312 41311 13246 13247 13252 13251
8 41307 41308 41313 41312 13247 13248 13253 13252
8 41308 6261 6260 41313 13248 5953 5952 13253
8 342 41309 41314 343 34 13249 13254 35
8 41309 41310 41315 41314 13249 13250 13255 13254
8 41310 41311 41316 41315 13250 13251 13256 13255
8 41311 41312 41317 41316 13251 13252 13257 13256
8 41312 41313 41318 41317 13252 13253 13258 13257
8 41313 6260 6259 41318 13253 5952 5951 13258
8 343 41314 41319 344 35 13254 13259 36
8 41314 41315 41320 41319 13254 13255 13260 13259
8 41315 41316 41321 41320 13255 13256 13261 13260
8 41316 41317 41322 41321 13256 13257 13262 13261
8 41317 41318 41323 41322 13257 13258 13263 13262
8 41318 6259 6258 41323 13258 5951 5950 13263
8 344 41319 41324 345 36 13259 13264 37
8 41319 41320 41325 41324 13259 13260 13265 13264
8 41320 41321 41326 41325 13260 13261 13266 13265
8 41321 41322 41327 41326 13261 13262 13267 13266
8 41322 41323 41328 41327 13262 13263 13268 13267
8 41323 6258 6257 41328 13263 5950 5949 13268
8 345 41324 41329 346 37 13264 13269 38
8 41324 41325 41330 41329 13264 13265 13270 13269
8 41325 41326 41331 41330 13265 13266 13271 13270
8 41326 41327 41332 41331 13266 13267 13272 13271
8 41327 41328 41333 41332 13267 13268 13273 13272
8 41328 6257 6256 41333 13268 5949 5948 13273
8 346 41329 41334 347 38 13269 13274 39
8 41329 41330 41335 41334 13269 13270 13275 13274
8 41330 41331 41336 41335 13270 13271 13276 13275
8 41331 41332 41337 41336 13271 13272 13277 13276
8 41332 41333 41338 41337 13272 13273 13278 13277
8 41333 6256 6255 41338 13273 5948 5947 13278
8 347 41334 41339 348 39 13274 13279 40
8 41334 41335 41340 41339 13274 13275 13280 13279
8 41335 41336 41341 41340 13275 13276 13281 13280
8 41336 41337 41342 41341 13276 13277 13282 13281
8 41337 41338 41343 41342 13277 13278 13283 13282
8 41338 6255 6254 41343 13278 5947 5946 13283
8 348 41339 41344 349 40 13279 13284 41
8 41339 41340 41345 41344 13279 13280 13285 13284
8 41340 41341 41346 41345 13280 13281 13286 13285
8 41341 41342 41347 41346 13281 13282 13287 13286
8 41342 41343 41348 41347 13282 13283 13288 13287
8 41343 6254 6253 41348 13283 5946 5945 13288
8 349 41344 41349 350 41 13284 13289 42
8 41344 41345 41350 41349 13284 13285 13290 13289
8 41345 41346 41351 41350 13285 13286 13291 13290
8 41346 41347 41352 41351 13286 13287 13292 13291
8 41347 41348 41353 41352 13287 13288 13293 13292
8 41348 6253 6252 41353 13288 5945 5944 13293
8 350 41349 41354 351 42 13289 13294 43
8 41349 41350 41355 41354 13289 13290 13295 13294
8 41350 41351 41356 41355 13290 13291 13296 13295
8 41351 41352 41357 41356 13291 13292 13297 13296
8 41352 41353 41358 41357 13292 13293 13298 13297
8 41353 6252 6251 41358 13293 5944 5943 13298
8 351 41354 41359 352 43 13294 13299 44
8 41354 41355 41360 41359 13294 13295 13300 13299
8 41355 41356 41361 41360 13295 13296 13301 13300
8 41356 41357 41362 41361 13296 13297 13302 13301
8 41357 41358 41363 41362 13297 13298 13303 13302
8 41358 6251 6250 41363 13298 5943 5942 13303
8 352 41359 41364 353 44 13299 13304 45
8 41359 41360 41365 41364 13299 13300 13305 13304
8 41360 41361 41366 41365 13300 13301 13306 13305
8 41361 41362 41367 41366 13301 13302 13307 13306
8 41362 41363 41368 41367 13302 13303 13308 13307
8 41363 6250 6249 41368 13303 5942 5941 13308
8 353 41364 41369 354 45 13304 13309 46
8 41364 41365 41370 41369 13304 13305 13310 13309
8 41365 41366 41371 41370 13305 13306 13311 13310
8 41366 41367 41372 41371 13306 13307 13312 13311
8 41367 41368 41373 41372 13307 13308 13313 13312
8 41368 6249 6248 41373 13308 5941 5940 13313
8 354 41369 41374 355 46 13309 13314 47
8 41369 41370 41375 41374 13309 13310 13315 13314
8 41370 41371 41376 41375 13310 13311 13316 13315
8 41371 41372 41377 41376 13311 13312 13317 13316
8 41372 41373 41378 41377 13312 13313 13318 13317
8 41373 6248 6247 41378 13313 5940 5939 13318
8 355 41374 41379 356 47 13314 13319 48
8 41374 41375 41380 41379 13314 13315 13320 13319
8 41375 41376 41381 41380 13315 13316 13321 13320
8 41376 41377 41382 41381 13316 13317 13322 13321
8 41377 41378 41383 41382 13317 13318 13323 13322
8 41378 6247 6246 41383 13318 5939 5938 13323
8 356 41379 41384 357 48 13319 13324 49
8 41379 41380 41385 41384 13319 13320 13325 13324
8 41380 41381 41386 41385 13320 13321 13326 13325
8 41381 41382 41387 41386 13321 13322 13327 13326
8 41382 41383 41388 41387 13322 13323 13328 13327
8 41383 6246 6245 41388 13323 5938 5937 13328
8 357 41384 41389 358 49 13324 13329 50
8 41384 41385 41390 41389 13324 13325 13330 13329
8 41385 41386 41391 41390 13325 13326 13331 13330
8 41386 41387 41392 41391 13326 13327 13332 13331
8 41387 41388 41393 41392 13327 13328 13333 13332
8 41388 6245 6244 41393 13328 5937 5936 13333
8 358 41389 41394 359 50 13329 13334 51
8 41389 41390 41395 41394 13329 13330 13335 13334
8 41390 41391 41396 41395 13330 13331 13336 13335
8 41391 41392 41397 41396 13331 13332 13337 13336
8 41392 41393 41398 41397 13332 13333 13338 13337
8 41393 6244 6243 41398 13333 5936 5935 13338
8 359 41394 41399 360 51 13334 13339 52
8 41394 41395 41400 41399 13334 13335 13340 13339
8 41395 41396 41401 41400 13335 13336 13341 13340
8 41396 41397 41402 41401 13336 13337 13342 13341
8 41397 41398 41403 41402 13337 13338 13343 13342
8 41398 6243 6242 41403 13338 5935 5934 13343
8 360 41399 41404 361 52 13339 13344 53
8 41399 41400 41405 41404 13339 13340 13345 13344
8 41400 41401 41406 41405 13340 13341 13346 13345
8 41401 41402 41407 41406 13341 13342 13347 13346
8 41402 41403 41408 41407 13342 13343 13348 13347
8 41403 6242 6241 41408 13343 5934 5933 13348
8 361 41404 41409 362 53 13344 13349 54
8 41404 41405 41410 41409 13344 13345 13350 13349
8 41405 41406 41411 41410 13345 13346 13351 13350
8 41406 41407 41412 41411 13346 13347 13352 13351
8 41407 41408 41413 41412 13347 13348 13353 13352
8 41408 6241 6240 41413 13348 5933 5932 13353
8 362 41409 41414 363 54 13349 13354 55
8 41409 41410 41415 41414 13349 13350 13355 13354
8 41410 41411 41416 41415 13350 13351 13356 13355
8 41411 41412 41417 41416 13351 13352 13357 13356
8 41412 41413 41418 41417 13352 13353 13358 13357
8 41413 6240 6239 41418 13353 5932 5931 13358
8 363 41414 41419 364 55 13354 13359 56
8 41414 41415 41420 41419 13354 13355 13360 13359
8 41415 41416 41421 41420 13355 13356 13361 13360
8 41416 41417 41422 41421 13356 13357 13362 13361
8 41417 41418 41423 41422 13357 13358 13363 13362
8 41418 6239 6238 41423 13358 5931 5930 13363
8 364 41419 41424 365 56 13359 13364 57
8 41419 41420 41425 41424 13359 13360 13365 13364
8 41420 41421 41426 41425 13360 13361 13366 13365
8 41421 41422 41427 41426 13361 13362 13367 13366
8 41422 41423 41428 41427 13362 13363 13368 13367
8 41423 6238 6237 41428 13363 5930 5929 13368
8 365 41424 41429 366 57 13364 13369 58
8 41424 41425 41430 41429 13364 13365 13370 13369
8 41425 41426 41431 41430 13365 13366 13371 13370
8 41426 41427 41432 41431 13366 13367 13372 13371
8 41427 41428 41433 41432 13367 13368 13373 13372
8 41428 6237 6236 41433 13368 5929 5928 13373
8 366 41429 41434 367 58 13369 13374 59
8 41429 41430 41435 41434 13369 13370 13375 13374
8 41430 41431 41436 41435 13370 13371 13376 13375
8 41431 41432 41437 41436 13371 13372 13377 13376
8 41432 41433 41438 41437 13372 13373 13378 13377
8 41433 6236 6235 41438 13373 5928 5927 13378
8 367 41434 41439 368 59 13374 13379 60
8 41434 41435 41440 41439 13374 13375 13380 13379
8 41435 41436 41441 41440 13375 13376 13381 13380
8 41436 41437 41442 41441 13376 13377 13382 13381
8 41437 41438 41443 41442 13377 13378 13383 13382
8 41438 6235 6234 41443 13378 5927 5926 13383
8 368 41439 41444 369 60 13379 13384 61
8 41439 41440 41445 41444 13379 13380 13385 13384
8 41440 41441 41446 41445 13380 13381 13386 13385
8 41441 41442 41447 41446 13381 13382 13387 13386
8 41442 41443 41448 41447 13382 13383 13388 13387
8 41443 6234 6233 41448 13383 5926 5925 13388
8 369 41444 41449 370 61 13384 13389 62
8 41444 41445 41450 41449 13384 13385 13390 13389
8 41445 41446 41451 41450 13385 13386 13391 13390
8 41446 41447 41452 41451 13386 13387 13392 13391
8 41447 41448 41453 41452 13387 13388 13393 13392
8 41448 6233 6232 41453 13388 5925 5924 13393
8 370 41449 12629 64 62 13389 12624 1
8 41449 41450 12630 12629 13389 13390 12625 12624
8 41450 41451 12631 12630 13390 13391 12626 12625
8 41451 41452 12632 12631 13391 13392 12627 12626
8 41452 41453 12633 12632 13392 13393 12628 12627
8 41453 6232 6231 12633 13393 5924 5922 12628
CELL_TYPES 34596
12
12
12
12
12
12
12
12
12
12
12
12
12
12
12
12
12
12
12
12
12
12
12
12
12
12
12
12
12
12
12
12
12
12
12
12
12
12
12
12
12
12
12
12
12
12
12
12
12
12
12
12
12
12
12
12
12
12
12
12
12
12
12
12
12
12
12
12
12
12
12
12
12
12
12
12
12
12
12
12
12
12
12
12
12
12
12
12
12
12
12
12
12
12
12
12
12
12
12
12
12
12
12
12
12
12
12
12
12
12
12
12
12
12
12
12
12
12
12
12
12
12
12
12
12
12
12
12
12
12
12
12
12
12
12
12
12
12
12
12
12
12
12
12
12
12
12
12
12
12
12
12
12
12
12
12
12
12
12
12
12
12
12
12
12
12
12
12
12
12
12
12
12
12
12
12
12
12
12
12
12
12
12
12
12
12
12
12
12
12
12
12
12
12
12
12
12
12
12
12
12
12
12
12
12
12
12
12
12
12
12
12
12
12
12
12
12
12
12
12
12
12
12
12
12
12
12
12
12
12
12
12
12
12
12
12
12
12
12
12
12
12
12
12
12
12
12
12
12
12
12
12
12
12
12
12
12
12
12
12
12
12
12
12
12
12
12
12
12
12
12
12
12
12
12
12
12
12
12
12
12
12
12
12
12
12
12
12
12
12
12
12
12
12
12
12
12
12
12
12
12
12
12
12
12
12
12
12
12
12
12
12
12
12
12
12
12
12
12
12
12
12
12
12
12
12
12
12
12
12
12
12
12
12
12
12
12
12
12
12
12
12
12
12
12
12
12
12
12
12
12
12
12
12
12
12
12
12
12
12
12
12
12
12
12
12
12
12
12
12
12
12
12
12
12
12
12
12
12
12
12
12
12
12
12
12
12
12
12
12
12
12
12
12
12
12
12
12
12
12
12
12
12
12
12
12
12
12
12
12
12
12
12
12
12
12
12
12
12
12
12
12
12
12
12
12
12
12
12
12
12
12
12
12
12
12
12
12
12
12
12
12
12
12
12
12
12
12
12
12
12
12
12
12
12
12
12
12
12
12
12
12
12
12
12
12
12
12
12
12
12
12
12
12
12
12
12
12
12
12
12
12
12
12
12
12
12
12
12
12
12
12
12
12
12
12
12
12
12
12
12
12
12
12
12
12
12
12
12
12
12
12
12
12
12
12
12
12
12
12
12
12
12
12
12
12
12
12
12
12
12
12
12
12
12
12
12
12
12
12
12
12
12
12
12
12
12
12
12
12
12
12
12
12
12
12
12
12
12
12
12
12
12
12
12
12
12
12
12
12
12
12
12
12
12
12
12
12
12
12
12
12
12
12
12
12
12
12
12
12
12
12
12
12
12
12
12
12
12
12
12
12
12
12
12
12
12
12
12
12
12
12
12
12
12
12
12
12
12
12
12
12
12
12
12
12
12
12
12
12
12
12
12
12
12
12
12
12
12
12
12
12
12
12
12
12
12
12
12
12
12
12
12
12
12
12
12
12
12
12
12
12
12
12
12
12
12
12
12
12
12
12
12
12
12
12
12
12
12
12
12
12
12
12
12
12
12
12
12
12
12
12
12
12
12
12
12
12
12
12
12
12
12
12
12
12
12
12
12
12
12
12
12
12
12
12
12
12
12
12
12
12
12
12
12
12
12
12
12
12
12
12
12
12
12
12
12
12
12
12
12
12
12
12
12
12
12
12
12
12
12
12
12
12
12
12
12
12
12
12
12
12
12
12
12
12
12
12
12
12
12
12
12
12
12
12
12
12
12
12
12
12
12
12
12
12
12
12
12
12
12
12
12
12
12
12
12
12
12
12
12
12
12
12
12
12
12
12
12
12
12
12
12
12
12
12
12
12
12
12
12
12
12
12
12
12
12
12
12
12
12
12
12
12
12
12
12
12
12
12
12
12
12
12
12
12
12
12
12
12
12
12
12
12
12
12
12
12
12
12
12
12
12
12
12
12
12
12
12
12
12
12
12
12
12
12
12
12
12
12
12
12
12
12
12
12
12
12
12
12
12
12
12
12
12
12
12
12
12
12
12
12
12
12
12
12
12
12
12
12
12
12
12
12
12
12
12
12
12
12
12
12
12
12
12
12
12
12
12
12
12
12
12
12
12
12
12
12
12
12
12
12
12
12
12
12
12
12
12
12
12
12
12
12
12
12
12
12
12
12
12
12
12
12
12
12
12
12
12
12
12
12
12
12
12
12
12
12
12
12
12
12
12
12
12
12
12
12
12
12
12
12
12
12
12
12
12
12
12
12
12
12
12
12
12
12
12
12
12
12
12
12
12
12
12
12
12
12
12
12
12
12
12
12
12
12
12
12
12
12
12
12
12
12
12
12
12
12
12
12
12
12
12
12
12
12
12
12
12
12
12
12
12
12
12
12
12
12
12
12
12
12
12
12
12
12
12
12
12
12
12
12
12
12
12
12
12
12
12
12
12
12
12
12
12
12
12
12
12
12
12
12
12
12
12
12
12
12
12
12
12
12
12
12
12
12
12
12
12
12
12
12
12
12
12
12
12
12
12
12
12
12
12
12
12
12
12
12
12
12
12
12
12
12
12
12
12
12
12
12
12
12
12
12
12
12
12
12
12
12
12
12
12
12
12
12
12
12
12
12
12
12
12
12
12
12
12
12
12
12
12
12
12
12
12
12
12
12
12
12
12
12
12
12
12
12
12
12
12
12
12
12
12
12
12
12
12
12
12
12
12
12
12
12
12
12
12
12
12
12
12
12
12
12
12
12
12
12
12
12
12
12
12
12
12
12
12
12
12
12
12
12
12
12
12
12
12
12
12
12
12
12
12
12
12
12
12
12
12
12
12
12
12
12
12
12
12
12
12
12
12
12
12
12
12
12
12
12
12
12
12
12
12
12
12
12
12
12
12
12
12
12
12
12
12
12
12
12
12
12
12
12
12
12
12
12
12
12
12
12
12
12
12
12
12
12
12
12
12
12
12
12
12
12
12
12
12
12
12
12
12
12
12
12
12
12
12
12
12
12
12
12
12
12
12
12
12
12
12
12
12
12
12
12
12
12
12
12
12
12
12
12
12
12
12
12
12
12
12
12
12
12
12
12
12
12
12
12
12
12
12
12
12
12
12
12
12
12
12
12
12
12
12
12
12
12
12
12
12
12
12
12
12
12
12
12
12
12
12
12
12
12
12
12
12
12
12
12
12
12
12
12
12
12
12
12
12
12
12
12
12
12
12
12
12
12
12
12
12
12
12
12
12
12
12
12
12
12
12
12
12
12
12
12
12
12
12
12
12
12
12
12
12
12
12
12
12
12
12
12
12
12
12
12
12
12
12
12
12
12
12
12
12
12
12
12
12
12
12
12
12
12
12
12
12
12
12
12
12
12
12
12
12
12
12
12
12
12
12
12
12
12
12
12
12
12
12
12
12
12
12
12
12
12
12
12
12
12
12
12
12
12
12
12
12
12
12
12
12
12
12
12
12
12
12
12
12
12
12
12
12
12
12
12
12
12
12
12
12
12
12
12
12
12
12
12
12
12
12
12
12
12
12
12
12
12
12
12
12
12
12
12
12
12
12
12
12
12
12
12
12
12
12
12
12
12
12
12
12
12
12
12
12
12
12
12
12
12
12
12
12
12
12
12
12
12
12
12
12
12
12
12
12
12
12
12
12
12
12
12
12
12
12
12
12
12
12
12
12
12
12
12
12
12
12
12
12
12
12
12
12
12
12
12
12
12
12
12
12
12
12
12
12
12
12
12
12
12
12
12
12
12
12
12
12
12
12
12
12
12
12
12
12
12
12
12
12
12
12
12
12
12
12
12
12
12
12
12
12
12
12
12
12
12
12
12
12
12
12
12
12
12
12
12
12
12
12
12
12
12
12
12
12
12
12
12
12
12
12
12
12
12
12
12
12
12
12
12
12
12
12
12
12
12
12
12
12
12
12
12
12
12
12
12
12
12
12
12
12
12
12
12
12
12
12
12
12
12
12
12
12
12
12
12
12
12
12
12
12
12
12
12
12
12
12
12
12
12
12
12
12
12
12
12
12
12
12
12
12
12
12
12
12
12
12
12
12
12
12
12
12
12
12
12
12
12
12
12
12
12
12
12
12
12
12
12
12
12
12
12
12
12
12
12
12
12
12
12
12
12
12
12
12
12
12
12
12
12
12
12
12
12
12
12
12
12
12
12
12
12
12
12
12
12
12
12
12
12
12
12
12
12
12
12
12
12
12
12
12
12
12
12
12
12
12
12
12
12
12
12
12
12
12
12
12
12
12
12
12
12
12
12
12
12
12
12
12
12
12
12
12
12
12
12
12
12
12
12
12
12
12
12
12
12
12
12
12
12
12
12
12
12
12
12
12
12
12
12
12
12
12
12
12
12
12
12
12
12
12
12
12
12
12
12
12
12
12
12
12
12
12
12
12
12
12
12
12
12
12
12
12
12
12
12
12
12
12
12
12
12
12
12
12
12
12
12
12
12
12
12
12
12
12
12
12
12
12
12
12
12
12
12
12
12
12
12
12
12
12
12
12
12
12
12
12
12
12
12
12
12
12
12
12
12
12
12
12
12
12
12
12
12
12
12
12
12
12
12
12
12
12
12
12
12
12
12
12
12
12
12
12
12
12
12
12
12
12
12
12
12
12
12
12
12
12
12
12
12
12
12
12
12
12
12
12
12
12
12
12
12
12
12
12
12
12
12
12
12
12
12
12
12
12
12
12
12
12
12
12
12
12
12
12
12
12
12
12
12
12
12
12
12
12
12
12
12
12
12
12
12
12
12
12
12
12
12
12
12
12
12
12
12
12
12
12
12
12
12
12
12
12
12
12
12
12
12
12
12
12
12
12
12
12
12
12
12
12
12
12
12
12
12
12
12
12
12
12
12
12
12
12
12
12
12
12
12
12
12
12
12
12
12
12
12
12
12
12
12
12
12
12
12
12
12
12
12
12
12
12
12
12
12
12
12
12
12
12
12
12
12
12
12
12
12
12
12
12
12
12
12
12
12
12
12
12
12
12
12
12
12
12
12
12
12
12
12
12
12
12
12
12
12
12
12
12
12
12
12
12
12
12
12
12
12
12
12
12
12
12
12
12
12
12
12
12
12
12
12
12
12
12
12
12
12
12
12
12
12
12
12
12
12
12
12
12
12
12
12
12
12
12
12
12
12
12
12
12
12
12
12
12
12
12
12
12
12
12
12
12
12
12
12
12
12
12
12
12
12
12
12
12
12
12
12
12
12
12
12
12
12
12
12
12
12
12
12
12
12
12
12
12
12
12
12
12
12
12
12
12
12
12
12
12
12
12
12
12
12
12
12
12
12
12
12
12
12
12
12
12
12
12
12
12
12
12
12
12
12
12
12
12
12
12
12
12
12
12
12
12
12
12
12
12
12
12
12
12
12
12
12
12
12
12
12
12
12
12
12
12
12
12
12
12
12
12
12
12
12
12
12
12
12
12
12
12
12
12
12
12
12
12
12
12
12
12
12
12
12
12
12
12
12
12
12
12
12
12
12
12
12
12
12
12
12
12
12
12
12
12
12
12
12
12
12
12
12
12
12
12
12
12
12
12
12
12
12
12
12
12
12
12
12
12
12
12
12
12
12
12
12
12
12
12
12
12
12
12
12
12
12
12
12
12
12
12
12
12
12
12
12
12
12
12
12
12
12
12
12
12
12
12
12
12
12
12
12
12
12
12
12
12
12
12
12
12
12
12
12
12
12
12
12
12
12
12
12
12
12
12
12
12
12
12
12
12
12
12
12
12
12
12
12
12
12
12
12
12
12
12
12
12
12
12
12
12
12
12
12
12
12
12
12
12
12
12
12
12
12
12
12
12
12
12
12
12
12
12
12
12
12
12
12
12
12
12
12
12
12
12
12
12
12
12
12
12
12
12
12
12
12
12
12
12
12
12
12
12
12
12
12
12
12
12
12
12
12
12
12
12
12
12
12
12
12
12
12
12
12
12
12
12
12
12
12
12
12
12
12
12
12
12
12
12
12
12
12
12
12
12
12
12
12
12
12
12
12
12
12
12
12
12
12
12
12
12
12
12
12
12
12
12
12
12
12
12
12
12
12
12
12
12
12
12
12
12
12
12
12
12
12
12
12
12
12
12
12
12
12
12
12
12
12
12
12
12
12
12
12
12
12
12
12
12
12
12
12
12
12
12
12
12
12
12
12
12
12
12
12
12
12
12
12
12
12
12
12
12
12
12
12
12
12
12
12
12
12
12
12
12
12
12
12
12
12
12
12
12
12
12
12
12
12
12
12
12
12
12
12
12
12
12
12
12
12
12
12
12
12
12
12
12
12
12
12
12
12
12
12
12
12
12
12
12
12
12
12
12
12
12
12
12
12
12
12
12
12
12
12
12
12
12
12
12
12
12
12
12
12
12
12
12
12
12
12
12
12
12
12
12
12
12
12
12
12
12
12
12
12
12
12
12
12
12
12
12
12
12
12
12
12
12
12
12
12
12
12
12
12
12
12
12
12
12
12
12
12
12
12
12
12
12
12
12
12
12
12
12
12
12
12
12
12
12
12
12
12
12
12
12
12
12
12
12
12
12
12
12
12
12
12
12
12
12
12
12
12
12
12
12
12
12
12
12
12
12
12
12
12
12
12
12
12
12
12
12
12
12
12
12
12
12
12
12
12
12
12
12
12
12
12
12
12
12
12
12
12
12
12
12
12
12
12
12
12
12
12
12
12
12
12
12
12
12
12
12
12
12
12
12
12
12
12
12
12
12
12
12
12
12
12
12
12
12
12
12
12
12
12
12
12
12
12
12
12
12
12
12
12
12
12
12
12
12
12
12
12
12
12
12
12
12
12
12
12
12
12
12
12
12
12
12
12
12
12
12
12
12
12
12
12
12
12
12
12
12
12
12
12
12
12
12
12
12
12
12
12
12
12
12
12
12
12
12
12
12
12
12
12
12
12
12
12
12
12
12
12
12
12
12
12
12
12
12
12
12
12
12
12
12
12
12
12
12
12
12
12
12
12
12
12
12
12
12
12
12
12
12
12
12
12
12
12
12
12
12
12
12
12
12
12
12
12
12
12
12
12
12
12
12
12
12
12
12
12
12
12
12
12
12
12
12
12
12
12
12
12
12
12
12
12
12
12
12
12
12
12
12
12
12
12
12
12
12
12
12
12
12
12
12
12
12
12
12
12
12
12
12
12
12
12
12
12
12
12
12
12
12
12
12
12
12
12
12
12
12
12
12
12
12
12
12
12
12
12
12
12
12
12
12
12
12
12
12
12
12
12
12
12
12
12
12
12
12
12
12
12
12
12
12
12
12
12
12
12
12
12
12
12
12
12
12
12
12
12
12
12
12
12
12
12
12
12
12
12
12
12
12
12
12
12
12
12
12
12
12
12
12
12
12
12
12
12
12
12
12
12
12
12
12
12
12
12
12
12
12
12
12
12
12
12
12
12
12
12
12
12
12
12
12
12
12
12
12
12
12
12
12
12
12
12
12
12
12
12
12
12
12
12
12
12
12
12
12
12
12
12
12
12
12
12
12
12
12
12
12
12
12
12
12
12
12
12
12
12
12
12
12
12
12
12
12
12
12
12
12
12
12
12
12
12
12
12
12
12
12
12
12
12
12
12
12
12
12
12
12
12
12
12
12
12
12
12
12
12
12
12
12
12
12
12
12
12
12
12
12
12
12
12
12
12
12
12
12
12
12
12
12
12
12
12
12
12
12
12
12
12
12
12
12
12
12
12
12
12
12
12
12
12
12
12
12
12
12
12
12
12
12
12
12
12
12
12
12
12
12
12
12
12
12
12
12
12
12
12
12
12
12
12
12
12
12
12
12
12
12
12
12
12
12
12
12
12
12
12
12
12
12
12
12
12
12
12
12
12
12
12
12
12
12
12
12
12
12
12
12
12
12
12
12
12
12
12
12
12
12
12
12
12
12
12
12
12
12
12
12
12
12
12
12
12
12
12
12
12
12
12
12
12
12
12
12
12
12
12
12
12
12
12
12
12
12
12
12
12
12
12
12
12
12
12
12
12
12
12
12
12
12
12
12
12
12
12
12
12
12
12
12
12
12
12
12
12
12
12
12
12
12
12
12
12
12
12
12
12
12
12
12
12
12
12
12
12
12
12
12
12
12
12
12
12
12
12
12
12
12
12
12
12
12
12
12
12
12
12
12
12
12
12
12
12
12
12
12
12
12
12
12
12
12
12
12
12
12
12
12
12
12
12
12
12
12
12
12
12
12
12
12
12
12
12
12
12
12
12
12
12
12
12
12
12
12
12
12
12
12
12
12
12
12
12
12
12
12
12
12
12
12
12
12
12
12
12
12
12
12
12
12
12
12
12
12
12
12
12
12
12
12
12
12
12
12
12
12
12
12
12
12
12
12
12
12
12
12
12
12
12
12
12
12
12
12
12
12
12
12
12
12
12
12
12
12
12
12
12
12
12
12
12
12
12
12
12
12
12
12
12
12
12
12
12
12
12
12
12
12
12
12
12
12
12
12
12
12
12
12
12
12
12
12
12
12
12
12
12
12
12
12
12
12
12
12
12
12
12
12
12
12
12
12
12
12
12
12
12
12
12
12
12
12
12
12
12
12
12
12
12
12
12
12
12
12
12
12
12
12
12
12
12
12
12
12
12
12
12
12
12
12
12
12
12
12
12
12
12
12
12
12
12
12
12
12
12
12
12
12
12
12
12
12
12
12
12
12
12
12
12
12
12
12
12
12
12
12
12
12
12
12
12
12
12
12
12
12
12
12
12
12
12
12
12
12
12
12
12
12
12
12
12
12
12
12
12
12
12
12
12
12
12
12
12
12
12
12
12
12
12
12
12
12
12
12
12
12
12
12
12
12
12
12
12
12
12
12
12
12
12
12
12
12
12
12
12
12
12
12
12
12
12
12
12
12
12
12
12
12
12
12
12
12
12
12
12
12
12
12
12
12
12
12
12
12
12
12
12
12
12
12
12
12
12
12
12
12
12
12
12
12
12
12
12
12
12
12
12
12
12
12
12
12
12
12
12
12
12
12
12
12
12
12
12
12
12
12
12
12
12
12
12
12
12
12
12
12
12
12
12
12
12
12
12
12
12
12
12
12
12
12
12
12
12
12
12
12
12
12
12
12
12
12
12
12
12
12
12
12
12
12
12
12
12
12
12
12
12
12
12
12
12
12
12
12
12
12
12
12
12
12
12
12
12
12
12
12
12
12
12
12
12
12
12
12
12
12
12
12
12
12
12
12
12
12
12
12
12
12
12
12
12
12
12
12
12
12
12
12
12
12
12
12
12
12
12
12
12
12
12
12
12
12
12
12
12
12
12
12
12
12
12
12
12
12
12
12
12
12
12
12
12
12
12
12
12
12
12
12
12
12
12
12
12
12
12
12
12
12
12
12
12
12
12
12
12
12
12
12
12
12
12
12
12
12
12
12
12
12
12
12
12
12
12
12
12
12
12
12
12
12
12
12
12
12
12
12
12
12
12
12
12
12
12
12
12
12
12
12
12
12
12
12
12
12
12
12
12
12
12
12
12
12
12
12
12
12
12
12
12
12
12
12
12
12
12
12
12
12
12
12
12
12
12
12
12
12
12
12
12
12
12
12
12
12
12
12
12
12
12
12
12
12
12
12
12
12
12
12
12
12
12
12
12
12
12
12
12
12
12
12
12
12
12
12
12
12
12
12
12
12
12
12
12
12
12
12
12
12
12
12
12
12
12
12
12
12
12
12
12
12
12
12
12
12
12
12
12
12
12
12
12
12
12
12
12
12
12
12
12
12
12
12
12
12
12
12
12
12
12
12
12
12
12
12
12
12
12
12
12
12
12
12
12
12
12
12
12
12
12
12
12
12
12
12
12
12
12
12
12
12
12
12
12
12
12
12
12
12
12
12
12
12
12
12
12
12
12
12
12
12
12
12
12
12
12
12
12
12
12
12
12
12
12
12
12
12
12
12
12
12
12
12
12
12
12
12
12
12
12
12
12
12
12
12
12
12
12
12
12
12
12
12
12
12
12
12
12
12
12
12
12
12
12
12
12
12
12
12
12
12
12
12
12
12
12
12
12
12
12
12
12
12
12
12
12
12
12
12
12
12
12
12
12
12
12
12
12
12
12
12
12
12
12
12
12
12
12
12
12
12
12
12
12
12
12
12
12
12
12
12
12
12
12
12
12
12
12
12
12
12
12
12
12
12
12
12
12
12
12
12
12
12
12
12
12
12
12
12
12
12
12
12
12
12
12
12
12
12
12
12
12
12
12
12
12
12
12
12
12
12
12
12
12
12
12
12
12
12
12
12
12
12
12
12
12
12
12
12
12
12
12
12
12
12
12
12
12
12
12
12
12
12
12
12
12
12
12
12
12
12
12
12
12
12
12
12
12
12
12
12
12
12
12
12
12
12
12
12
12
12
12
12
12
12
12
12
12
12
12
12
12
12
12
12
12
12
12
12
12
12
12
12
12
12
12
12
12
12
12
12
12
12
12
12
12
12
12
12
12
12
12
12
12
12
12
12
12
12
12
12
12
12
12
12
12
12
12
12
12
12
12
12
12
12
12
12
12
12
12
12
12
12
12
12
12
12
12
12
12
12
12
12
12
12
12
12
12
12
12
12
12
12
12
12
12
12
12
12
12
12
12
12
12
12
12
12
12
12
12
12
12
12
12
12
12
12
12
12
12
12
12
12
12
12
12
12
12
12
12
12
12
12
12
12
12
12
12
12
12
12
12
12
12
12
12
12
12
12
12
12
12
12
12
12
12
12
12
12
12
12
12
12
12
12
12
12
12
12
12
12
12
12
12
12
12
12
12
12
12
12
12
12
12
12
12
12
12
12
12
12
12
12
12
12
12
12
12
12
12
12
12
12
12
12
12
12
12
12
12
12
12
12
12
12
12
12
12
12
12
12
12
12
12
12
12
12
12
12
12
12
12
12
12
12
12
12
12
12
12
12
12
12
12
12
12
12
12
12
12
12
12
12
12
12
12
12
12
12
12
12
12
12
12
12
12
12
12
12
12
12
12
12
12
12
12
12
12
12
12
12
12
12
12
12
12
12
12
12
12
12
12
12
12
12
12
12
12
12
12
12
12
12
12
12
12
12
12
12
12
12
12
12
12
12
12
12
12
12
12
12
12
12
12
12
12
12
12
12
12
12
12
12
12
12
12
12
12
12
12
12
12
12
12
12
12
12
12
12
12
12
12
12
12
12
12
12
12
12
12
12
12
12
12
12
12
12
12
12
12
12
12
12
12
12
12
12
12
12
12
12
12
12
12
12
12
12
12
12
12
12
12
12
12
12
12
12
12
12
12
12
12
12
12
12
12
12
12
12
12
12
12
12
12
12
12
12
12
12
12
12
12
12
12
12
12
12
12
12
12
12
12
12
12
12
12
12
12
12
12
12
12
12
12
12
12
12
12
12
12
12
12
12
12
12
12
12
12
12
12
12
12
12
12
12
12
12
12
12
12
12
12
12
12
12
12
12
12
12
12
12
12
12
12
12
12
12
12
12
12
12
12
12
12
12
12
12
12
12
12
12
12
12
12
12
12
12
12
12
12
12
12
12
12
12
12
12
12
12
12
12
12
12
12
12
12
12
12
12
12
12
12
12
12
12
12
12
12
12
12
12
12
12
12
12
12
12
12
12
12
12
12
12
12
12
12
12
12
12
12
12
12
12
12
12
12
12
12
12
12
12
12
12
12
12
12
12
12
12
12
12
12
12
12
12
12
12
12
12
12
12
12
12
12
12
12
12
12
12
12
12
12
12
12
12
12
12
12
12
12
12
12
12
12
12
12
12
12
12
12
12
12
12
12
12
12
12
12
12
12
12
12
12
12
12
12
12
12
12
12
12
12
12
12
12
12
12
12
12
12
12
12
12
12
12
12
12
12
12
12
12
12
12
12
12
12
12
12
12
12
12
12
12
12
12
12
12
12
12
12
12
12
12
12
12
12
12
12
12
12
12
12
12
12
12
12
12
12
12
12
12
12
12
12
12
12
12
12
12
12
12
12
12
12
12
12
12
12
12
12
12
12
12
12
12
12
12
12
12
12
12
12
12
12
12
12
12
12
12
12
12
12
12
12
12
12
12
12
12
12
12
12
12
12
12
12
12
12
12
12
12
12
12
12
12
12
12
12
12
12
12
12
12
12
12
12
12
12
12
12
12
12
12
12
12
12
12
12
12
12
12
12
12
12
12
12
12
12
12
12
12
12
12
12
12
12
12
12
12
12
12
12
12
12
12
12
12
12
12
12
12
12
12
12
12
12
12
12
12
12
12
12
12
12
12
12
12
12
12
12
12
12
12
12
12
12
12
12
12
12
12
12
12
12
12
12
12
12
12
12
12
12
12
12
12
12
12
12
12
12
12
12
12
12
12
12
12
12
12
12
12
12
12
12
12
12
12
12
12
12
12
12
12
12
12
12
12
12
12
12
12
12
12
12
12
12
12
12
12
12
12
12
12
12
12
12
12
12
12
12
12
12
12
12
12
12
12
12
12
12
12
12
12
12
12
12
12
12
12
12
12
12
12
12
12
12
12
12
12
12
12
12
12
12
12
12
12
12
12
12
12
12
12
12
12
12
12
12
12
12
12
12
12
12
12
12
12
12
12
12
12
12
12
12
12
12
12
12
12
12
12
12
12
12
12
12
12
12
12
12
12
12
12
12
12
12
12
12
12
12
12
12
12
12
12
12
12
12
12
12
12
12
12
12
12
12
12
12
12
12
12
12
12
12
12
12
12
12
12
12
12
12
12
12
12
12
12
12
12
12
12
12
12
12
12
12
12
12
12
12
12
12
12
12
12
12
12
12
12
12
12
12
12
12
12
12
12
12
12
12
12
12
12
12
12
12
12
12
12
12
12
12
12
12
12
12
12
12
12
12
12
12
12
12
12
12
12
12
12
12
12
12
12
12
12
12
12
12
12
12
12
12
12
12
12
12
12
12
12
12
12
12
12
12
12
12
12
12
12
12
12
12
12
12
12
12
12
12
12
12
12
12
12
12
12
12
12
12
12
12
12
12
12
12
12
12
12
12
12
12
12
12
12
12
12
12
12
12
12
12
12
12
12
12
12
12
12
12
12
12
12
12
12
12
12
12
12
12
12
12
12
12
12
12
12
12
12
12
12
12
12
12
12
12
12
12
12
12
12
12
12
12
12
12
12
12
12
12
12
12
12
12
12
12
12
12
12
12
12
12
12
12
12
12
12
12
12
12
12
12
12
12
12
12
12
12
12
12
12
12
12
12
12
12
12
12
12
12
12
12
12
12
12
12
12
12
12
12
12
12
12
12
12
12
12
12
12
12
12
12
12
12
12
12
12
12
12
12
12
12
12
12
12
12
12
12
12
12
12
12
12
12
12
12
12
12
12
12
12
12
12
12
12
12
12
12
12
12
12
12
12
12
12
12
12
12
12
12
12
12
12
12
12
12
12
12
12
12
12
12
12
12
12
12
12
12
12
12
12
12
12
12
12
12
12
12
12
12
12
12
12
12
12
12
12
12
12
12
12
12
12
12
12
12
12
12
12
12
12
12
12
12
12
12
12
12
12
12
12
12
12
12
12
12
12
12
12
12
12
12
12
12
12
12
12
12
12
12
12
12
12
12
12
12
12
12
12
12
12
12
12
12
12
12
12
12
12
12
12
12
12
12
12
12
12
12
12
12
12
12
12
12
12
12
12
12
12
12
12
12
12
12
12
12
12
12
12
12
12
12
12
12
12
12
12
12
12
12
12
12
12
12
12
12
12
12
12
12
12
12
12
12
12
12
12
12
12
12
12
12
12
12
12
12
12
12
12
12
12
12
12
12
12
12
12
12
12
12
12
12
12
12
12
12
12
12
12
12
12
12
12
12
12
12
12
12
12
12
12
12
12
12
12
12
12
12
12
12
12
12
12
12
12
12
12
12
12
12
12
12
12
12
12
12
12
12
12
12
12
12
12
12
12
12
12
12
12
12
12
12
12
12
12
12
12
12
12
12
12
12
12
12
12
12
12
12
12
12
12
12
12
12
12
12
12
12
12
12
12
12
12
12
12
12
12
12
12
12
12
12
12
12
12
12
12
12
12
12
12
12
12
12
12
12
12
12
12
12
12
12
12
12
12
12
12
12
12
12
12
12
12
12
12
12
12
12
12
12
12
12
12
12
12
12
12
12
12
12
12
12
12
12
12
12
12
12
12
12
12
12
12
12
12
12
12
12
12
12
12
12
12
12
12
12
12
12
12
12
12
12
12
12
12
12
12
12
12
12
12
12
12
12
12
12
12
12
12
12
12
12
12
12
12
12
12
12
12
12
12
12
12
12
12
12
12
12
12
12
12
12
12
12
12
12
12
12
12
12
12
12
12
12
12
12
12
12
12
12
12
12
12
12
12
12
12
12
12
12
12
12
12
12
12
12
12
12
12
12
12
12
12
12
12
12
12
12
12
12
12
12
12
12
12
12
12
12
12
12
12
12
12
12
12
12
12
12
12
12
12
12
12
12
12
12
12
12
12
12
12
12
12
12
12
12
12
12
12
12
12
12
12
12
12
12
12
12
12
12
12
12
12
12
12
12
12
12
12
12
12
12
12
12
12
12
12
12
12
12
12
12
12
12
12
12
12
12
12
12
12
12
12
12
12
12
12
12
12
12
12
12
12
12
12
12
12
12
12
12
12
12
12
12
12
12
12
12
12
12
12
12
12
12
12
12
12
12
12
12
12
12
12
12
12
12
12
12
12
12
12
12
12
12
12
12
12
12
12
12
12
12
12
12
12
12
12
12
12
12
12
12
12
12
12
12
12
12
12
12
12
12
12
12
12
12
12
12
12
12
12
12
12
12
12
12
12
12
12
12
12
12
12
12
12
12
12
12
12
12
12
12
12
12
12
12
12
12
12
12
12
12
12
12
12
12
12
12
12
12
12
12
12
12
12
12
12
12
12
12
12
12
12
12
12
12
12
12
12
12
12
12
12
12
12
12
12
12
12
12
12
12
12
12
12
12
12
12
12
12
12
12
12
12
12
12
12
12
12
12
12
12
12
12
12
12
12
12
12
12
12
12
12
12
12
12
12
12
12
12
12
12
12
12
12
12
12
12
12
12
12
12
12
12
12
12
12
12
12
12
12
12
12
12
12
12
12
12
12
12
12
12
12
12
12
12
12
12
12
12
12
12
12
12
12
12
12
12
12
12
12
12
12
12
12
12
12
12
12
12
12
12
12
12
12
12
12
12
12
12
12
12
12
12
12
12
12
12
12
12
12
12
12
12
12
12
12
12
12
12
12
12
12
12
12
12
12
12
12
12
12
12
12
12
12
12
12
12
12
12
12
12
12
12
12
12
12
12
12
12
12
12
12
12
12
12
12
12
12
12
12
12
12
12
12
12
12
12
12
12
12
12
12
12
12
12
12
12
12
12
12
12
12
12
12
12
12
12
12
12
12
12
12
12
12
12
12
12
12
12
12
12
12
12
12
12
12
12
12
12
12
12
12
12
12
12
12
12
12
12
12
12
12
12
12
12
12
12
12
12
12
12
12
12
12
12
12
12
12
12
12
12
12
12
12
12
12
12
12
12
12
12
12
12
12
12
12
12
12
12
12
12
12
12
12
12
12
12
12
12
12
12
12
12
12
12
12
12
12
12
12
12
12
12
12
12
12
12
12
12
12
12
12
12
12
12
12
12
12
12
12
12
12
12
12
12
12
12
12
12
12
12
12
12
12
12
12
12
12
12
12
12
12
12
12
12
12
12
12
12
12
12
12
12
12
12
12
12
12
12
12
12
12
12
12
12
12
12
12
12
12
12
12
12
12
12
12
12
12
12
12
12
12
12
12
12
12
12
12
12
12
12
12
12
12
12
12
12
12
12
12
12
12
12
12
12
12
12
12
12
12
12
12
12
12
12
12
12
12
12
12
12
12
12
12
12
12
12
12
12
12
12
12
12
12
12
12
12
12
12
12
12
12
12
12
12
12
12
12
12
12
12
12
12
12
12
12
12
12
12
12
12
12
12
12
12
12
12
12
12
12
12
12
12
12
12
12
12
12
12
12
12
12
12
12
12
12
12
12
12
12
12
12
12
12
12
12
12
12
12
12
12
12
12
12
12
12
12
12
12
12
12
12
12
12
12
12
12
12
12
12
12
12
12
12
12
12
12
12
12
12
12
12
12
12
12
12
12
12
12
12
12
12
12
12
12
12
12
12
12
12
12
12
12
12
12
12
12
12
12
12
12
12
12
12
12
12
12
12
12
12
12
12
12
12
12
12
12
12
12
12
12
12
12
12
12
12
12
12
12
12
12
12
12
12
12
12
12
12
12
12
12
12
12
12
12
12
12
12
12
12
12
12
12
12
12
12
12
12
12
12
12
12
12
12
12
12
12
12
12
12
12
12
12
12
12
12
12
12
12
12
12
12
12
12
12
12
12
12
12
12
12
12
12
12
12
12
12
12
12
12
12
12
12
12
12
12
12
12
12
12
12
12
12
12
12
12
12
12
12
12
12
12
12
12
12
12
12
12
12
12
12
12
12
12
12
12
12
12
12
12
12
12
12
12
12
12
12
12
12
12
12
12
12
12
12
12
12
12
12
12
12
12
12
12
12
12
12
12
12
12
12
12
12
12
12
12
12
12
12
12
12
12
12
12
12
12
12
12
12
12
12
12
12
12
12
12
12
12
12
12
12
12
12
12
12
12
12
12
12
12
12
12
12
12
12
12
12
12
12
12
12
12
12
12
12
12
12
12
12
12
12
12
12
12
12
12
12
12
12
12
12
12
12
12
12
12
12
12
12
12
12
12
12
12
12
12
12
12
12
12
12
12
12
12
12
12
12
12
12
12
12
12
12
12
12
12
12
12
12
12
12
12
12
12
12
12
12
12
12
12
12
12
12
12
12
12
12
12
12
12
12
12
12
12
12
12
12
12
12
12
12
12
12
12
12
12
12
12
12
12
12
12
12
12
12
12
12
12
12
12
12
12
12
12
12
12
12
12
12
12
12
12
12
12
12
12
12
12
12
12
12
12
12
12
12
12
12
12
12
12
12
12
12
12
12
12
12
12
12
12
12
12
12
12
12
12
12
12
12
12
12
12
12
12
12
12
12
12
12
12
12
12
12
12
12
12
12
12
12
12
12
12
12
12
12
12
12
12
12
12
12
12
12
12
12
12
12
12
12
12
12
12
12
12
12
12
12
12
12
12
12
12
12
12
12
12
12
12
12
12
12
12
12
12
12
12
12
12
12
12
12
12
12
12
12
12
12
12
12
12
12
12
12
12
12
12
12
12
12
12
12
12
12
12
12
12
12
12
12
12
12
12
12
12
12
12
12
12
12
12
12
12
12
12
12
12
12
12
12
12
12
12
12
12
12
12
12
12
12
12
12
12
12
12
12
12
12
12
12
12
12
12
12
12
12
12
12
12
12
12
12
12
12
12
12
12
12
12
12
12
12
12
12
12
12
12
12
12
12
12
12
12
12
12
12
12
12
12
12
12
12
12
12
12
12
12
12
12
12
12
12
12
12
12
12
12
12
12
12
12
12
12
12
12
12
12
12
12
12
12
12
12
12
12
12
12
12
12
12
12
12
12
12
12
12
12
12
12
12
12
12
12
12
12
12
12
12
12
12
12
12
12
12
12
12
12
12
12
12
12
12
12
12
12
12
12
12
12
12
12
12
12
12
12
12
12
12
12
12
12
12
12
12
12
12
12
12
12
12
12
12
12
12
12
12
12
12
12
12
12
12
12
12
12
12
12
12
12
12
12
12
12
12
12
12
12
12
12
12
12
12
12
12
12
12
12
12
12
12
12
12
12
12
12
12
12
12
12
12
12
12
12
12
12
12
12
12
12
12
12
12
12
12
12
12
12
12
12
12
12
12
12
12
12
12
12
12
12
12
12
12
12
12
12
12
12
12
12
12
12
12
12
12
12
12
12
12
12
12
12
12
12
12
12
12
12
12
12
12
12
12
12
12
12
12
12
12
12
12
12
12
12
12
12
12
12
12
12
12
12
12
12
12
12
12
12
12
12
12
12
12
12
12
12
12
12
12
12
12
12
12
12
12
12
12
12
12
12
12
12
12
12
12
12
12
12
12
12
12
12
12
12
12
12
12
12
12
12
12
12
12
12
12
12
12
12
12
12
12
12
12
12
12
12
12
12
12
12
12
12
12
12
12
12
12
12
12
12
12
12
12
12
12
12
12
12
12
12
12
12
12
12
12
12
12
12
12
12
12
12
12
12
12
12
12
12
12
12
12
12
12
12
12
12
12
12
12
12
12
12
12
12
12
12
12
12
12
12
12
12
12
12
12
12
12
12
12
12
12
12
12
12
12
12
12
12
12
12
12
12
12
12
12
12
12
12
12
12
12
12
12
12
12
12
12
12
12
12
12
12
12
12
12
12
12
12
12
12
12
12
12
12
12
12
12
12
12
12
12
12
12
12
12
12
12
12
12
12
12
12
12
12
12
12
12
12
12
12
12
12
12
12
12
12
12
12
12
12
12
12
12
12
12
12
12
12
12
12
12
12
12
12
12
12
12
12
12
12
12
12
12
12
12
12
12
12
12
12
12
12
12
12
12
12
12
12
12
12
12
12
12
12
12
12
12
12
12
12
12
12
12
12
12
12
12
12
12
12
12
12
12
12
12
12
12
12
12
12
12
12
12
12
12
12
12
12
12
12
12
12
12
12
12
12
12
12
12
12
12
12
12
12
12
12
12
12
12
12
12
12
12
12
12
12
12
12
12
12
12
12
12
12
12
12
12
12
12
12
12
12
12
12
12
12
12
12
12
12
12
12
12
12
12
12
12
12
12
12
12
12
12
12
12
12
12
12
12
12
12
12
12
12
12
12
12
12
12
12
12
12
12
12
12
12
12
12
12
12
12
12
12
12
12
12
12
12
12
12
12
12
12
12
12
12
12
12
12
12
12
12
12
12
12
12
12
12
12
12
12
12
12
12
12
12
12
12
12
12
12
12
12
12
12
12
12
12
12
12
12
12
12
12
12
12
12
12
12
12
12
12
12
12
12
12
12
12
12
12
12
12
12
12
12
12
12
12
12
12
12
12
12
12
12
12
12
12
12
12
12
12
12
12
12
12
12
12
12
12
12
12
12
12
12
12
12
12
12
12
12
12
12
12
12
12
12
12
12
12
12
12
12
12
12
12
12
12
12
12
12
12
12
12
12
12
12
12
12
12
12
12
12
12
12
12
12
12
12
12
12
12
12
12
12
12
12
12
12
12
12
12
12
12
12
12
12
12
12
12
12
12
12
12
12
12
12
12
12
12
12
12
12
12
12
12
12
12
12
12
12
12
12
12
12
12
12
12
12
12
12
12
12
12
12
12
12
12
12
12
12
12
12
12
12
12
12
12
12
12
12
12
12
12
12
12
12
12
12
12
12
12
12
12
12
12
12
12
12
12
12
12
12
12
12
12
12
12
12
12
12
12
12
12
12
12
12
12
12
12
12
12
12
12
12
12
12
12
12
12
12
12
12
12
12
12
12
12
12
12
12
12
12
12
12
12
12
12
12
12
12
12
12
12
12
12
12
12
12
12
12
12
12
12
12
12
12
12
12
12
12
12
12
12
12
12
12
12
12
12
12
12
12
12
12
12
12
12
12
12
12
12
12
12
12
12
12
12
12
12
12
12
12
12
12
12
12
12
12
12
12
12
12
12
12
12
12
12
12
12
12
12
12
12
12
12
12
12
12
12
12
12
12
12
12
12
12
12
12
12
12
12
12
12
12
12
12
12
12
12
12
12
12
12
12
12
12
12
12
12
12
12
12
12
12
12
12
12
12
12
12
12
12
12
12
12
12
12
12
12
12
12
12
12
12
12
12
12
12
12
12
12
12
12
12
12
12
12
12
12
12
12
12
12
12
12
12
12
12
12
12
12
12
12
12
12
12
12
12
12
12
12
12
12
12
12
12
12
12
12
12
12
12
12
12
12
12
12
12
12
12
12
12
12
12
12
12
12
12
12
12
12
12
12
12
12
12
12
12
12
12
12
12
12
12
12
12
12
12
12
12
12
12
12
12
12
12
12
12
12
12
12
12
12
12
12
12
12
12
12
12
12
12
12
12
12
12
12
12
12
12
12
12
12
12
12
12
12
12
12
12
12
12
12
12
12
12
12
12
12
12
12
12
12
12
12
12
12
12
12
12
12
12
12
12
12
12
12
12
12
12
12
12
12
12
12
12
12
12
12
12
12
12
12
12
12
12
12
12
12
12
12
12
12
12
12
12
12
12
12
12
12
12
12
12
12
12
12
12
12
12
12
12
12
12
12
12
12
12
12
12
12
12
12
12
12
12
12
12
12
12
12
12
12
12
12
12
12
12
12
12
12
12
12
12
12
12
12
12
12
12
12
12
12
12
12
12
12
12
12
12
12
12
12
12
12
12
12
12
12
12
12
12
12
12
12
12
12
12
12
12
12
12
12
12
12
12
12
12
12
12
12
12
12
12
12
12
12
12
12
12
12
12
12
12
12
12
12
12
12
12
12
12
12
12
12
12
12
12
12
12
12
12
12
12
12
12
12
12
12
12
12
12
12
12
12
12
12
12
12
12
12
12
12
12
12
12
12
12
12
12
12
12
12
12
12
12
12
12
12
12
12
12
12
12
12
12
12
12
12
12
12
12
12
12
12
12
12
12
12
12
12
12
12
12
12
12
12
12
12
12
12
12
12
12
12
12
12
12
12
12
12
12
12
12
12
12
12
12
12
12
12
12
12
12
12
12
12
12
12
12
12
12
12
12
12
12
12
12
12
12
12
12
12
12
12
12
12
12
12
12
12
12
12
12
12
12
12
12
12
12
12
12
12
12
12
12
12
12
12
12
12
12
12
12
12
12
12
12
12
12
12
12
12
12
12
12
12
12
12
12
12
12
12
12
12
12
12
12
12
12
12
12
12
12
12
12
12
12
12
12
12
12
12
12
12
12
12
12
12
12
12
12
12
12
12
12
12
12
12
12
12
12
12
12
12
12
12
12
12
12
12
12
12
12
12
12
12
12
12
12
12
12
12
12
12
12
12
12
12
12
12
12
12
12
12
12
12
12
12
12
12
12
12
12
12
12
12
12
12
12
12
12
12
12
12
12
12
12
12
12
12
12
12
12
12
12
12
12
12
12
12
12
12
12
12
12
12
12
12
12
12
12
12
12
12
12
12
12
12
12
12
12
12
12
12
12
12
12
12
12
12
12
12
12
12
12
12
12
12
12
12
12
12
12
12
12
12
12
12
12
12
12
12
12
12
12
12
12
12
12
12
12
12
12
12
12
12
12
12
12
12
12
12
12
12
12
12
12
12
12
12
12
12
12
12
12
12
12
12
12
12
12
12
12
12
12
12
12
12
12
12
12
12
12
12
12
12
12
12
12
12
12
12
12
12
12
12
12
12
12
12
12
12
12
12
12
12
12
12
12
12
12
12
12
12
12
12
12
12
12
12
12
12
12
12
12
12
12
12
12
12
12
12
12
12
12
12
12
12
12
12
12
12
12
12
12
12
12
12
12
12
12
12
12
12
12
12
12
12
12
12
12
12
12
12
12
12
12
12
12
12
12
12
12
12
12
12
12
12
12
12
12
12
12
12
12
12
12
12
12
12
12
12
12
12
12
12
12
12
12
12
12
12
12
12
12
12
12
12
12
12
12
12
12
12
12
12
12
12
12
12
12
12
12
12
12
12
12
12
12
12
12
12
12
12
12
12
12
12
12
12
12
12
12
12
12
12
12
12
12
12
12
12
12
12
12
12
12
12
12
12
12
12
12
12
12
12
12
12
12
12
12
12
12
12
12
12
12
12
12
12
12
12
12
12
12
12
12
12
12
12
12
12
12
12
12
12
12
12
12
12
12
12
12
12
12
12
12
12
12
12
12
12
12
12
12
12
12
12
12
12
12
12
12
12
12
12
12
12
12
12
12
12
12
12
12
12
12
12
12
12
12
12
12
12
12
12
12
12
12
12
12
12
12
12
12
12
12
12
12
12
12
12
12
12
12
12
12
12
12
12
12
12
12
12
12
12
12
12
12
12
12
12
12
12
12
12
12
12
12
12
12
12
12
12
12
12
12
12
12
12
12
12
12
12
12
12
12
12
12
12
12
12
12
12
12
12
12
12
12
12
12
12
12
12
12
12
12
12
12
12
12
12
12
12
12
12
12
12
12
12
12
12
12
12
12
12
12
12
12
12
12
12
12
12
12
12
12
12
12
12
12
12
12
12
12
12
12
12
12
12
12
12
12
12
12
12
12
12
12
12
12
12
12
12
12
12
12
12
12
12
12
12
12
12
12
12
12
12
12
12
12
12
12
12
12
12
12
12
12
12
12
12
12
12
12
12
12
12
12
12
12
12
12
12
12
12
12
12
12
12
12
12
12
12
12
12
12
12
12
12
12
12
12
12
12
12
12
12
12
12
12
12
12
12
12
12
12
12
12
12
12
12
12
12
12
12
12
12
12
12
12
12
12
12
12
12
12
12
12
12
12
12
12
12
12
12
12
12
12
12
12
12
12
12
12
12
12
12
12
12
12
12
12
12
12
12
12
12
12
12
12
12
12
12
12
12
12
12
12
12
12
12
12
12
12
12
12
12
12
12
12
12
12
12
12
12
12
12
12
12
12
12
12
12
12
12
12
12
12
12
12
12
12
12
12
12
12
12
12
12
12
12
12
12
12
12
12
12
12
12
12
12
12
12
12
12
12
12
12
12
12
12
12
12
12
12
12
12
12
12
12
12
12
12
12
12
12
12
12
12
12
12
12
12
12
12
12
12
12
12
12
12
12
12
12
12
12
12
12
12
12
12
12
12
12
12
12
12
12
12
12
12
12
12
12
12
12
12
12
12
12
12
12
12
12
12
12
12
12
12
12
12
12
12
12
12
12
12
12
12
12
12
12
12
12
12
12
12
12
12
12
12
12
12
12
12
12
12
12
12
12
12
12
12
12
12
12
12
12
12
12
12
12
12
12
12
12
12
12
12
12
12
12
12
12
12
12
12
12
12
12
12
12
12
12
12
12
12
12
12
12
12
12
12
12
12
12
12
12
12
12
12
12
12
12
12
12
12
12
12
12
12
12
12
12
12
12
12
12
12
12
12
12
12
12
12
12
12
12
12
12
12
12
12
12
12
12
12
12
12
12
12
12
12
12
12
12
12
12
12
12
12
12
12
12
12
12
12
12
12
12
12
12
12
12
12
12
12
12
12
12
12
12
12
12
12
12
12
12
12
12
12
12
12
12
12
12
12
12
12
12
12
12
12
12
12
12
12
12
12
12
12
12
12
12
12
12
12
12
12
12
12
12
12
12
12
12
12
12
12
12
12
12
12
12
12
12
12
12
12
12
12
12
12
12
12
12
12
12
12
12
12
12
12
12
12
12
12
12
12
12
12
12
12
12
12
12
12
12
12
12
12
12
12
12
12
12
12
12
12
12
12
12
12
12
12
12
12
12
12
12
12
12
12
12
12
12
12
12
12
12
12
12
12
12
12
12
12
12
12
12
12
12
12
12
12
12
12
12
12
12
12
12
12
12
12
12
12
12
12
12
12
12
12
12
12
12
12
12
12
12
12
12
12
12
12
12
12
12
12
12
12
12
12
12
12
12
12
12
12
12
12
12
12
12
12
12
12
12
12
12
12
12
12
12
12
12
12
12
12
12
12
12
12
12
12
12
12
12
12
12
12
12
12
12
12
12
12
12
12
12
12
12
12
12
12
12
12
12
12
12
12
12
12
12
12
12
12
12
12
12
12
12
12
12
12
12
12
12
12
12
12
12
12
12
12
12
12
12
12
12
12
12
12
12
12
12
12
12
12
12
12
12
12
12
12
12
12
12
12
12
12
12
12
12
12
12
12
12
12
12
12
12
12
12
12
12
12
12
12
12
12
12
12
12
12
12
12
12
12
12
12
12
12
12
12
12
12
12
12
12
12
12
12
12
12
12
12
12
12
12
12
12
12
12
12
12
12
12
12
12
12
12
12
12
12
12
12
12
12
12
12
12
12
12
12
12
12
12
12
12
12
12
12
12
12
12
12
12
12
12
12
12
12
12
12
12
12
12
12
12
12
12
12
12
12
12
12
12
12
12
12
12
12
12
12
12
12
12
12
12
12
12
12
12
12
12
12
12
12
12
12
12
12
12
12
12
12
12
12
12
12
12
12
12
12
12
12
12
12
12
12
12
12
12
12
12
12
12
12
12
12
12
12
12
12
12
12
12
12
12
12
12
12
12
12
12
12
12
12
12
12
12
12
12
12
12
12
12
12
12
12
12
12
12
12
12
12
12
12
12
12
12
12
12
12
12
12
12
12
12
12
12
12
12
12
12
12
12
12
12
12
12
12
12
12
12
12
12
12
12
12
12
12
12
12
12
12
12
12
12
12
12
12
12
12
12
12
12
12
12
12
12
12
12
12
12
12
12
12
12
12
12
12
12
12
12
12
12
12
12
12
12
12
12
12
12
12
12
12
12
12
12
12
12
12
12
12
12
12
12
12
12
12
12
12
12
12
12
12
12
12
12
12
12
12
12
12
12
12
12
12
12
12
12
12
12
12
12
12
12
12
12
12
12
12
12
12
12
12
12
12
12
12
12
12
12
12
12
12
12
12
12
12
12
12
12
12
12
12
12
12
12
12
12
12
12
12
12
12
12
12
12
12
12
12
12
12
12
12
12
12
12
12
12
12
12
12
12
12
12
12
12
12
12
12
12
12
12
12
12
12
12
12
12
12
12
12
12
12
12
12
12
12
12
12
12
12
12
12
12
12
12
12
12
12
12
12
12
12
12
12
12
12
12
12
12
12
12
12
12
12
12
12
12
12
12
12
12
12
12
12
12
12
12
12
12
12
12
12
12
12
12
12
12
12
12
12
12
12
12
12
12
12
12
12
12
12
12
12
12
12
12
12
12
12
12
12
12
12
12
12
12
12
12
12
12
12
12
12
12
12
12
12
12
12
12
12
12
12
12
12
12
12
12
12
12
12
12
12
12
12
12
12
12
12
12
12
12
12
12
12
12
12
12
12
12
12
12
12
12
12
12
12
12
12
12
12
12
12
12
12
12
12
12
12
12
12
12
12
12
12
12
12
12
12
12
12
12
12
12
12
12
12
12
12
12
12
12
12
12
12
12
12
12
12
12
12
12
12
12
12
12
12
12
12
12
12
12
12
12
12
12
12
12
12
12
12
12
12
12
12
12
12
12
12
12
12
12
12
12
12
12
12
12
12
12
12
12
12
12
12
12
12
12
12
12
12
12
12
12
12
12
12
12
12
12
12
12
12
12
12
12
12
12
12
12
12
12
12
12
12
12
12
12
12
12
12
12
12
12
12
12
12
12
12
12
12
12
12
12
12
12
12
12
12
12
12
12
12
12
12
12
12
12
12
12
12
12
12
12
12
12
12
12
12
12
12
12
12
12
12
12
12
12
12
12
12
12
12
12
12
12
12
12
12
12
12
12
12
12
12
12
12
12
12
12
12
12
12
12
12
12
12
12
12
12
12
12
12
12
12
12
12
12
12
12
12
12
12
12
12
12
12
12
12
12
12
12
12
12
12
12
12
12
12
12
12
12
12
12
12
12
12
12
12
12
12
12
12
12
12
12
12
12
12
12
12
12
12
12
12
12
12
12
12
12
12
12
12
12
12
12
12
12
12
12
12
12
12
12
12
12
12
12
12
12
12
12
12
12
12
12
12
12
12
12
12
12
12
12
12
12
12
12
12
12
12
12
12
12
12
12
12
12
12
12
12
12
12
12
12
12
12
12
12
12
12
12
12
12
12
12
12
12
12
12
12
12
12
12
12
12
12
12
12
12
12
12
12
12
12
12
12
12
12
12
12
12
12
12
12
12
12
12
12
12
12
12
12
12
12
12
12
12
12
12
12
12
12
12
12
12
12
12
12
12
12
12
12
12
12
12
12
12
12
12
12
12
12
12
12
12
12
12
12
12
12
12
12
12
12
12
12
12
12
12
12
12
12
12
12
12
12
12
12
12
12
12
12
12
12
12
12
12
12
12
12
12
12
12
12
12
12
12
12
12
12
12
12
12
12
12
12
12
12
12
12
12
12
12
12
12
12
12
12
12
12
12
12
12
12
12
12
12
12
12
12
12
12
12
12
12
12
12
12
12
12
12
12
12
12
12
12
12
12
12
12
12
12
12
12
12
12
12
12
12
12
12
12
12
12
12
12
12
12
12
12
12
12
12
12
12
12
12
12
12
12
12
12
12
12
12
12
12
12
12
12
12
12
12
12
12
12
12
12
12
12
12
12
12
12
12
12
12
12
12
12
12
12
12
12
12
12
12
12
12
12
12
12
12
12
12
12
12
12
12
12
12
12
12
12
12
12
12
12
12
12
12
12
12
12
12
12
12
12
12
12
12
12
12
12
12
12
12
12
12
12
12
12
12
12
12
12
12
12
12
12
12
12
12
12
12
12
12
12
12
12
12
12
12
12
12
12
12
12
12
12
12
12
12
12
12
12
12
12
12
12
12
12
12
12
12
12
12
12
12
12
12
12
12
12
12
12
12
12
12
12
12
12
12
12
12
12
12
12
12
12
12
12
12
12
12
12
12
12
12
12
12
12
12
12
12
12
12
12
12
12
12
12
12
12
12
12
12
12
12
12
12
12
12
12
12
12
12
12
12
12
12
12
12
12
12
12
12
12
12
12
12
12
12
12
12
12
12
12
12
12
12
12
12
12
12
12
12
12
12
12
12
12
12
12
12
12
12
12
12
12
12
12
12
12
12
12
12
12
12
12
12
12
12
12
12
12
12
12
12
12
12
12
12
12
12
12
12
12
12
12
12
12
12
12
12
12
12
12
12
12
12
12
12
12
12
12
12
12
12
12
12
12
12
12
12
12
12
12
12
12
12
12
12
12
12
12
12
12
12
12
12
12
12
12
12
12
12
12
12
12
12
12
12
12
12
12
12
12
12
12
12
12
12
12
12
12
12
12
12
12
12
12
12
12
12
12
12
12
12
12
12
12
12
12
12
12
12
12
12
12
12
12
12
12
12
12
12
12
12
12
12
12
12
12
12
12
12
12
12
12
12
12
12
12
12
12
12
12
12
12
12
12
12
12
12
12
12
12
12
12
12
12
12
12
12
12
12
12
12
12
12
12
12
12
12
12
12
12
12
12
12
12
12
12
12
12
12
12
12
12
12
12
12
12
12
12
12
12
12
12
12
12
12
12
12
12
12
12
12
12
12
12
12
12
12
12
12
12
12
12
12
12
12
12
12
12
12
12
12
12
12
12
12
12
12
12
12
12
12
12
12
12
12
12
12
12
12
12
12
12
12
12
12
12
12
12
12
12
12
12
12
12
12
12
12
12
12
12
12
12
12
12
12
12
12
12
12
12
12
12
12
12
12
12
12
12
12
12
12
12
12
12
12
12
12
12
12
12
12
12
12
12
12
12
12
12
12
12
12
12
12
12
12
12
12
12
12
12
12
12
12
12
12
12
12
12
12
12
12
12
12
12
12
12
12
12
12
12
12
12
12
12
12
12
12
12
12
12
12
12
12
12
12
12
12
12
12
12
12
12
12
12
12
12
12
12
12
12
12
12
12
12
12
12
12
12
12
12
12
12
12
12
12
12
12
12
12
12
12
12
12
12
12
12
12
12
12
12
12
12
12
12
12
12
12
12
12
12
12
12
12
12
12
12
12
12
12
12
12
12
12
12
12
12
12
12
12
12
12
12
12
12
12
12
12
12
12
12
12
12
12
12
12
12
12
12
12
12
12
12
12
12
12
12
12
12
12
12
12
12
12
12
12
12
12
12
12
12
12
12
12
12
12
12
12
12
12
12
12
12
12
12
12
12
12
12
12
12
12
12
12
12
12
12
12
12
12
12
12
12
12
12
12
12
12
12
12
12
12
12
12
12
12
12
12
12
12
12
12
12
12
12
12
12
12
12
12
12
12
12
12
12
12
12
12
12
12
12
12
12
12
12
12
12
12
12
12
12
12
12
12
12
12
12
12
12
12
12
12
12
12
12
12
12
12
12
12
12
12
12
12
12
12
12
12
12
12
12
12
12
12
12
12
12
12
12
12
12
12
12
12
12
12
12
12
12
12
12
12
12
12
12
12
12
12
12
12
12
12
12
12
12
12
12
12
12
12
12
12
12
12
12
12
12
12
12
12
12
12
12
12
12
12
12
12
12
12
12
12
12
12
12
12
12
12
12
12
12
12
12
12
12
12
12
12
12
12
12
12
12
12
12
12
12
12
12
12
12
12
12
12
12
12
12
12
12
12
12
12
12
12
12
12
12
12
12
12
12
12
12
12
12
12
12
12
12
12
12
12
12
12
12
12
12
12
12
12
12
12
12
12
12
12
12
12
12
12
12
12
12
12
12
12
12
12
12
12
12
12
12
12
12
12
12
12
12
12
12
12
12
12
12
12
12
12
12
12
12
12
12
12
12
12
12
12
12
12
12
12
12
12
12
12
12
12
12
12
12
12
12
12
12
12
12
12
12
12
12
12
12
12
12
12
12
12
12
12
12
12
12
12
12
12
12
12
12
12
12
12
12
12
12
12
12
12
12
12
12
12
12
12
12
12
12
12
12
12
12
12
12
12
12
12
12
12
12
12
12
12
12
12
12
12
12
12
12
12
12
12
12
12
12
12
12
12
12
12
12
12
12
12
12
12
12
12
12
12
12
12
12
12
12
12
12
12
12
12
12
12
12
12
12
12
12
12
12
12
12
12
12
12
12
12
12
12
12
12
12
12
12
12
12
12
12
12
12
12
12
12
12
12
12
12
12
12
12
12
12
12
12
12
12
12
12
12
12
12
12
12
12
12
12
12
12
12
12
12
12
12
12
12
12
12
12
12
12
12
12
12
12
12
12
12
12
12
12
12
12
12
12
12
12
12
12
12
12
12
12
12
12
12
12
12
12
12
12
12
12
12
12
12
12
12
12
12
12
12
12
12
12
12
12
12
12
12
12
12
12
12
12
12
12
12
12
12
12
12
12
12
12
12
12
12
12
12
12
12
12
12
12
12
12
12
12
12
12
12
12
12
12
12
12
12
12
12
12
12
12
12
12
12
12
12
12
12
12
12
12
12
12
12
12
12
12
12
12
12
12
12
12
12
12
12
12
12
12
12
12
12
12
12
12
12
12
12
12
12
12
12
12
12
12
12
12
12
12
12
12
12
12
12
12
12
12
12
12
12
12
12
12
12
12
12
12
12
12
12
12
12
12
12
12
12
12
12
12
12
12
12
12
12
12
12
12
12
12
12
12
12
12
12
12
12
12
12
12
12
12
12
12
12
12
12
12
12
12
12
12
12
12
12
12
12
12
12
12
12
12
12
12
12
12
12
12
12
12
12
12
12
12
12
12
12
12
12
12
12
12
12
12
12
12
12
12
12
12
12
12
12
12
12
12
12
12
12
12
12
12
12
12
12
12
12
12
12
12
12
12
12
12
12
12
12
12
12
12
12
12
12
12
12
12
12
12
12
12
12
12
12
12
12
12
12
12
12
12
12
12
12
12
12
12
12
12
12
12
12
12
12
12
12
12
12
12
12
12
12
12
12
12
12
12
12
12
12
12
12
12
12
12
12
12
12
12
12
12
12
12
12
12
12
12
12
12
12
12
12
12
12
12
12
12
12
12
12
12
12
12
12
12
12
12
12
12
12
12
12
12
12
12
12
12
12
12
12
12
12
12
12
12
12
12
12
12
12
12
12
12
12
12
12
12
12
12
12
12
12
12
12
12
12
12
12
12
12
12
12
12
12
12
12
12
12
12
12
12
12
12
12
12
12
12
12
12
12
12
12
12
12
12
12
12
12
12
12
12
12
12
12
12
12
12
12
12
12
12
12
12
12
12
12
12
12
12
12
12
12
12
12
12
12
12
12
12
12
12
12
12
12
12
12
12
12
12
12
12
12
12
12
12
12
12
12
12
12
12
12
12
12
12
12
12
12
12
12
12
12
12
12
12
12
12
12
12
12
12
12
12
12
12
12
12
12
12
12
12
12
12
12
12
12
12
12
12
12
12
12
12
12
12
12
12
12
12
12
12
12
12
12
12
12
12
12
12
12
12
12
12
12
12
12
12
12
12
12
12
12
12
12
12
12
12
12
12
12
12
12
12
12
12
12
12
12
12
12
12
12
12
12
12
12
12
12
12
12
12
12
12
12
12
12
12
12
12
12
12
12
12
12
12
12
12
12
12
12
12
12
12
12
12
12
12
12
12
12
12
12
12
12
12
12
12
12
12
12
12
12
12
12
12
12
12
12
12
12
12
12
12
12
12
12
12
12
12
12
12
12
12
12
12
12
12
12
12
12
12
12
12
12
12
12
12
12
12
12
12
12
12
12
12
12
12
12
12
12
12
12
12
12
12
12
12
12
12
12
12
12
12
12
12
12
12
12
12
12
12
12
12
12
12
12
12
12
12
12
12
12
12
12
12
12
12
12
12
12
12
12
12
12
12
12
12
12
12
12
12
12
12
12
12
12
12
12
12
12
12
12
12
12
12
12
12
12
12
12
12
12
12
12
12
12
12
12
12
12
12
12
12
12
12
12
12
12
12
12
12
12
12
12
12
12
12
12
12
12
12
12
12
12
12
12
12
12
12
12
12
12
12
12
12
12
12
12
12
12
12
12
12
12
12
12
12
12
12
12
12
12
12
12
12
12
12
12
12
12
12
12
12
12
12
12
12
12
12
12
12
12
12
12
12
12
12
12
12
12
12
12
12
12
12
12
12
12
12
12
12
12
12
12
12
12
12
12
12
12
12
12
12
12
12
12
12
12
12
12
12
12
12
12
12
12
12
12
12
12
12
12
12
12
12
12
12
12
12
12
12
12
12
12
12
12
12
12
12
12
12
12
12
12
12
12
12
12
12
12
12
12
12
12
12
12
12
12
12
12
12
12
12
12
12
12
12
12
12
12
12
12
12
12
12
12
12
12
12
12
12
12
12
12
12
12
12
12
12
12
12
12
12
12
12
12
12
12
12
12
12
12
12
12
12
12
12
12
12
12
12
12
12
12
12
12
12
12
12
12
12
12
12
12
12
12
12
12
12
12
12
12
12
12
12
12
12
12
12
12
12
12
12
12
12
12
12
12
12
12
12
12
12
12
12
12
12
12
12
12
12
12
12
12
12
12
12
12
12
12
12
12
12
12
12
12
12
12
12
12
12
12
12
12
12
12
12
12
12
12
12
12
12
12
12
12
12
12
12
12
12
12
12
12
12
12
12
12
12
12
12
12
12
12
12
12
12
12
12
12
12
12
12
12
12
12
12
12
12
12
12
12
12
12
12
12
12
12
12
12
12
12
12
12
12
12
12
12
12
12
12
12
12
12
12
12
12
12
12
12
12
12
12
12
12
12
12
12
12
12
12
12
12
12
12
12
12
12
12
12
12
12
12
12
12
12
12
12
12
12
12
12
12
12
12
12
12
12
12
12
12
12
12
12
12
12
12
12
12
12
12
12
12
12
12
12
12
12
12
12
12
12
12
12
12
12
12
12
12
12
12
12
12
12
12
12
12
12
12
12
12
12
12
12
12
12
12
12
12
12
12
12
12
12
12
12
12
12
12
12
12
12
12
12
12
12
12
12
12
12
12
12
12
12
12
12
12
12
12
12
12
12
12
12
12
12
12
12
12
12
12
12
12
12
12
12
12
12
12
12
12
12
12
12
12
12
12
12
12
12
12
12
12
12
12
12
12
12
12
12
12
12
12
12
12
12
12
12
12
12
12
12
12
12
12
12
12
12
12
12
12
12
12
12
12
12
12
12
12
12
12
12
12
12
12
12
12
12
12
12
12
12
12
12
12
12
12
12
12
12
12
12
12
12
12
12
12
12
12
12
12
12
12
12
12
12
12
12
12
12
12
12
12
12
12
12
12
12
12
12
12
12
12
12
12
12
12
12
12
12
12
12
12
12
12
12
12
12
12
12
12
12
12
12
12
12
12
12
12
12
12
12
12
12
12
12
12
12
12
12
12
12
12
12
12
12
12
12
12
12
12
12
12
12
12
12
12
12
12
12
12
12
12
12
12
12
12
12
12
12
12
12
12
12
12
12
12
12
12
12
12
12
12
12
12
12
12
12
12
12
12
12
12
12
12
12
12
12
12
12
12
12
12
12
12
12
12
12
12
12
12
12
12
12
12
12
12
12
12
12
12
12
12
12
12
12
12
12
12
12
12
12
12
12
12
12
12
12
12
12
12
12
12
12
12
12
12
12
12
12
12
12
12
12
12
12
12
12
12
12
12
12
12
12
12
12
12
12
12
12
12
12
12
12
12
12
12
12
12
12
12
12
12
12
12
12
12
12
12
12
12
12
12
12
12
12
12
12
12
12
12
12
12
12
12
12
12
12
12
12
12
12
12
12
12
12
12
12
12
12
12
12
12
12
12
12
12
12
12
12
12
12
12
12
12
12
12
12
12
12
12
12
12
12
12
12
12
12
12
12
12
12
12
12
12
12
12
12
12
12
12
12
12
12
12
12
12
12
12
12
12
12
12
12
12
12
12
12
12
12
12
12
12
12
12
12
12
12
12
12
12
12
12
12
12
12
12
12
12
12
12
12
12
12
12
12
12
12
12
12
12
12
12
12
12
12
12
12
12
12
12
12
12
12
12
12
12
12
12
12
12
12
12
12
12
12
12
12
12
12
12
12
12
12
12
12
12
12
12
12
12
12
12
12
12
12
12
12
12
12
12
12
12
12
12
12
12
12
12
12
12
12
12
12
12
12
12
12
12
12
12
12
12
12
12
12
12
12
12
12
12
12
12
12
12
12
12
12
12
12
12
12
12
12
12
12
12
12
12
12
12
12
12
12
12
12
12
12
12
12
12
12
12
12
12
12
12
12
12
12
12
12
12
12
12
12
12
12
12
12
12
12
12
12
12
12
12
12
12
12
12
12
12
12
12
12
12
12
12
12
12
12
12
12
12
12
12
12
12
12
12
12
12
12
12
12
12
12
12
12
12
12
12
12
12
12
12
12
12
12
12
12
12
12
12
12
12
12
12
12
12
12
12
12
12
12
12
12
12
12
12
12
12
12
12
12
12
12
12
12
12
12
12
12
12
12
12
12
12
12
12
12
12
12
12
12
12
12
12
12
12
12
12
12
12
12
12
12
12
12
12
12
12
12
12
12
12
12
12
12
12
12
12
12
12
12
12
12
12
12
12
12
12
12
12
12
12
12
12
12
12
12
12
12
12
12
12
12
12
12
12
12
12
12
12
12
12
12
12
12
12
12
12
12
12
12
12
12
12
12
12
12
12
12
12
12
12
12
12
12
12
12
12
12
12
12
12
12
12
12
12
12
12
12
12
12
12
12
12
12
12
12
12
12
12
12
12
12
12
12
12
12
12
12
12
12
12
12
12
12
12
12
12
12
12
12
12
12
12
12
12
12
12
12
12
12
12
12
12
12
12
12
12
12
12
12
12
12
12
12
12
12
12
12
12
12
12
12
12
12
12
12
12
12
12
12
12
12
12
12
12
12
12
12
12
12
12
12
12
12
12
12
12
12
12
12
12
12
12
12
12
12
12
12
12
12
12
12
12
12
12
12
12
12
12
12
12
12
12
12
12
12
12
12
12
12
12
12
12
12
12
12
12
12
12
12
12
12
12
12
12
12
12
12
12
12
12
12
12
12
12
12
12
12
12
12
12
12
12
12
12
12
12
12
12
12
12
12
12
12
12
12
12
12
12
12
12
12
12
12
12
12
12
12
12
12
12
12
12
12
12
12
12
12
12
12
12
12
12
12
12
12
12
12
12
12
12
12
12
12
12
12
12
12
12
12
12
12
12
12
12
12
12
12
12
12
12
12
12
12
12
12
12
12
12
12
12
12
12
12
12
12
12
12
12
12
12
12
12
12
12
12
12
12
12
12
12
12
12
12
12
12
12
12
12
12
12
12
12
12
12
12
12
12
12
12
12
12
12
12
12
12
12
12
12
12
12
12
12
12
12
12
12
12
12
12
12
12
12
12
12
12
12
12
12
12
12
12
12
12
12
12
12
12
12
12
12
12
12
12
12
12
12
12
12
12
12
12
12
12
12
12
12
12
12
12
12
12
12
12
12
12
12
12
12
12
12
12
12
12
12
12
12
12
12
12
12
12
12
12
12
12
12
12
12
12
12
12
12
12
12
12
12
12
12
12
12
12
12
12
12
12
12
12
12
12
12
12
12
12
12
12
12
12
12
12
12
12
12
12
12
12
12
12
12
12
12
12
12
12
12
12
12
12
12
12
12
12
12
12
12
12
12
12
12
12
12
12
12
12
12
12
12
12
12
12
12
12
12
12
12
12
12
12
12
12
12
12
12
12
12
12
12
12
12
12
12
12
12
12
12
12
12
12
12
12
12
12
12
12
12
12
12
12
12
12
12
12
12
12
12
12
12
12
12
12
12
12
12
12
12
12
12
12
12
12
12
12
12
12
12
12
12
12
12
12
12
12
12
12
12
12
12
12
12
12
12
12
12
12
12
12
12
12
12
12
12
12
12
12
12
12
12
12
12
12
12
12
12
12
12
12
12
12
12
12
12
12
12
12
12
12
12
12
12
12
12
12
12
12
12
12
12
12
12
12
12
12
12
12
12
12
12
12
12
12
12
12
12
12
12
12
12
12
12
12
12
12
12
12
12
12
12
12
12
12
12
12
12
12
12
12
12
12
12
12
12
12
12
12
12
12
12
12
12
12
12
12
12
12
12
12
12
12
12
12
12
12
12
12
12
12
12
12
12
12
12
12
12
12
12
12
12
12
12
12
12
12
12
12
12
12
12
12
12
12
12
12
12
12
12
12
12
12
12
12
12
12
12
12
12
12
12
12
12
12
12
12
12
12
12
12
12
12
12
12
12
12
12
12
12
12
12
12
12
12
12
12
12
12
12
12
12
12
12
12
12
12
12
12
12
12
12
12
12
12
12
12
12
12
12
12
12
12
12
12
12
12
12
12
12
12
12
12
12
12
12
12
12
12
12
12
12
12
12
12
12
12
12
12
12
12
12
12
12
12
12
12
12
12
12
12
12
12
12
12
12
12
12
12
12
12
12
12
12
12
12
12
12
12
12
12
12
12
12
12
12
12
12
12
12
12
12
12
12
12
12
12
12
12
12
12
12
12
12
12
12
12
12
12
12
12
12
12
12
12
12
12
12
12
12
12
12
12
12
12
12
12
12
12
12
12
12
12
12
12
12
12
12
12
12
12
12
12
12
12
12
12
12
12
12
12
12
12
12
12
12
12
12
12
12
12
12
12
12
12
12
12
12
12
12
12
12
12
12
12
12
12
12
12
12
12
12
12
12
12
12
12
12
12
12
12
12
12
12
12
12
12
12
12
12
12
12
12
12
12
12
12
12
12
12
12
12
12
12
12
12
12
12
12
12
12
12
12
12
12
12
12
12
12
12
12
12
12
12
12
12
12
12
12
12
12
12
12
12
12
12
12
12
12
12
12
12
12
12
12
12
12
12
12
12
12
12
12
12
12
12
12
12
12
12
12
12
12
12
12
12
12
12
12
12
12
12
12
12
12
12
12
12
12
12
12
12
12
12
12
12
12
12
12
12
12
12
12
12
12
12
12
12
12
12
12
12
12
12
12
12
12
12
12
12
12
12
12
12
12
12
12
12
12
12
12
12
12
12
12
12
12
12
12
12
12
12
12
12
12
12
12
12
12
12
12
12
12
12
12
12
12
12
12
12
12
12
12
12
12
12
12
12
12
12
12
12
12
12
12
12
12
12
12
12
12
12
12
12
12
12
12
12
12
12
12
12
12
12
12
12
12
12
12
12
12
12
12
12
12
12
12
12
12
12
12
12
12
12
12
12
12
12
12
12
12
12
12
12
12
12
12
12
12
12
12
12
12
12
12
12
12
12
12
12
12
12
12
12
12
12
12
12
12
12
12
12
12
12
12
12
12
12
12
12
12
12
12
12
12
12
12
12
12
12
12
12
12
12
12
12
12
12
12
12
12
12
12
12
12
12
12
12
12
12
12
12
12
12
12
12
12
12
12
12
12
12
12
12
12
12
12
12
12
12
12
12
12
12
12
12
12
12
12
12
12
12
12
12
12
12
12
12
12
12
12
12
12
12
12
12
12
12
12
12
12
12
12
12
12
12
12
12
12
12
12
12
12
12
12
12
12
12
12
12
12
12
12
12
12
12
12
12
12
12
12
12
12
12
12
12
12
12
12
12
12
12
12
12
12
12
12
12
12
12
12
12
12
12
12
12
12
12
12
12
12
12
12
12
12
12
12
12
12
12
12
12
12
12
12
12
12
12
12
12
12
12
12
12
12
12
12
12
12
12
12
12
12
12
12
12
12
12
12
12
12
12
12
12
12
12
12
12
12
12
12
12
12
12
12
12
12
12
12
12
12
12
12
12
12
12
12
12
12
12
12
12
12
12
12
12
12
12
12
12
12
12
12
12
12
12
12
12
12
12
12
12
12
12
12
12
12
12
12
12
12
12
12
12
12
12
12
12
12
12
12
12
12
12
12
12
12
12
12
12
12
12
12
12
12
12
12
12
12
12
12
12
12
12
12
12
12
12
12
12
12
12
12
12
12
12
12
12
12
12
12
12
12
12
12
12
12
12
12
12
12
12
12
12
12
12
12
12
12
12
12
12
12
12
12
12
12
12
12
12
12
12
12
12
12
12
12
12
12
12
12
12
12
12
12
12
12
12
12
12
12
12
12
12
12
12
12
12
12
12
12
12
12
12
12
12
12
12
12
12
12
12
12
12
12
12
12
12
12
12
12
12
12
12
12
12
12
12
12
12
12
12
12
12
12
12
12
12
12
12
12
12
12
12
12
12
12
12
12
12
12
12
12
12
12
12
12
12
12
12
12
12
12
12
12
12
12
12
12
12
12
12
12
12
12
12
12
12
12
12
12
12
12
12
12
12
12
12
12
12
12
12
12
12
12
12
12
12
12
12
12
12
12
12
12
12
12
12
12
12
12
12
12
12
12
12
12
12
12
12
12
12
12
12
12
12
12
12
12
12
12
12
12
12
12
12
12
12
12
12
12
12
12
12
12
12
12
12
12
12
12
12
12
12
12
12
12
12
12
12
12
12
12
12
12
12
12
12
12
12
12
12
12
12
12
12
12
12
12
12
12
12
12
12
12
12
12
12
12
12
12
12
12
12
12
12
12
12
12
12
12
12
12
12
12
12
12
12
12
12
12
12
12
12
12
12
12
12
12
12
12
12
12
12
12
12
12
12
12
12
12
12
12
12
12
12
12
12
12
12
12
12
12
12
12
12
12
12
12
12
12
12
12
12
12
12
12
12
12
12
12
12
12
12
12
12
12
12
12
12
12
12
12
12
12
12
12
12
12
12
12
12
12
12
12
12
12
12
12
12
12
12
12
12
12
12
12
12
12
12
12
12
12
12
12
12
12
12
12
12
12
12
12
12
12
12
12
12
12
12
12
12
12
12
12
12
12
12
12
12
12
12
12
12
12
12
12
12
12
12
12
12
12
12
12
12
12
12
12
12
12
12
12
12
12
12
12
12
12
12
12
12
12
12
12
12
12
12
12
12
12
12
12
12
12
12
12
12
12
12
12
12
12
12
12
12
12
12
12
12
12
12
12
12
12
12
12
12
12
12
12
12
12
12
12
12
12
12
12
12
12
12
12
12
12
12
12
12
12
12
12
12
12
12
12
12
12
12
12
12
12
12
12
12
12
12
12
12
12
12
12
12
12
12
12
12
12
12
12
12
12
12
12
12
12
12
12
12
12
12
12
12
12
12
12
12
12
12
12
12
12
12
12
12
12
12
12
12
12
12
12
12
12
12
12
12
12
12
12
12
12
12
12
12
12
12
12
12
12
12
12
12
12
12
12
12
12
12
12
12
12
12
12
12
12
12
12
12
12
12
12
12
12
12
12
12
12
12
12
12
12
12
12
12
12
12
12
12
12
12
12
12
12
12
12
12
12
12
12
12
12
12
12
12
12
12
12
12
12
12
12
12
12
12
12
12
12
12
12
12
12
12
12
12
12
12
12
12
12
12
12
12
12
12
12
12
12
12
12
12
12
12
12
12
12
12
12
12
12
12
12
12
12
12
12
12
12
12
12
12
12
12
12
12
12
12
12
12
12
12
12
12
12
12
12
12
12
12
12
12
12
12
12
12
12
12
12
12
12
12
12
12
12
12
12
12
12
12
12
12
12
12
12
12
12
12
12
12
12
12
12
12
12
12
12
12
12
12
12
12
12
12
12
12
12
12
12
12
12
12
12
12
12
12
12
12
12
12
12
12
12
12
12
12
12
12
12
12
12
12
12
12
12
12
12
12
12
12
12
12
12
12
12
12
12
12
12
12
12
12
12
12
12
12
12
12
12
12
12
12
12
12
12
12
12
12
12
12
12
12
12
12
12
12
12
12
12
12
12
12
12
12
12
12
12
12
12
12
12
12
12
12
12
12
12
12
12
12
12
12
12
12
12
12
12
12
12
12
12
12
12
12
12
12
12
12
12
12
12
12
12
12
12
12
12
12
12
12
12
12
12
12
12
12
12
12
12
12
12
12
12
12
12
12
12
12
12
12
12
12
12
12
12
12
12
12
12
12
12
12
12
12
12
12
12
12
12
12
12
12
12
12
12
12
12
12
12
12
12
12
12
12
12
12
12
12
12
12
12
12
12
12
12
12
12
12
12
12
12
12
12
12
12
12
12
12
12
12
12
12
12
12
12
12
12
12
12
12
12
12
12
12
12
12
12
12
12
12
12
12
12
12
12
12
12
12
12
12
12
12
12
12
12
12
12
12
12
12
12
12
12
12
12
12
12
12
12
12
12
12
12
12
12
12
12
12
12
12
12
12
12
12
12
12
12
12
12
12
12
12
12
12
12
12
12
12
12
12
12
12
12
12
12
12
12
12
12
12
12
12
12
12
12
12
12
12
12
12
12
12
12
12
12
12
12
12
12
12
12
12
12
12
12
12
12
12
12
12
12
12
12
12
12
12
12
12
12
12
12
12
12
12
12
12
12
12
12
12
12
12
12
12
12
12
12
12
12
12
12
12
12
12
12
12
12
12
12
12
12
12
12
12
12
12
12
12
12
12
12
12
12
12
12
12
12
12
12
12
12
12
12
12
12
12
12
12
12
12
12
12
12
12
12
12
12
12
12
12
12
12
12
12
12
12
12
12
12
12
12
12
12
12
12
12
12
12
12
12
12
12
12
12
12
12
12
12
12
12
12
12
12
12
12
12
12
12
12
12
12
12
12
12
12
12
12
12
12
12
12
12
12
12
12
12
12
12
12
12
12
12
12
12
12
12
12
12
12
12
12
12
12
12
12
12
12
12
12
12
12
12
12
12
12
12
12
12
12
12
12
12
12
12
12
12
12
12
12
12
12
12
12
12
12
12
12
12
12
12
12
12
12
12
12
12
12
12
12
12
12
12
12
12
12
12
12
12
12
12
12
12
12
12
12
12
12
12
12
12
12
12
12
12
12
12
12
12
12
12
12
12
12
12
12
12
12
12
12
12
12
12
12
12
12
12
12
12
12
12
12
12
12
12
12
12
12
12
12
12
12
12
12
12
12
12
12
12
12
12
12
12
12
12
12
12
12
12
12
12
12
12
12
12
12
12
12
12
12
12
12
12
12
12
12
12
12
12
12
12
12
12
12
12
12
12
12
12
12
12
12
12
12
12
12
12
12
12
12
12
12
12
12
12
12
12
12
12
12
12
12
12
12
12
12
12
12
12
12
12
12
12
12
12
12
12
12
12
12
12
12
12
12
12
12
12
12
12
12
12
12
12
12
12
12
12
12
12
12
12
12
12
12
12
12
12
12
12
12
12
12
12
12
12
12
12
12
12
12
12
12
12
12
12
12
12
12
12
12
12
12
12
12
12
12
12
12
12
12
12
12
12
12
12
12
12
12
12
12
12
12
12
12
12
12
12
12
12
12
12
12
12
12
12
12
12
12
12
12
12
12
12
12
12
12
12
12
12
12
12
12
12
12
12
12
12
12
12
12
12
12
12
12
12
12
12
12
12
12
12
12
12
12
12
12
12
12
12
12
12
12
12
12
12
12
12
12
12
12
12
12
12
12
12
12
12
12
12
12
12
12
12
12
12
12
12
12
12
12
12
12
12
12
12
12
12
12
12
12
12
12
12
12
12
12
12
12
12
12
12
12
12
12
12
12
12
12
12
12
12
12
12
12
12
12
12
12
12
12
12
12
12
12
12
12
12
12
12
12
12
12
12
12
12
12
12
12
12
12
12
12
12
12
12
12
12
12
12
12
12
12
12
12
12
12
12
12
12
12
12
12
12
12
12
12
12
12
12
12
12
12
12
12
12
12
12
12
12
12
12
12
12
12
12
12
12
12
12
12
12
12
12
12
12
12
12
12
12
12
12
12
12
12
12
12
12
12
12
12
12
12
12
12
12
12
12
12
12
12
12
12
12
12
12
12
12
12
12
12
12
12
12
12
12
12
12
12
12
12
12
12
12
12
12
12
12
12
12
12
12
12
12
12
12
12
12
12
12
12
12
12
12
12
12
12
12
12
12
12
12
12
12
12
12
12
12
12
12
12
12
12
12
12
12
12
12
12
12
12
12
12
12
12
12
12
12
12
12
12
12
12
12
12
12
12
12
12
12
12
12
12
12
12
12
12
12
12
12
12
12
12
12
12
12
12
12
12
12
12
12
12
12
12
12
12
12
12
12
12
12
12
12
12
12
12
12
12
12
12
12
12
12
12
12
12
12
12
12
12
12
12
12
12
12
12
12
12
12
12
12
12
12
12
12
12
12
12
12
12
12
12
12
12
12
12
12
12
12
12
12
12
12
12
12
12
12
12
12
12
12
12
12
12
12
12
12
12
12
12
12
12
12
12
12
12
12
12
12
12
12
12
12
12
12
12
12
12
12
12
12
12
12
12
12
12
12
12
12
12
12
12
12
12
12
12
12
12
12
12
12
12
12
12
12
12
12
12
12
12
12
12
12
12
12
12
12
12
12
12
12
12
12
12
12
12
12
12
12
12
12
12
12
12
12
12
12
12
12
12
12
12
12
12
12
12
12
12
12
12
12
12
12
12
12
12
12
12
12
12
12
12
12
12
12
12
12
12
12
12
12
12
12
12
12
12
12
12
12
12
12
12
12
12
12
12
12
12
12
12
12
12
12
12
12
12
12
12
12
12
12
12
12
12
12
12
12
12
12
12
12
12
12
12
12
12
12
12
12
12
12
12
12
12
12
12
12
12
12
12
12
12
12
12
12
12
12
12
12
12
12
12
12
12
12
12
12
12
12
12
12
12
12
12
12
12
12
12
12
12
12
12
12
12
12
12
12
12
12
12
12
12
12
12
12
12
12
12
12
12
12
12
12
12
12
12
12
12
12
12
12
12
12
12
12
12
12
12
12
12
12
12
12
12
12
12
12
12
12
12
12
12
12
12
12
12
12
12
12
12
12
12
12
12
12
12
12
12
12
12
12
12
12
12
12
12
12
12
12
12
12
12
12
12
12
12
12
12
12
12
12
12
12
12
12
12
12
12
12
12
12
12
12
12
12
12
12
12
12
12
12
12
12
12
12
12
12
12
12
12
12
12
12
12
12
12
12
12
12
12
12
12
12
12
12
12
12
12
12
12
12
12
12
12
12
12
12
12
12
12
12
12
12
12
12
12
12
12
12
12
12
12
12
12
12
12
12
12
12
12
12
12
12
12
12
12
12
12
12
12
12
12
12
12
12
12
12
12
12
12
12
12
12
12
12
12
12
12
12
12
12
12
12
12
12
12
12
12
12
12
12
12
12
12
12
12
12
12
12
12
12
12
12
12
12
12
12
12
12
12
12
12
12
12
12
12
12
12
12
12
12
12
12
12
12
12
12
12
12
12
12
12
12
12
12
12
12
12
12
12
12
12
12
12
12
12
12
12
12
12
12
12
12
12
12
12
12
12
12
12
12
12
12
12
12
12
12
12
12
12
12
12
12
12
12
12
12
12
12
12
12
12
12
12
12
12
12
12
12
12
12
12
12
12
12
12
12
12
12
12
12
12
12
12
12
12
12
12
12
12
12
12
12
12
12
12
12
12
12
12
12
12
12
12
12
12
12
12
12
12
12
12
12
12
12
12
12
12
12
12
12
12
12
12
12
12
12
12
12
12
12
12
12
12
12
12
12
12
12
12
12
12
12
12
12
12
12
12
12
12
12
12
12
12
12
12
12
12
12
12
12
12
12
12
12
12
12
12
12
12
12
12
12
12
12
12
12
12
12
12
12
12
12
12
12
12
12
12
12
12
12
12
12
12
12
12
12
12
12
12
12
12
12
12
12
12
12
12
12
12
12
12
12
12
12
12
12
12
12
12
12
12
12
12
12
12
12
12
12
12
12
12
12
12
12
12
12
12
12
12
12
12
12
12
12
12
12
12
12
12
12
12
12
12
12
12
12
12
12
12
12
12
12
12
12
12
12
12
12
12
12
12
12
12
12
12
12
12
12
12
12
12
12
12
12
12
12
12
12
12
12
12
12
12
12
12
12
12
12
12
12
12
12
12
12
12
12
12
12
12
12
12
12
12
12
12
12
12
12
12
12
12
12
12
12
12
12
12
12
12
12
12
12
12
12
12
12
12
12
12
12
12
12
12
12
12
12
12
12
12
12
12
12
12
12
12
12
12
12
12
12
12
12
12
12
12
12
12
12
12
12
12
12
12
12
12
12
12
12
12
12
12
12
12
12
12
12
12
12
12
12
12
12
12
12
12
12
12
12
12
12
12
12
12
12
12
12
12
12
12
12
12
12
12
12
12
12
12
12
12
12
12
12
12
12
12
12
12
12
12
12
12
12
12
12
12
12
12
12
12
12
12
12
12
12
12
12
12
12
12
12
12
12
12
12
12
12
12
12
12
12
12
12
12
12
12
12
12
12
12
12
12
12
12
12
12
12
12
12
12
12
12
12
12
12
12
12
12
12
12
12
12
12
12
12
12
12
12
12
12
12
12
12
12
12
12
12
12
12
12
12
12
12
12
12
12
12
12
12
12
12
12
12
12
12
12
12
12
12
12
12
12
12
12
12
12
12
12
12
12
12
12
12
12
12
12
12
12
12
12
12
12
12
12
12
12
12
12
12
12
12
12
12
12
12
12
12
12
12
12
12
12
12
12
12
12
12
12
12
12
12
12
12
12
12
12
12
12
12
12
12
12
12
12
12
12
12
12
12
12
12
12
12
12
12
12
12
12
12
12
12
12
12
12
12
12
12
12
12
12
12
12
12
12
12
12
12
12
12
12
12
12
12
12
12
12
12
12
12
12
12
12
12
12
12
12
12
12
12
12
12
12
12
12
12
12
12
12
12
12
12
12
12
12
12
12
12
12
12
12
12
12
12
12
12
12
12
12
12
12
12
12
12
12
12
12
12
12
12
12
12
12
12
12
12
12
12
12
12
12
12
12
12
12
12
12
12
12
12
12
12
12
12
12
12
12
12
12
12
12
12
12
12
12
12
12
12
12
12
12
12
12
12
12
12
12
12
12
12
12
12
12
12
12
12
12
12
12
12
12
12
12
12
12
12
12
12
12
12
12
12
12
12
12
12
12
12
12
12
12
12
12
12
12
12
12
12
12
12
12
12
12
12
12
12
12
12
12
12
12
12
12
12
12
12
12
12
12
12
12
12
12
12
12
12
12
12
12
12
12
12
12
12
12
12
12
12
12
12
12
12
12
12
12
12
12
12
12
12
12
12
12
12
12
12
12
12
12
12
12
12
12
12
12
12
12
12
12
12
12
12
12
12
12
12
12
12
12
12
12
12
12
12
12
12
12
12
12
12
12
12
12
12
12
12
12
12
12
12
12
12
12
12
12
12
12
12
12
12
12
12
12
12
12
12
12
12
12
12
12
12
12
12
12
12
12
12
12
12
12
12
12
12
12
12
12
12
12
12
12
12
12
12
12
12
12
12
12
12
12
12
12
12
12
12
12
12
12
12
12
12
12
12
12
12
12
12
12
12
12
12
12
12
12
12
12
12
12
12
12
12
12
12
12
12
12
12
12
12
12
12
12
12
12
12
12
12
12
12
12
12
12
12
12
12
12
12
12
12
12
12
12
12
12
12
12
12
12
12
12
12
12
12
12
12
12
12
12
12
12
12
12
12
12
12
12
12
12
12
12
12
12
12
12
12
12
12
12
12
12
12
12
12
12
12
12
12
12
12
12
12
12
12
12
12
12
12
12
12
12
12
12
12
12
12
12
12
12
12
12
12
12
12
12
12
12
12
12
12
12
12
12
12
12
12
12
12
12
12
12
12
12
12
12
12
12
12
12
12
12
12
12
12
12
12
12
12
12
12
12
12
12
12
12
12
12
12
12
12
12
12
12
12
12
12
12
12
12
12
12
12
12
12
12
12
12
12
12
12
12
12
12
12
12
12
12
12
12
12
12
12
12
12
12
12
12
12
12
12
12
12
12
12
12
12
12
12
12
12
12
12
12
12
12
12
12
12
12
12
12
12
12
12
12
12
12
12
12
12
12
12
12
12
12
12
12
12
12
12
12
12
12
12
12
12
12
12
12
12
12
12
12
12
12
12
12
12
12
12
12
12
12
12
12
12
12
12
12
12
12
12
12
12
12
12
12
12
12
12
12
12
12
12
12
12
12
12
12
12
12
12
12
12
12
12
12
12
12
12
12
12
12
12
12
12
12
12
12
12
12
12
12
12
12
12
12
12
12
12
12
12
12
12
12
12
12
12
12
12
12
12
12
12
12
12
12
12
12
12
12
12
12
12
12
12
12
12
12
12
12
12
12
12
12
12
12
12
12
12
12
12
12
12
12
12
12
12
12
12
12
12
12
12
12
12
12
12
12
12
12
12
12
12
12
12
12
12
12
12
12
12
12
12
12
12
12
12
12
12
12
12
12
12
12
12
12
12
12
12
12
12
12
12
12
12
12
12
12
12
12
12
12
12
12
12
12
12
12
12
12
12
12
12
12
12
12
12
12
12
12
12
12
12
12
12
12
12
12
12
12
12
12
12
12
12
12
12
12
12
12
12
12
12
12
12
12
12
12
12
12
12
12
12
12
12
12
12
12
12
12
12
12
12
12
12
12
12
12
12
12
12
12
12
12
12
12
12
12
12
12
12
12
12
12
12
12
12
12
12
12
12
12
12
12
12
12
12
12
12
12
12
12
12
12
12
12
12
12
12
12
12
12
12
12
12
12
12
12
12
12
12
12
12
12
12
12
12
12
12
12
12
12
12
12
12
12
12
12
12
12
12
12
12
12
12
12
12
12
12
12
12
12
12
12
12
12
12
12
12
12
12
12
12
12
12
12
12
12
12
12
12
12
12
12
12
12
12
12
12
12
12
12
12
12
12
12
12
12
12
12
12
12
12
12
12
12
12
12
12
12
12
12
12
12
12
12
12
12
12
12
12
12
12
12
12
12
12
12
12
12
12
12
12
12
12
12
12
12
12
12
12
12
12
12
12
12
12
12
12
12
12
12
12
12
12
12
12
12
12
12
12
12
12
12
12
12
12
12
12
12
12
12
12
12
12
12
12
12
12
12
12
12
12
12
12
12
12
12
12
12
12
12
12
12
12
12
12
12
12
12
12
12
12
12
12
12
12
12
12
12
12
12
12
12
12
12
12
12
12
12
12
12
12
12
12
12
12
12
12
12
12
12
12
12
12
12
12
12
12
12
12
12
12
12
12
12
12
12
12
12
12
12
12
12
12
12
12
12
12
12
12
12
12
12
12
12
12
12
12
12
12
12
12
12
12
12
12
12
12
12
12
12
12
12
12
12
12
12
12
12
12
12
12
12
12
12
12
12
12
12
12
12
12
12
12
12
12
12
12
12
12
12
12
12
12
12
12
12
12
12
12
12
12
12
12
12
12
12
12
12
12
12
12
12
12
12
12
12
12
12
12
12
12
12
12
12
12
12
12
12
12
12
12
12
12
12
12
12
12
12
12
12
12
12
12
12
12
12
12
12
12
12
12
12
12
12
12
12
12
12
12
12
12
12
12
12
12
12
12
12
12
12
12
12
12
12
12
12
12
12
12
12
12
12
12
12
12
12
12
12
12
12
12
12
12
12
12
12
12
12
12
12
12
12
12
12
12
12
12
12
12
12
12
12
12
12
12
12
12
12
12
12
12
12
12
12
12
12
12
12
12
12
12
12
12
12
12
12
12
12
12
12
12
12
12
12
12
12
12
12
12
12
12
12
12
12
12
12
12
12
12
12
12
12
12
12
12
12
12
12
12
12
12
12
12
12
12
12
12
12
12
12
12
12
12
12
12
12
12
12
12
12
12
12
12
12
12
12
12
12
12
12
12
12
12
12
12
12
12
12
12
12
12
12
12
12
12
12
12
12
12
12
12
12
12
12
12
12
12
12
12
12
12
12
12
12
12
12
12
12
12
12
12
12
12
12
12
12
12
12
12
12
12
12
12
12
12
12
12
12
12
12
12
12
12
12
12
12
12
12
12
12
12
12
12
12
12
12
12
12
12
12
12
12
12
12
12
12
12
12
12
12
12
12
12
12
12
12
12
12
12
12
12
12
12
12
12
12
12
12
12
12
12
12
12
12
12
12
12
12
12
12
12
12
12
12
12
12
12
12
12
12
12
12
12
12
12
12
12
12
12
12
12
12
12
12
12
12
12
12
12
12
12
12
12
12
12
12
12
12
12
12
12
12
12
12
12
12
12
12
12
12
12
12
12
12
12
12
12
12
12
12
12
12
12
12
12
12
12
12
12
12
12
12
12
12
12
12
12
12
12
12
12
12
12
12
12
12
12
12
12
12
12
12
12
12
12
12
12
12
12
12
12
12
12
12
12
12
12
12
12
12
12
12
12
12
12
12
12
12
12
12
12
12
12
12
12
12
12
12
12
12
12
12
12
12
12
12
12
12
12
12
12
12
12
12
12
12
12
12
12
12
12
12
12
12
12
12
12
12
12
12
12
12
12
12
12
12
12
12
12
12
12
12
12
12
12
12
12
12
12
12
12
12
12
12
12
12
12
12
12
12
12
12
12
12
12
12
12
12
12
12
12
12
12
12
12
12
12
12
12
12
12
12
12
12
12
12
12
12
12
12
12
12
12
12
12
12
12
12
12
12
12
12
12
12
12
12
12
12
12
12
12
12
12
12
12
12
12
12
12
12
12
12
12
12
12
12
12
12
12
12
12
12
12
12
12
12
12
12
12
12
12
12
12
12
12
12
12
12
12
12
12
12
12
12
12
12
12
12
12
12
12
12
12
12
12
12
12
12
12
12
12
12
12
12
12
12
12
12
12
12
12
12
12
12
12
12
12
12
12
12
12
12
12
12
12
12
12
12
12
12
12
12
12
12
12
12
12
12
12
12
12
12
12
12
12
12
12
12
12
12
12
12
12
12
12
12
12
12
12
12
12
12
12
12
12
12
12
12
12
12
12
12
12
12
12
12
12
12
12
12
12
12
12
12
12
12
12
12
12
12
12
12
12
12
12
12
12
12
12
12
12
12
12
12
12
12
12
12
12
12
12
12
12
12
12
12
12
12
12
12
12
12
12
12
12
12
12
12
12
12
12
12
12
12
12
12
12
12
12
12
12
12
12
12
12
12
12
12
12
12
12
12
12
12
12
12
12
12
12
12
12
12
12
12
12
12
12
12
12
12
12
12
12
12
12
12
12
12
12
12
12
12
12
12
12
12
12
12
12
12
12
12
12
12
12
12
12
12
12
12
12
12
12
12
12
12
12
12
12
12
12
12
12
12
12
12
12
12
12
12
12
12
12
12
12
12
12
12
12
12
12
12
12
12
12
12
12
12
12
12
12
12
12
12
12
12
12
12
12
12
12
12
12
12
12
12
12
12
12
12
12
12
12
12
12
12
12
12
12
12
12
12
12
12
12
12
12
12
12
12
12
12
12
12
12
12
12
12
12
12
12
12
12
12
12
12
12
12
12
12
12
12
12
12
12
12
12
12
12
12
12
12
12
12
12
12
12
12
12
12
12
12
12
12
12
12
12
12
12
12
12
12
12
12
12
12
12
12
12
12
12
12
12
12
12
12
12
12
12
12
12
12
12
12
12
12
12
12
12
12
12
12
12
12
12
12
12
12
12
12
12
12
12
12
12
12
12
12
12
12
12
12
12
12
12
12
12
12
12
12
12
12
12
12
12
12
12
12
12
12
12
12
12
12
12
12
12
12
12
12
12
12
12
12
12
12
12
12
12
12
12
12
12
12
12
12
12
12
12
12
12
12
12
12
12
12
12
12
12
12
12
12
12
12
12
12
12
12
12
12
12
12
12
12
12
12
12
12
12
12
12
12
12
12
12
12
12
12
12
12
12
12
12
12
12
12
12
12
12
12
12
12
12
12
12
12
12
12
12
12
12
12
12
12
12
12
12
12
12
12
12
12
12
12
12
12
12
12
12
12
12
12
12
12
12
12
12
12
12
12
12
12
12
12
12
12
12
12
12
12
12
12
12
12
12
12
12
12
12
12
12
12
12
12
12
12
12
12
12
12
12
12
12
12
12
12
12
12
12
12
12
12
12
12
12
12
12
12
12
12
12
12
12
12
12
12
12
12
12
12
12
12
12
12
12
12
12
12
12
12
12
12
12
12
12
12
12
12
12
12
12
12
12
12
12
12
12
12
12
12
12
12
12
12
12
12
12
12
12
12
12
12
12
12
12
12
12
12
12
12
12
12
12
12
12
12
12
12
12
12
12
12
12
12
12
12
12
12
12
12
12
12
12
12
12
12
12
12
12
12
12
12
12
12
12
12
12
12
12
12
12
12
12
12
12
12
12
12
12
12
12
12
12
12
12
12
12
12
12
12
12
12
12
12
12
12
12
12
12
12
12
12
12
12
12
12
12
12
12
12
12
12
12
12
12
12
12
12
12
12
12
12
12
12
12
12
12
12
12
12
12
12
12
12
12
12
12
12
12
12
12
12
12
12
12
12
12
12
12
12
12
12
12
12
12
12
12
12
12
12
12
12
12
12
12
12
12
12
12
12
12
12
12
12
12
12
12
12
12
12
12
12
12
12
12
12
12
12
12
12
12
12
12
12
12
12
12
12
12
12
12
12
12
12
12
12
12
12
12
12
12
12
12
12
12
12
12
12
12
12
12
12
12
12
12
12
12
12
12
12
12
12
12
12
12
12
12
12
12
12
12
12
12
12
12
12
12
12
12
12
12
12
12
12
12
12
12
12
12
12
12
12
12
12
12
12
12
12
12
12
12
12
12
12
12
12
12
12
12
12
12
12
12
12
12
12
12
12
12
12
12
12
12
12
12
12
12
12
12
12
12
12
12
12
12
12
12
12
12
12
12
12
12
12
12
12
12
12
12
12
12
12
12
12
12
12
12
12
12
12
12
12
12
12
12
12
12
12
12
12
12
12
12
12
12
12
12
12
12
12
12
12
12
12
12
12
12
12
12
12
12
12
12
12
12
12
12
12
12
12
12
12
12
12
12
12
12
12
12
12
12
12
12
12
12
12
12
12
12
12
12
12
12
12
12
12
12
12
12
12
12
12
12
12
12
12
12
12
12
12
12
12
12
12
12
12
12
12
12
12
12
12
12
12
12
12
12
12
12
12
12
12
12
12
12
12
12
12
12
12
12
12
12
12
12
12
12
12
12
12
12
12
12
12
12
12
12
12
12
12
12
12
12
12
12
12
12
12
12
12
12
12
12
12
12
12
12
12
12
12
12
12
12
12
12
12
12
12
12
12
12
12
12
12
12
12
12
12
12
12
12
12
12
12
12
12
12
12
12
12
12
12
12
12
12
12
12
12
12
12
12
12
12
12
12
12
12
12
12
12
12
12
12
12
12
12
12
12
12
12
12
12
12
12
12
12
12
12
12
12
12
12
12
12
12
12
12
12
12
12
12
12
12
12
12
12
12
12
12
12
12
12
12
12
12
12
12
12
12
12
12
12
12
12
12
12
12
12
12
12
12
12
12
12
12
12
12
12
12
12
12
12
12
12
12
12
12
12
12
12
12
12
12
12
12
12
12
12
12
12
12
12
12
12
12
12
12
12
12
12
12
12
12
12
12
12
12
12
12
12
12
12
12
12
12
12
12
12
12
12
12
12
12
12
12
12
12
12
12
12
12
12
12
12
12
12
12
12
12
12
12
12
12
12
12
12
12
12
12
12
12
12
12
12
12
12
12
12
12
12
12
12
12
12
12
12
12
12
12
12
12
12
12
12
12
12
12
12
12
12
12
12
12
12
12
12
12
12
12
12
12
12
12
12
12
12
12
12
12
12
12
12
12
12
12
12
12
12
12
12
12
12
12
12
12
12
12
12
12
12
12
12
12
12
12
12
12
12
12
12
12
12
12
12
12
12
12
12
12
12
12
12
12
12
12
12
12
12
12
12
12
12
12
12
12
12
12
12
12
12
12
12
12
12
12
12
12
12
12
12
12
12
12
12
12
12
12
12
12
12
12
12
12
12
12
12
12
12
12
12
12
12
12
12
12
12
12
12
12
12
12
12
12
12
12
12
12
12
12
12
12
12
12
12
12
12
12
12
12
12
12
12
12
12
12
12
12
12
12
12
12
12
12
12
12
12
12
12
12
12
12
12
12
12
12
12
12
12
12
12
12
12
12
12
12
12
12
12
12
12
12
12
12
12
12
12
12
12
12
12
12
12
12
12
12
12
12
12
12
12
12
12
12
12
12
12
12
12
12
12
12
12
12
12
12
12
12
12
12
12
12
12
12
12
12
12
12
12
12
12
12
12
12
12
12
12
12
12
12
12
12
12
12
12
12
12
12
12
12
12
12
12
12
12
12
12
12
12
12
12
12
12
12
12
12
12
12
12
12
12
12
12
12
12
12
12
12
12
12
12
12
12
12
12
12
12
12
12
12
12
12
12
12
12
12
12
12
12
12
12
12
12
12
12
12
12
12
12
12
12
12
12
12
12
12
12
12
12
12
12
12
12
12
12
12
12
12
12
12
12
12
12
12
12
12
12
12
12
12
12
12
12
12
12
12
12
12
12
12
12
12
12
12
12
12
12
12
12
12
12
12
12
12
12
12
12
12
12
12
12
12
12
12
12
12
12
12
12
12
12
12
12
12
12
12
12
12
12
12
12
12
12
12
12
12
12
12
12
12
12
12
12
12
12
12
12
12
12
12
12
12
12
12
12
12
12
12
12
12
12
12
12
12
12
12
12
12
12
12
12
12
12
12
12
12
12
12
12
12
12
12
12
12
12
12
12
12
12
12
12
12
12
12
12
12
12
12
12
12
12
12
12
12
12
12
12
12
12
12
12
12
12
12
12
12
12
12
12
12
12
12
12
12
12
12
12
12
12
12
12
12
12
12
12
12
12
12
12
12
12
12
12
12
12
12
12
12
12
12
12
12
12
12
12
12
12
12
12
12
12
12
12
12
12
12
12
12
12
12
12
12
12
12
12
12
12
12
12
12
12
12
12
12
12
12
12
12
12
12
12
12
12
12
12
12
12
12
12
12
12
12
12
12
12
12
12
12
12
12
12
12
12
12
12
12
12
12
12
12
12
12
12
12
12
12
12
12
12
12
12
12
12
12
12
12
12
12
12
12
12
12
12
12
12
12
12
12
12
12
12
12
12
12
12
12
12
12
12
12
12
12
12
12
12
12
12
12
12
12
12
12
12
12
12
12
12
12
12
12
12
12
12
12
12
12
12
12
12
12
12
12
12
12
12
12
12
12
12
12
12
12
12
12
12
12
12
12
12
12
12
12
12
12
12
12
12
12
12
12
12
12
12
12
12
12
12
12
12
12
12
12
12
12
12
12
12
12
12
12
12
12
12
12
12
12
12
12
12
12
12
12
12
12
12
12
12
12
12
12
12
12
12
12
12
12
12
12
12
12
12
12
12
12
12
12
12
12
12
12
12
12
12
12
12
12
12
12
12
12
12
12
12
12
12
12
12
12
12
12
12
12
12
12
12
12
12
12
12
12
12
12
12
12
12
12
12
12
12
12
12
12
12
12
12
12
12
12
12
12
12
12
12
12
12
12
12
12
12
12
12
12
12
12
12
12
12
12
12
12
12
12
12
12
12
12
12
12
12
12
12
12
12
12
12
12
12
12
12
12
12
12
12
12
12
12
12
12
12
12
12
12
12
12
12
12
12
12
12
12
12
12
12
12
12
12
12
12
12
12
12
12
12
12
12
12
12
12
12
12
12
12
12
12
12
12
12
12
12
12
12
12
12
12
12
12
12
12
12
12
12
12
12
12
12
12
12
12
12
12
12
12
12
12
12
12
12
12
12
12
12
12
12
12
12
12
12
12
12
12
12
12
12
12
12
12
12
12
12
12
12
12
12
12
12
12
12
12
12
12
12
12
12
12
12
12
12
12
12
12
12
12
12
12
12
12
12
12
12
12
12
12
12
12
12
12
12
12
12
12
12
12
12
12
12
12
12
12
12
12
12
12
12
12
12
12
12
12
12
12
12
12
12
12
12
12
12
12
12
12
12
12
12
12
12
12
12
12
12
12
12
12
12
12
12
12
12
12
12
12
12
12
12
12
12
12
12
12
12
12
12
12
12
12
12
12
12
12
12
12
12
12
12
12
12
12
12
12
12
12
12
12
12
12
12
12
12
12
12
12
12
12
12
12
12
12
12
12
12
12
12
12
12
12
12
12
12
12
12
12
12
12
12
12
12
12
12
12
12
12
12
12
12
12
12
12
12
12
12
12
12
12
12
12
12
12
12
12
12
12
12
12
12
12
12
12
12
12
12
12
12
12
12
12
12
12
12
12
12
12
12
12
12
12
12
12
12
12
12
12
12
12
12
12
12
12
12
12
12
12
12
12
12
12
12
12
12
12
12
12
12
12
12
12
12
12
12
12
12
12
12
12
12
12
12
12
12
12
12
12
12
12
12
12
12
12
12
12
12
12
12
12
12
12
12
12
12
12
12
12
12
12
12
12
12
12
12
12
12
12
12
12
12
12
12
12
12
12
12
12
12
12
12
12
12
12
12
12
12
12
12
12
12
12
12
12
12
12
12
12
12
12
12
12
12
12
12
12
12
12
12
12
12
12
12
12
12
12
12
12
12
12
12
12
12
12
12
12
12
12
12
12
12
12
12
12
12
12
12
12
12
12
12
12
12
12
12
12
12
12
12
12
12
12
12
12
12
12
12
12
12
12
12
12
12
12
12
12
12
12
12
12
12
12
12
12
12
12
12
12
12
12
12
12
12
12
12
12
12
12
12
12
12
12
12
12
12
12
12
12
12
12
12
12
12
12
12
12
12
12
12
12
12
12
12
12
12
12
12
12
12
12
12
12
12
12
12
12
12
12
12
12
12
12
12
12
12
12
12
12
12
12
12
12
12
12
12
12
12
12
12
12
12
12
12
12
12
12
12
12
12
12
12
12
12
12
12
12
12
12
12
12
12
12
12
12
12
12
12
12
12
12
12
12
12
12
12
12
12
12
12
12
12
12
12
12
12
12
12
12
12
12
12
12
12
12
12
12
12
12
12
12
12
12
12
12
12
12
12
12
12
12
12
12
12
12
12
12
12
12
12
12
12
12
12
12
12
12
12
12
12
12
12
12
12
12
12
12
12
12
12
12
12
12
12
12
12
12
12
12
12
12
12
12
12
12
12
12
12
12
12
12
12
12
12
12
12
12
12
12
12
12
12
12
12
12
12
12
12
12
12
12
12
12
12
12
12
12
12
12
12
12
12
12
12
12
12
12
12
12
12
12
12
12
12
12
12
12
12
12
12
12
12
12
12
12
12
12
12
12
12
12
12
12
12
12
12
12
12
12
12
12
12
12
12
12
12
12
12
12
12
12
12
12
12
12
12
12
12
12
12
12
12
12
12
12
12
12
12
12
12
12
12
12
12
12
12
12
12
12
12
12
12
12
12
12
12
12
12
12
12
12
12
12
12
12
12
12
12
12
12
12
12
12
12
12
12
12
12
12
12
12
12
12
12
12
12
12
12
12
12
12
12
12
12
12
12
12
12
12
12
12
12
12
12
12
12
12
12
12
12
12
12
12
12
12
12
12
12
12
12
12
12
12
12
12
12
12
12
12
12
12
12
12
12
12
12
12
12
12
12
12
12
12
12
12
12
12
12
12
12
12
12
12
12
12
12
12
12
12
12
12
12
12
12
12
12
12
12
12
12
12
12
12
12
12
12
12
12
12
12
12
12
12
12
12
12
12
12
12
12
12
12
12
12
12
12
12
12
12
12
12
12
12
12
12
12
12
12
12
12
12
12
12
12
12
12
12
12
12
12
12
12
12
12
12
12
12
12
12
12
12
12
12
12
12
12
12
12
12
12
12
12
12
12
12
12
12
12
12
12
12
12
12
12
12
12
12
12
12
12
12
12
12
12
12
12
12
12
12
12
12
12
12
12
12
12
12
12
12
12
12
12
12
12
12
12
12
12
12
12
12
12
12
12
12
12
12
12
12
12
12
12
12
12
12
12
12
12
12
12
12
12
12
12
12
12
12
12
12
12
12
12
12
12
12
12
12
12
12
12
12
12
12
12
12
12
12
12
12
12
12
12
12
12
12
12
12
12
12
12
12
12
12
12
12
12
12
12
12
12
12
12
12
12
12
12
12
12
12
12
12
12
12
12
12
12
12
12
12
12
12
12
12
12
12
12
12
12
12
12
12
12
12
12
12
12
12
12
12
12
12
12
12
12
12
12
12
12
12
12
12
12
12
12
12
12
12
12
12
12
12
12
12
12
12
12
12
12
12
12
12
12
12
12
12
12
12
12
12
12
12
12
12
12
12
12
12
12
12
12
12
12
12
12
12
12
12
12
12
12
12
12
12
12
12
12
12
12
12
12
12
12
12
12
12
12
12
12
12
12
12
12
12
12
12
12
12
12
12
12
12
12
12
12
12
12
12
12
12
12
12
12
12
12
12
12
12
12
12
12
12
12
12
12
12
12
12
12
12
12
12
12
12
12
12
12
12
12
12
12
12
12
12
12
12
12
12
12
12
12
12
12
12
12
12
12
12
12
12
12
12
12
12
12
12
12
12
12
12
12
12
12
12
12
12
12
12
12
12
12
12
12
12
12
12
12
12
12
12
12
12
12
12
12
12
12
12
12
12
12
12
12
12
12
12
12
12
12
12
12
12
12
12
12
12
12
12
12
12
12
12
12
12
12
12
12
12
12
12
12
12
12
12
12
12
12
12
12
12
12
12
12
12
12
12
12
12
12
12
12
12
12
12
12
12
12
12
12
12
12
12
12
12
12
12
12
12
12
12
12
12
12
12
12
12
12
12
12
12
12
12
12
12
12
12
12
12
12
12
12
12
12
12
12
12
12
12
12
12
12
12
12
12
12
12
12
12
12
12
12
12
12
12
12
12
12
12
12
12
12
12
12
12
12
12
12
12
12
12
12
12
12
12
12
12
12
12
12
12
12
12
12
12
12
12
12
12
12
12
12
12
12
12
12
12
12
12
12
12
12
12
12
12
12
12
12
12
12
12
12
12
12
12
12
12
12
12
12
12
12
12
12
12
12
12
12
12
12
12
12
12
12
12
12
12
12
12
12
12
12
12
12
12
12
12
12
12
12
12
12
12
12
12
12
12
12
12
12
12
12
12
12
12
12
12
12
12
12
12
12
12
12
12
12
12
12
12
12
12
12
12
12
12
12
12
12
12
12
12
12
12
12
12
12
12
12
12
12
12
12
12
12
12
12
12
12
12
12
12
12
12
12
12
12
12
12
12
12
12
12
12
12
12
12
12
12
12
12
12
12
12
12
12
12
12
12
12
12
12
12
12
12
12
12
12
12
12
12
12
12
12
12
12
12
12
12
12
12
12
12
12
12
12
12
12
12
12
12
12
12
12
12
12
12
12
12
12
12
12
12
12
12
12
12
12
12
12
12
12
12
12
12
12
12
12
12
12
12
12
12
12
12
12
12
12
12
12
12
12
12
12
12
12
12
12
12
12
12
12
12
12
12
12
12
12
12
12
12
12
12
12
12
12
12
12
12
12
12
12
12
12
12
12
12
12
12
12
12
12
12
12
12
12
12
12
12
12
12
12
12
12
12
12
12
12
12
12
12
12
12
12
12
12
12
12
12
12
12
12
12
12
12
12
12
12
12
12
12
12
12
12
12
12
12
12
12
12
12
12
12
12
12
12
12
12
12
12
12
12
12
12
12
12
12
12
12
12
12
12
12
12
12
12
12
12
12
12
12
12
12
12
12
12
12
12
12
12
12
12
12
12
12
12
12
12
12
12
12
12
12
12
12
12
12
12
12
12
12
12
12
12
12
12
12
12
12
12
12
12
12
12
12
12
12
12
12
12
12
12
12
12
12
12
12
12
12
12
12
12
12
12
12
12
12
12
12
12
12
12
12
12
12
12
12
12
12
12
12
12
12
12
12
12
12
12
12
12
12
12
12
12
12
12
12
12
12
12
12
12
12
12
12
12
12
12
12
12
12
12
12
12
12
12
12
12
12
12
12
12
12
12
12
12
12
12
12
12
12
12
12
12
12
12
12
12
12
12
12
12
12
12
12
12
12
12
12
12
12
12
12
12
12
12
12
12
12
12
12
12
12
12
12
12
12
12
12
12
12
12
12
12
12
12
12
12
12
12
12
12
12
12
12
12
12
12
12
12
12
12
12
12
12
12
12
12
12
12
12
12
12
12
12
12
12
12
12
12
12
12
12
12
12
12
12
12
12
12
12
12
12
12
12
12
12
12
12
12
12
12
12
12
12
12
12
12
12
12
12
12
12
12
12
12
12
12
12
12
12
12
12
12
12
12
12
12
12
12
12
12
12
12
12
12
12
12
12
12
12
12
12
12
12
12
12
12
12
12
12
12
12
12
12
12
12
12
12
12
12
12
12
12
12
12
12
12
12
12
12
12
12
12
12
12
12
12
12
12
12
12
12
12
12
12
12
12
12
12
12
12
12
12
12
12
12
12
12
12
12
12
12
12
12
12
12
12
12
12
12
12
12
12
12
12
12
12
12
12
12
12
12
12
12
12
12
12
12
12
12
12
12
12
12
12
12
12
12
12
12
12
12
12
12
12
12
12
12
12
12
12
12
12
12
12
12
12
12
12
12
12
12
12
12
12
12
12
12
12
12
12
12
12
12
12
12
12
12
12
12
12
12
12
12
12
12
12
12
12
12
12
12
12
12
12
12
12
12
12
12
12
12
12
12
12
12
12
12
12
12
12
12
12
12
12
12
12
12
12
12
12
12
12
12
12
12
12
12
12
12
12
12
12
12
12
12
12
12
12
12
12
12
12
12
12
12
12
12
12
12
12
12
12
12
12
12
12
12
12
12
12
12
12
12
12
12
12
12
12
12
12
12
12
12
12
12
12
12
12
12
12
12
12
12
12
12
12
12
12
12
12
12
12
12
12
12
12
12
12
12
12
12
12
12
12
12
12
12
12
12
12
12
12
12
12
12
12
12
12
12
12
12
12
12
12
12
12
12
12
12
12
12
12
12
12
12
12
12
12
12
12
12
12
12
12
12
12
12
12
12
12
12
12
12
12
12
12
12
12
12
12
12
12
12
12
12
12
12
12
12
12
12
12
12
12
12
12
12
12
12
12
12
12
12
12
12
12
12
12
12
12
12
12
12
12
12
12
12
12
12
12
12
12
12
12
12
12
12
12
12
12
12
12
12
12
12
12
12
12
12
12
12
12
12
12
12
12
12
12
12
12
12
12
12
12
12
12
12
12
12
12
12
12
12
12
12
12
12
12
12
12
12
12
12
12
12
12
12
12
12
12
12
12
12
12
12
12
12
12
12
12
12
12
12
12
12
12
12
12
12
12
12
12
12
12
12
12
12
12
12
12
12
12
12
12
12
12
12
12
12
12
12
12
12
12
12
12
12
12
12
12
12
12
12
12
12
12
12
12
12
12
12
12
12
12
12
12
12
12
12
12
12
12
12
12
12
12
12
12
12
12
12
12
12
12
12
12
12
12
12
12
12
12
12
12
12
12
12
12
12
12
12
12
12
12
12
12
12
12
12
12
12
12
12
12
12
12
12
12
12
12
12
12
12
12
12
12
12
12
12
12
12
12
12
12
12
12
12
12
12
12
12
12
12
12
12
12
12
12
12
12
12
12
12
12
12
12
12
12
12
12
12
12
12
12
12
12
12
12
12
12
12
12
12
12
12
12
12
12
12
12
12
12
12
12
12
12
12
12
12
12
12
12
12
12
12
12
12
12
12
12
12
12
12
12
12
12
12
12
12
12
12
12
12
12
12
12
12
12
12
12
12
12
12
12
12
12
12
12
12
12
12
12
12
12
12
12
12
12
12
12
12
12
12
12
12
12
12
12
12
12
12
12
12
12
12
12
12
12
12
12
12
12
12
12
12
12
12
12
12
12
12
12
12
12
12
12
12
12
12
12
12
12
12
12
12
12
12
12
12
12
12
12
12
12
12
12
12
12
12
12
12
12
12
12
12
12
12
12
12
12
12
12
12
12
12
12
12
12
12
12
12
12
12
12
12
12
12
12
12
12
12
12
12
12
12
12
12
12
12
12
12
12
12
12
12
12
12
12
12
12
12
12
12
12
12
12
12
12
12
12
12
12
12
12
12
12
12
12
12
12
12
12
12
12
12
12
12
12
12
12
12
12
12
12
12
12
12
12
12
12
12
12
12
12
12
12
12
12
12
12
12
12
12
12
12
12
12
12
12
12
12
12
12
12
12
12
12
12
12
12
12
12
12
12
12
12
12
12
12
12
12
12
12
12
12
12
12
12
12
12
12
12
12
12
12
12
12
12
12
12
12
12
12
12
12
12
12
12
12
12
12
12
12
12
12
12
12
12
12
12
12
12
12
12
12
12
12
12
12
12
12
12
12
12
12
12
12
12
12
12
12
12
12
12
12
12
12
12
12
12
12
12
12
12
12
12
12
12
12
12
12
12
12
12
12
12
12
12
12
12
12
12
12
12
12
12
12
12
12
12
12
12
12
12
12
12
12
12
12
12
12
12
12
12
12
12
12
12
12
12
12
12
12
12
12
12
12
12
12
12
12
12
12
12
12
12
12
12
12
12
12
12
12
12
12
12
12
12
12
12
12
12
12
12
12
12
12
12
12
12
12
12
12
12
12
12
12
12
12
12
12
12
12
12
12
12
12
12
12
12
12
12
12
12
12
12
12
12
12
12
12
12
12
12
12
12
12
12
12
12
12
12
12
12
12
12
12
12
12
12
12
12
12
12
12
12
12
12
12
12
12
12
12
12
12
12
12
12
12
12
12
12
12
12
12
12
12
12
12
12
12
12
12
12
12
12
12
12
12
12
12
12
12
12
12
12
12
12
12
12
12
12
12
12
12
12
12
12
12
12
12
12
12
12
12
12
12
12
12
12
12
12
12
12
12
12
12
12
12
12
12
12
12
12
12
12
12
12
12
12
12
12
12
12
12
12
12
12
12
12
12
12
12
12
12
12
12
12
12
12
12
12
12
12
12
12
12
12
12
12
12
12
12
12
12
12
12
12
12
12
12
12
12
12
12
12
12
12
12
12
12
12
12
12
12
12
12
12
12
12
12
12
12
12
12
12
12
12
12
12
12
12
12
12
12
12
12
12
12
12
12
12
12
12
12
12
12
12
12
12
12
12
12
12
12
12
12
12
12
12
12
12
12
12
12
12
12
12
12
12
12
12
12
12
12
12
12
12
12
12
12
12
12
12
12
12
12
12
12
12
12
12
12
12
12
12
12
12
12
12
12
12
12
12
12
12
12
12
12
12
12
12
12
12
12
12
12
12
12
12
12
12
12
12
12
12
12
12
12
12
12
12
12
12
12
12
12
12
12
12
12
12
12
12
12
12
12
12
12
12
12
12
12
12
12
12
12
12
12
12
12
12
12
12
12
12
12
12
12
12
12
12
12
12
12
12
12
12
12
12
12
12
12
12
12
12
12
12
12
12
12
12
12
12
12
12
12
12
12
12
12
12
12
12
12
12
12
12
12
12
12
12
12
12
12
12
12
12
12
12
12
12
12
12
12
12
12
12
12
12
12
12
12
12
12
12
12
12
12
12
12
12
12
12
12
12
12
12
12
12
12
12
12
12
12
12
12
12
12
12
12
12
12
12
12
12
12
12
12
12
12
12
12
12
12
12
12
12
12
12
12
12
12
12
12
12
12
12
12
12
12
12
12
12
12
12
12
12
12
12
12
12
12
12
12
12
12
12
12
12
12
12
12
12
12
12
12
12
12
12
12
12
12
12
12
12
12
12
12
12
12
12
12
12
12
12
12
12
12
12
12
12
12
12
12
12
12
12
12
12
12
12
12
12
12
12
12
12
12
12
12
12
12
12
12
12
12
12
12
12
12
12
12
12
12
12
12
12
12
12
12
12
12
12
12
12
12
12
12
12
12
12
12
12
12
12
12
12
12
12
12
12
12
12
12
12
12
12
12
12
12
12
12
12
12
12
12
12
12
12
12
12
12
12
12
12
12
12
12
12
12
12
12
12
12
12
12
12
12
12
12
12
12
12
12
12
12
12
12
12
12
12
12
12
12
12
12
12
12
12
12
12
12
12
12
12
12
12
12
12
12
12
12
12
12
12
12
12
12
12
12
12
12
12
12
12
12
12
12
12
12
12
12
12
12
12
12
12
12
12
12
12
12
12
12
12
12
12
12
12
12
12
12
12
12
12
12
12
12
12
12
12
12
12
12
12
12
12
12
12
12
12
12
12
12
12
12
12
12
12
12
12
12
12
12
12
12
12
12
12
12
12
12
12
12
12
12
12
12
12
12
12
12
12
12
12
12
12
12
12
12
12
12
12
12
12
12
12
12
12
12
12
12
12
12
12
12
12
12
12
12
12
12
12
12
12
12
12
12
12
12
12
12
12
12
12
12
12
12
12
12
12
12
12
12
12
12
12
12
12
12
12
12
12
12
12
12
12
12
12
12
12
12
12
12
12
12
12
12
12
12
12
12
12
12
12
12
12
12
12
12
12
12
12
12
12
12
12
12
12
12
12
12
12
12
12
12
12
12
12
12
12
12
12
12
12
12
12
12
12
12
12
12
12
12
12
12
12
12
12
12
12
12
12
12
12
12
12
12
12
12
12
12
12
12
12
12
12
12
12
12
12
12
12
12
12
12
12
12
12
12
12
12
12
12
12
12
12
12
12
12
12
12
12
12
12
12
12
12
12
12
12
12
12
12
12
12
12
12
12
12
12
12
12
12
12
12
12
12
12
12
12
12
12
12
12
12
12
12
12
12
12
12
12
12
12
12
12
12
12
12
12
12
12
12
12
12
12
12
12
12
12
12
12
12
12
12
12
12
12
12
12
12
12
12
12
12
12
12
12
12
12
12
12
12
12
12
12
12
12
12
12
12
12
12
12
12
12
12
12
12
12
12
12
12
12
12
12
12
12
12
12
12
12
12
12
12
12
12
12
12
12
12
12
12
12
12
12
12
12
12
12
12
12
12
12
12
12
12
12
12
12
12
12
12
12
12
12
12
12
12
12
12
12
12
12
12
12
12
12
12
12
12
12
12
12
12
12
12
12
12
12
12
12
12
12
12
12
12
12
12
12
12
12
12
12
12
12
12
12
12
12
12
12
12
12
12
12
12
12
12
12
12
12
12
12
12
12
12
12
12
12
12
12
12
12
12
12
12
12
12
12
12
12
12
12
12
12
12
12
12
12
12
12
12
12
12
12
12
12
12
12
12
12
12
12
12
12
12
12
12
12
12
12
12
12
12
12
12
12
12
12
12
12
12
12
12
12
12
12
12
12
12
12
12
12
12
12
12
12
12
12
12
12
12
12
12
12
12
12
12
12
12
12
12
12
12
12
12
12
12
12
12
12
12
12
12
12
12
12
12
12
12
12
12
12
12
12
12
12
12
12
12
12
12
12
12
12
12
12
12
12
12
12
12
12
12
12
12
12
12
12
12
12
12
12
12
12
12
12
12
12
12
12
12
12
12
12
12
12
12
12
12
12
12
12
12
12
12
12
12
12
12
12
12
12
12
12
12
12
12
12
12
12
12
12
12
12
12
12
12
12
12
12
12
12
12
12
12
12
12
12
12
12
12
12
12
12
12
12
12
12
12
12
12
12
12
12
12
12
12
12
12
12
12
12
12
12
12
12
12
12
12
12
12
12
12
12
12
12
12
12
12
12
12
12
12
12
12
12
12
12
12
12
12
12
12
12
12
12
12
12
12
12
12
12
12
12
12
12
12
12
12
12
12
12
12
12
12
12
12
12
12
12
12
12
12
12
12
12
12
12
12
12
12
12
12
12
12
12
12
12
12
12
12
12
12
12
12
12
12
12
12
12
12
12
12
12
12
12
12
12
12
12
12
12
12
12
12
12
12
12
12
12
12
12
12
12
12
12
12
12
12
12
12
12
12
12
12
12
12
12
12
12
12
12
12
12
12
12
12
12
12
12
12
12
12
12
12
12
12
12
12
12
12
12
12
12
12
12
12
12
12
12
12
12
12
12
12
12
12
12
12
12
12
12
12
12
12
12
12
12
12
12
12
12
12
12
12
12
12
12
12
12
12
12
12
12
12
12
12
12
12
12
12
12
12
12
12
12
12
12
12
12
12
12
12
12
12
12
12
12
12
12
12
12
12
12
12
12
12
12
12
12
12
12
12
12
12
12
12
12
12
12
12
12
12
12
12
12
12
12
12
12
12
12
12
12
12
12
12
12
12
12
12
12
12
12
12
12
12
12
12
12
12
12
12
12
12
12
12
12
12
12
12
12
12
12
12
12
12
12
12
12
12
12
12
12
12
12
12
12
12
12
12
12
12
12
12
12
12
12
12
12
12
12
12
12
12
12
12
12
12
12
12
12
12
12
12
12
12
12
12
12
12
12
12
12
12
12
12
12
12
12
12
12
12
12
12
12
12
12
12
12
12
12
12
12
12
12
12
12
12
12
12
12
12
12
12
12
12
12
12
12
12
12
12
12
12
12
12
12
12
12
12
12
12
12
12
12
12
12
12
12
12
12
12
12
12
12
12
12
12
12
12
12
12
12
12
12
12
12
12
12
12
12
12
12
12
12
12
12
12
12
12
12
12
12
12
12
12
12
12
12
12
12
12
12
12
12
12
12
12
12
12
12
12
12
12
12
12
12
12
12
12
12
12
12
12
12
12
12
12
12
12
12
12
12
12
12
12
12
12
12
12
12
12
12
12
12
12
12
12
12
12
12
12
12
12
12
12
12
12
12
12
12
12
12
12
12
12
12
12
12
12
12
12
12
12
12
12
12
12
12
12
12
12
12
12
12
12
12
12
12
12
12
12
12
12
12
12
12
12
12
12
12
12
12
12
12
12
12
12
12
12
12
12
12
12
12
12
12
12
12
12
12
12
12
12
12
12
12
12
12
12
12
12
12
12
12
12
12
12
12
12
12
12
12
12
12
12
12
12
12
12
12
12
12
12
12
12
12
12
12
12
12
12
12
12
12
12
12
12
12
12
12
12
12
12
12
12
12
12
12
12
12
12
12
12
12
12
12
12
12
12
12
12
12
12
12
12
12
12
12
12
12
12
12
12
12
12
12
12
12
12
12
12
12
12
12
12
12
12
12
12
12
12
12
12
12
12
12
12
12
12
12
12
12
12
12
12
12
12
12
12
12
12
12
12
12
12
12
12
12
12
12
12
12
12
12
12
12
12
12
12
12
12
12
12
12
12
12
12
12
12
12
12
12
12
12
12
12
12
12
12
12
12
12
12
12
12
12
12
12
12
12
12
12
12
12
12
12
12
12
12
12
12
12
12
12
12
12
12
12
12
12
12
12
12
12
12
12
12
12
12
12
12
12
12
12
12
12
12
12
12
12
12
12
12
12
12
12
12
12
12
12
12
12
12
12
12
12
12
12
12
12
12
12
12
12
12
12
12
12
12
12
12
12
12
12
12
12
12
12
12
12
12
12
12
12
12
12
12
12
12
12
12
12
12
12
12
12
12
12
12
12
12
12
12
12
12
12
12
12
12
12
12
12
12
12
12
12
12
12
12
12
12
12
12
12
12
12
12
12
12
12
12
12
12
12
12
12
12
12
12
12
12
12
12
12
12
12
12
12
12
12
12
12
12
12
12
12
12
12
12
12
12
12
12
12
12
12
12
12
12
12
12
12
12
12
12
12
12
12
12
12
12
12
12
12
12
12
12
12
12
12
12
12
12
12
12
12
12
12
12
12
12
12
12
12
12
12
12
12
12
12
12
12
12
12
12
12
12
12
12
12
12
12
12
12
12
12
12
12
12
12
12
12
12
12
12
12
12
12
12
12
12
12
12
12
12
12
12
12
12
12
12
12
12
12
12
12
12
12
12
12
12
12
12
12
12
12
12
12
12
12
12
12
12
12
12
12
12
12
12
12
12
12
12
12
12
12
12
12
12
12
12
12
12
12
12
12
12
12
12
12
12
12
12
12
12
12
12
12
12
12
12
12
12
12
12
12
12
12
12
12
12
12
12
12
12
12
12
12
12
12
12
12
12
12
12
12
12
12
12
12
12
12
12
12
12
12
12
12
12
12
12
12
12
12
12
12
12
12
12
12
12
12
12
12
12
12
12
12
12
12
12
12
12
12
12
12
12
12
12
12
12
12
12
12
12
12
12
12
12
12
12
12
12
12
12
12
12
12
12
12
12
12
12
12
12
12
12
12
12
12
12
12
12
12
12
12
12
12
12
12
12
12
12
12
12
12
12
12
12
12
12
12
12
12
12
12
12
12
12
12
12
12
12
12
12
12
12
12
12
12
12
12
12
12
12
12
12
12
12
12
12
12
12
12
12
12
12
12
12
12
12
12
12
12
12
12
12
12
12
12
12
12
12
12
12
12
12
12
12
12
12
12
12
12
12
12
12
12
12
12
12
12
12
12
12
12
12
12
12
12
12
12
12
12
12
12
12
12
12
12
12
12
12
12
12
12
12
12
12
12
12
12
12
12
12
12
12
12
12
12
12
12
12
12
12
12
12
12
12
12
12
12
12
12
12
12
12
12
12
12
12
12
12
12
12
12
12
12
12
12
12
12
12
12
12
12
12
12
12
12
12
12
12
12
12
12
12
12
12
12
12
12
12
12
12
12
12
12
12
12
12
12
12
12
12
12
12
12
12
12
12
12
12
12
12
12
12
12
12
12
12
12
12
12
12
12
12
12
12
12
12
12
12
12
12
12
12
12
12
12
12
12
12
12
12
12
12
12
12
12
12
12
12
12
12
12
12
12
12
12
12
12
12
12
12
12
12
12
12
12
12
12
12
12
12
12
12
12
12
12
12
12
12
12
12
12
12
12
12
12
12
12
12
12
12
12
12
12
12
12
12
12
12
12
12
12
12
12
12
12
12
12
12
12
12
12
12
12
12
12
12
12
12
12
12
12
12
12
12
12
12
12
12
12
12
12
12
12
12
12
12
12
12
12
12
12
12
12
12
12
12
12
12
12
12
12
12
12
12
12
12
12
12
12
12
12
12
12
12
12
12
12
12
12
12
12
12
12
12
12
12
12
12
12
12
12
12
12
12
12
12
12
12
12
12
12
12
12
12
12
12
12
12
12
12
12
12
12
12
12
12
12
12
12
12
12
12
12
12
12
12
12
12
12
12
12
12
12
12
12
12
12
12
12
12
12
12
12
12
12
12
12
12
12
12
12
12
12
12
12
12
12
12
12
12
12
12
12
12
12
12
12
12
12
12
12
12
12
12
12
12
12
12
12
12
12
12
12
12
12
12
12
12
12
12
12
12
12
12
12
12
12
12
12
12
12
12
12
12
12
12
12
12
12
12
12
12
12
12
12
12
12
12
12
12
12
12
12
12
12
12
12
12
12
12
12
12
12
12
12
12
12
12
12
12
12
12
12
12
12
12
12
12
12
12
12
12
12
12
12
12
12
12
12
12
12
12
12
12
12
12
12
12
12
12
12
12
12
12
12
12
12
12
12
12
12
12
12
12
12
12
12
12
12
12
12
12
12
12
12
12
12
12
12
12
12
12
12
12
12
12
12
12
12
12
12
12
12
12
12
12
12
12
12
12
12
12
12
12
12
12
12
12
12
12
12
12
12
12
12
12
12
12
12
12
12
12
12
12
12
12
12
12
12
12
12
12
12
12
12
12
12
12
12
12
12
12
12
12
12
12
12
12
12
12
12
12
12
12
12
12
12
12
12
12
12
12
12
12
12
12
12
12
12
12
12
12
12
12
12
12
12
12
12
12
12
12
12
12
12
12
12
12
12
12
12
12
12
12
12
12
12
12
12
12
12
12
12
12
12
12
12
12
12
12
12
12
12
12
12
12
12
12
12
12
12
12
12
12
12
12
12
12
12
12
12
12
12
12
12
12
12
12
12
12
12
12
12
12
12
12
12
12
12
12
12
12
12
12
12
12
12
12
12
12
12
12
12
12
12
12
12
12
12
12
12
12
12
12
12
12
12
12
12
12
12
12
12
12
12
12
12
12
12
12
12
12
12
12
12
12
12
12
12
12
12
12
12
12
12
12
12
12
12
12
12
12
12
12
12
12
12
12
12
12
12
12
12
12
12
12
12
12
12
12
12
12
12
12
12
12
12
12
12
12
12
12
12
12
12
12
12
12
12
12
12
12
12
12
12
12
12
12
12
12
12
12
12
12
12
12
12
12
12
12
12
12
12
12
12
12
12
12
12
12
12
12
12
12
12
12
12
12
12
12
12
12
12
12
12
12
12
12
12
12
12
12
12
12
12
12
12
12
12
12
12
12
12
12
12
12
12
12
12
12
12
12
12
12
12
12
12
12
12
12
12
12
12
12
12
12
12
12
12
12
12
12
12
12
12
12
12
12
12
12
12
12
12
12
12
12
12
12
12
12
12
12
12
12
12
12
12
12
12
12
12
12
12
12
12
12
12
12
12
12
12
12
12
12
12
12
12
12
12
12
12
12
12
12
12
12
12
12
12
12
12
12
12
12
12
12
12
12
12
12
12
12
12
12
12
12
12
12
12
12
12
12
12
12
12
12
12
12
12
12
12
12
12
12
12
12
12
12
12
12
12
12
12
12
12
12
12
12
12
12
12
12
12
12
12
12
12
12
12
12
12
12
12
12
12
12
12
12
12
12
12
12
12
12
12
12
12
12
12
12
12
12
12
12
12
12
12
12
12
12
12
12
12
12
12
12
12
12
12
12
12
12
12
12
12
12
12
12
12
12
12
12
12
12
12
12
12
12
12
12
12
12
12
12
12
12
12
12
12
12
12
12
12
12
12
12
12
12
12
12
12
12
12
12
12
12
12
12
12
12
12
12
12
12
12
12
12
12
12
12
12
12
12
12
12
12
12
12
12
12
12
12
12
12
12
12
12
12
12
12
12
12
12
12
12
12
12
12
12
12
12
12
12
12
12
12
12
12
12
12
12
12
12
12
12
12
12
12
12
12
12
12
12
12
12
12
12
12
12
12
12
12
12
12
12
12
12
12
12
12
12
12
12
12
12
12
12
12
12
12
12
12
12
12
12
12
12
12
12
12
12
12
12
12
12
12
12
12
12
12
12
12
12
12
12
12
12
12
12
12
12
12
12
12
12
12
12
12
12
12
12
12
12
12
12
12
12
12
12
12
12
12
12
12
12
12
12
12
12
12
12
12
12
12
12
12
12
12
12
12
12
12
12
12
12
12
12
12
12
12
12
12
12
12
12
12
12
12
12
12
12
12
12
12
12
12
12
12
12
12
12
12
12
12
12
12
12
12
12
12
12
12
12
12
12
12
12
12
12
12
12
12
12
12
12
12
12
12
12
12
12
12
12
12
12
12
12
12
12
12
12
12
12
12
12
12
12
12
12
12
12
12
12
12
12
12
12
12
12
12
12
12
12
12
12
12
12
12
12
12
12
12
12
12
12
12
12
12
12
12
12
12
12
12
12
12
12
12
12
12
12
12
12
12
12
12
12
12
12
12
12
12
12
12
12
12
12
12
12
12
12
12
12
12
12
12
12
12
12
12
12
12
12
12
12
12
12
12
12
12
12
12
12
12
12
12
12
12
12
12
12
12
12
12
12
12
12
12
12
12
12
12
12
12
12
12
12
12
12
12
12
12
12
12
12
12
12
12
12
12
12
12
12
12
12
12
12
12
12
12
12
12
12
12
12
12
12
12
12
12
12
12
12
12
12
12
12
12
12
12
12
12
12
12
12
12
12
12
12
12
12
12
12
12
12
12
12
12
12
12
12
12
12
12
12
12
12
12
12
12
12
12
12
12
12
12
12
12
12
12
12
12
12
12
12
12
12
12
12
12
12
12
12
12
12
12
12
12
12
12
12
12
12
12
12
12
12
12
12
12
12
12
12
12
12
12
12
12
12
12
12
12
12
12
12
12
12
12
12
12
12
12
12
12
12
12
12
12
12
12
12
12
12
12
12
12
12
12
12
12
12
12
12
12
12
12
12
12
12
12
12
12
12
12
12
12
12
12
12
12
12
12
12
12
12
12
12
12
12
12
12
12
12
12
12
12
12
12
12
12
12
12
12
12
12
12
12
12
12
12
12
12
12
12
12
12
12
12
12
12
12
12
12
12
12
12
12
12
12
12
12
12
12
12
12
12
12
12
12
12
12
12
12
12
12
12
12
12
12
12
12
12
12
12
12
12
12
12
12
12
12
12
12
12
12
12
12
12
12
12
12
12
12
12
12
12
12
12
12
12
12
12
12
12
12
12
12
12
12
12
12
12
12
12
12
12
12
12
12
12
12
12
12
12
12
12
12
12
12
12
12
12
12
12
12
12
12
12
12
12
12
12
12
12
12
12
12
12
12
12
12
12
12
12
12
12
12
12
12
12
12
12
12
12
12
12
12
12
12
12
12
12
12
12
12
12
12
12
12
12
12
12
12
12
12
12
12
12
12
12
12
12
12
12
12
12
12
12
12
12
12
12
12
12
12
12
12
12
12
12
12
12
12
12
12
12
12
12
12
12
12
12
12
12
12
12
12
12
12
12
12
12
12
12
12
12
12
12
12
12
12
12
12
12
12
12
12
12
12
12
12
12
12
12
12
12
12
12
12
12
12
12
12
12
12
12
12
12
12
12
12
12
12
12
12
12
12
12
12
12
12
12
12
12
12
12
12
12
12
12
12
12
12
12
12
12
12
12
12
12
12
12
12
12
12
12
12
12
12
12
12
12
12
12
12
12
12
12
12
12
12
12
12
12
12
12
12
12
12
12
12
12
12
12
12
12
12
12
12
12
12
12
12
12
12
12
12
12
12
12
12
12
12
12
12
12
12
12
12
12
12
12
12
12
12
12
12
12
12
12
12
12
12
12
12
12
12
12
12
12
12
12
12
12
12
12
12
12
12
12
12
12
12
12
12
12
12
12
12
12
12
12
12
12
12
12
12
12
12
12
12
12
12
12
12
12
12
12
12
12
12
12
12
12
12
12
12
12
12
12
12
12
12
12
12
12
12
12
12
12
12
12
12
12
12
12
12
12
12
12
12
12
12
12
12
12
12
12
12
12
12
12
12
12
12
12
12
12
12
12
12
12
12
12
12
12
12
12
12
12
12
12
12
12
12
12
12
12
12
12
12
12
12
12
12
12
12
12
12
12
12
12
12
12
12
12
12
12
12
12
12
12
12
12
12
12
12
12
12
12
12
12
12
12
12
12
12
12
12
12
12
12
12
12
12
12
12
12
12
12
12
12
12
12
12
12
12
12
12
12
12
12
12
12
12
12
12
12
12
12
12
12
12
12
12
12
12
12
12
12
12
12
12
12
12
12
12
12
12
12
12
12
12
12
12
12
12
12
12
12
12
12
12
12
12
12
12
12
12
12
12
12
12
12
12
12
12
12
12
12
12
12
12
12
12
12
12
12
12
12
12
12
12
12
12
12
12
12
12
12
12
12
12
12
12
12
12
12
12
12
12
12
12
12
12
12
12
12
12
12
12
12
12
12
12
12
12
12
12
12
12
12
12
12
12
12
12
12
12
12
12
12
12
12
12
12
12
12
12
12
12
12
12
12
12
12
12
12
12
12
12
12
12
12
12
12
12
12
12
12
12
12
12
12
12
12
12
12
12
12
12
12
12
12
12
12
12
12
12
12
12
12
12
12
12
12
12
12
12
12
12
12
12
12
12
12
12
12
12
12
12
12
12
12
12
12
12
12
12
12
12
12
12
12
12
12
12
12
12
12
12
12
12
12
12
12
12
12
12
12
12
12
12
12
12
12
12
12
12
12
12
12
12
12
12
12
12
12
12
12
12
12
12
12
12
12
12
12
12
12
12
12
12
12
12
12
12
12
12
12
12
12
12
12
12
12
12
12
12
12
12
12
12
12
12
12
12
12
12
12
12
12
12
12
12
12
12
12
12
12
12
12
12
12
12
12
12
12
12
12
12
12
12
12
12
12
12
12
12
12
12
12
12
12
12
12
12
12
12
12
12
12
12
12
12
12
12
12
12
12
12
12
12
12
12
12
12
12
12
12
12
12
12
12
12
12
12
12
12
12
12
12
12
12
12
12
12
12
12
12
12
12
12
12
12
12
12
12
12
12
12
12
12
12
12
12
12
12
12
12
12
12
12
12
12
12
12
12
12
12
12
12
12
12
12
12
12
12
12
12
12
12
12
12
12
12
12
12
12
12
12
12
12
12
12
12
12
12
12
12
12
12
12
12
12
12
12
12
12
12
12
12
12
12
12
12
12
12
12
12
12
12
12
12
12
12
12
12
12
12
12
12
12
12
12
12
12
12
12
12
12
12
12
12
12
12
12
12
12
12
12
12
12
12
12
12
12
12
12
12
12
12
12
12
12
12
12
12
12
12
12
12
12
12
12
12
12
12
12
12
12
12
12
12
12
12
12
12
12
12
12
12
12
12
12
12
12
12
12
12
12
12
12
12
12
12
12
12
12
12
12
12
12
12
12
12
12
12
12
12
12
12
12
12
12
12
12
12
12
12
12
12
12
12
12
12
12
12
12
12
12
12
12
12
12
12
12
12
12
12
12
12
12
12
12
12
12
12
12
12
12
12
12
12
12
12
12
12
12
12
12
12
12
12
12
12
12
12
12
12
12
12
12
12
12
12
12
12
12
12
12
12
12
12
12
12
12
12
12
12
12
12
12
12
12
12
12
12
12
12
12
12
12
12
12
12
12
12
12
12
12
12
12
12
12
12
12
12
12
12
12
12
12
12
12
12
12
12
12
12
12
12
12
12
12
12
12
12
12
12
12
12
12
12
12
12
12
12
12
12
12
12
12
12
12
12
12
12
12
12
12
12
12
12
12
12
12
12
12
12
12
12
12
12
12
12
12
12
12
12
12
12
12
12
12
12
12
12
12
12
12
12
12
12
12
12
12
12
12
12
12
12
12
12
12
12
12
12
12
12
12
12
12
12
12
12
12
12
12
12
12
12
12
12
12
12
12
12
12
12
12
12
12
12
12
12
12
12
12
12
12
12
12
12
12
12
12
12
12
12
12
12
12
12
12
12
12
12
12
12
12
12
12
12
12
12
12
12
12
12
12
12
12
12
12
12
12
12
12
12
12
12
12
12
12
12
12
12
12
12
12
12
12
12
12
12
12
12
12
12
12
12
12
12
12
12
12
12
12
12
12
12
12
12
12
12
12
12
12
12
12
12
12
12
12
12
12
12
12
12
12
12
12
12
12
12
12
12
12
12
12
12
12
12
12
12
12
12
12
12
12
12
12
12
12
12
12
12
12
12
12
12
12
12
12
12
12
12
12
12
12
12
12
12
12
12
12
12
12
12
12
12
12
12
12
12
12
12
12
12
12
12
12
12
12
12
12
12
12
12
12
12
12
12
12
12
12
12
12
12
12
12
12
12
12
12
12
12
12
12
12
12
12
12
12
12
12
12
12
12
12
12
12
12
12
12
12
12
12
12
12
12
12
12
12
12
12
12
12
12
12
12
12
12
12
12
12
12
12
12
12
12
12
12
12
12
12
12
12
12
12
12
12
12
12
12
12
12
12
12
12
12
12
12
12
12
12
12
12
12
12
12
12
12
12
12
12
12
12
12
12
12
12
12
12
12
12
12
12
12
12
12
12
12
12
12
12
12
12
12
12
12
12
12
12
12
12
12
12
12
12
12
12
12
12
12
12
12
12
12
12
12
12
12
12
12
12
12
12
12
12
12
12
12
12
12
12
12
12
12
12
12
12
12
12
12
12
12
12
12
12
12
12
12
12
12
12
12
12
12
12
12
12
12
12
12
12
12
12
12
12
12
12
12
12
12
12
12
12
12
12
12
12
12
12
12
12
12
12
12
12
12
12
12
12
12
12
12
12
12
12
12
12
12
12
12
12
12
12
12
12
12
12
12
12
12
12
12
12
12
12
12
12
12
12
12
12
12
12
12
12
12
12
12
12
12
12
12
12
12
12
12
12
12
12
12
12
12
12
12
12
12
12
12
12
12
12
12
12
12
12
12
12
12
12
12
12
12
12
12
12
12
12
12
12
12
12
12
12
12
12
12
12
12
12
12
12
12
12
12
12
12
12
12
12
12
12
12
12
12
12
12
12
12
12
12
12
12
12
12
12
12
12
12
12
12
12
12
12
12
12
12
12
12
12
12
12
12
12
12
12
12
12
12
12
12
12
12
12
12
12
12
12
12
12
12
12
12
12
12
12
12
12
12
12
12
12
12
12
12
12
12
12
12
12
12
12
12
12
12
12
12
12
12
12
12
12
12
12
12
12
12
12
12
12
12
12
12
12
12
12
12
12
12
12
12
12
12
12
12
12
12
12
12
12
12
12
12
12
12
12
12
12
12
12
12
12
12
12
12
12
12
12
12
12
12
12
12
12
12
12
12
12
12
12
12
12
12
12
12
12
12
12
12
12
12
12
12
12
12
12
12
12
12
12
12
12
12
12
12
12
12
12
12
12
12
12
12
12
12
12
12
12
12
12
12
12
12
12
12
12
12
12
12
12
12
12
12
12
12
12
12
12
12
12
12
12
12
12
12
12
12
12
12
12
12
12
12
12
12
12
12
12
12
12
12
12
12
12
12
12
12
12
12
12
12
12
12
12
12
12
12
12
12
12
12
12
12
12
12
12
12
12
12
12
12
12
12
12
12
12
12
12
12
12
12
12
12
12
12
12
12
12
12
12
12
12
12
12
12
12
12
12
12
12
12
12
12
12
12
12
12
12
12
12
12
12
12
12
12
12
12
12
12
12
12
12
12
12
12
12
12
12
12
12
12
12
12
12
12
12
12
12
12
12
12
12
12
12
12
12
12
12
12
12
12
12
12
12
12
12
12
12
12
12
12
12
12
12
12
12
12
12
12
12
12
12
12
12
12
12
12
12
12
12
12
12
12
12
12
12
12
12
12
12
12
12
12
12
12
12
12
12
12
12
12
12
12
12
12
12
12
12
12
12
12
12
12
12
12
12
12
12
12
12
12
12
12
12
12
12
12
12
12
12
12
12
12
12
12
12
12
12
12
12
12
12
12
12
12
12
12
12
12
12
12
12
12
12
12
12
12
12
12
12
12
12
12
12
12
12
12
12
12
12
12
12
12
12
12
12
12
12
12
12
12
12
12
12
12
12
12
12
12
12
12
12
12
12
12
12
12
12
12
12
12
12
12
12
12
12
12
12
12
12
12
12
12
12
12
12
12
12
12
12
12
12
12
12
12
12
12
12
12
12
12
12
12
12
12
12
12
12
12
12
12
12
12
12
12
12
12
12
12
12
12
12
12
12
12
12
12
12
12
12
12
12
12
12
12
12
12
12
12
12
12
12
12
12
12
12
12
12
12
12
12
12
12
12
12
12
12
12
12
12
12
12
12
12
12
12
12
12
12
12
12
12
12
12
12
12
12
12
12
12
12
12
12
12
12
12
12
12
12
12
12
12
12
12
12
12
12
12
12
12
12
12
12
12
12
12
12
12
12
12
12
12
12
12
12
12
12
12
12
12
12
12
12
12
12
12
12
12
12
12
12
12
12
12
12
12
12
12
12
12
12
12
12
12
12
12
12
12
12
12
12
12
12
12
12
12
12
12
12
12
12
12
12
12
12
12
12
12
12
12
12
12
12
12
12
12
12
12
12
12
12
12
12
12
12
12
12
12
12
12
12
12
12
12
12
12
12
12
12
12
12
12
12
12
12
12
12
12
12
12
12
12
12
12
12
12
12
12
12
12
12
12
12
12
12
12
12
12
12
12
12
12
12
12
12
12
12
12
12
12
12
12
12
12
12
12
12
12
12
12
12
12
12
12
12
12
12
12
12
12
12
12
12
12
12
12
12
12
12
12
12
12
12
12
12
12
12
12
12
12
12
12
12
12
12
12
12
12
12
12
12
12
12
12
12
12
12
12
12
12
12
12
12
12
12
12
12
12
12
12
12
12
12
12
12
12
12
12
12
12
12
12
12
12
12
12
12
12
12
12
12
12
12
12
12
12
12
12
12
12
12
12
12
12
12
12
12
12
12
12
12
12
12
12
12
12
12
12
12
12
12
12
12
12
12
12
12
12
12
12
12
12
12
12
12
12
12
12
12
12
12
12
12
12
12
12
12
12
12
12
12
12
12
12
12
12
12
12
12
12
12
12
12
12
12
12
12
12
12
12
12
12
12
12
12
12
12
12
12
12
12
12
12
12
12
12
12
12
12
12
12
12
12
12
12
12
12
12
12
12
12
12
12
12
12
12
12
12
12
12
12
12
12
12
12
12
12
12
12
12
12
12
12
12
12
12
12
12
12
12
12
12
12
12
12
12
12
12
12
12
12
12
12
12
12
12
12
12
12
12
12
12
12
12
12
12
12
12
12
12
12
12
12
12
12
12
12
12
12
12
12
12
12
12
12
12
12
12
12
12
12
12
12
12
12
12
12
12
12
12
12
12
12
12
12
12
12
12
12
12
12
12
12
12
12
12
12
12
12
12
12
12
12
12
12
12
12
12
12
12
12
12
12
12
12
12
12
12
12
12
12
12
12
12
12
12
12
12
12
12
12
12
12
12
12
12
12
12
12
12
12
12
12
12
12
12
12
12
12
12
12
12
12
12
12
12
12
12
12
12
12
12
12
12
12
12
12
12
12
12
12
12
12
12
12
12
12
12
12
12
12
12
12
12
12
12
12
12
12
12
12
12
12
12
12
12
12
12
12
12
12
12
12
12
12
12
12
12
12
12
12
12
12
12
12
12
12
12
12
12
12
12
12
12
12
12
12
12
12
12
12
12
12
12
12
12
12
12
12
12
12
12
12
12
12
12
12
12
12
12
12
12
12
12
12
12
12
12
12
12
12
12
12
12
12
12
12
12
12
12
12
12
12
12
12
12
12
12
12
12
12
12
12
12
12
12
12
12
12
12
12
12
12
12
12
12
12
12
12
12
12
12
12
12
12
12
12
12
12
12
12
12
12
12
12
12
12
12
12
12
12
12
12
12
12
12
12
12
12
12
12
12
12
12
12
12
12
12
12
12
12
12
12
12
12
12
12
12
12
12
12
12
12
12
12
12
12
12
12
12
12
12
12
12
12
12
12
12
12
12
12
12
12
12
12
12
12
12
12
12
12
12
12
12
12
12
12
12
12
12
12
12
12
12
12
12
12
12
12
12
12
12
12
12
12
12
12
12
12
12
12
12
12
12
12
12
12
12
12
12
12
12
12
12
12
12
12
12
12
12
12
12
12
12
12
12
12
12
12
12
12
12
12
12
12
12
12
12
12
12
12
12
12
12
12
12
12
12
12
12
12
12
12
12
12
12
12
12
12
12
12
12
12
12
12
12
12
12
12
12
12
12
12
12
12
12
12
12
12
12
12
12
12
12
12
12
12
12
12
12
12
12
12
12
12
12
12
12
12
12
12
12
12
12
12
12
12
12
12
12
12
12
12
12
12
12
12
12
12
12
12
12
12
12
12
12
12
12
12
12
12
12
12
12
12
12
12
12
12
12
12
12
12
12
12
12
12
12
12
12
12
12
12
12
12
12
12
12
12
12
12
12
12
12
12
12
12
12
12
12
12
12
12
12
12
12
12
12
12
12
12
12
12
12
12
12
12
12
12
12
12
12
12
12
12
12
12
12
12
12
12
12
12
12
12
12
12
12
12
12
12
12
12
12
12
12
12
12
12
12
12
12
12
12
12
12
12
12
12
12
12
12
12
12
12
12
12
12
12
12
12
12
12
12
12
12
12
12
12
12
12
12
12
12
12
12
12
12
12
12
12
12
12
12
12
12
12
12
12
12
12
12
12
12
12
12
12
12
12
12
12
12
12
12
12
12
12
12
12
12
12
12
12
12
12
12
12
12
12
12
12
12
12
12
12
12
12
12
12
12
12
12
12
12
12
12
12
12
12
12
12
12
12
12
12
12
12
12
12
12
12
12
12
12
12
12
12
12
12
12
12
12
12
12
12
12
12
12
12
12
12
12
12
12
12
12
12
12
12
12
12
12
12
12
12
12
12
12
12
12
12
12
12
12
12
12
12
12
12
12
12
12
12
12
12
12
12
12
12
12
12
12
12
12
12
12
12
12
12
12
12
12
12
12
12
12
12
12
12
12
12
12
12
12
12
12
12
12
12
12
12
12
12
12
12
12
12
12
12
12
12
12
12
12
12
12
12
12
12
12
12
12
12
12
12
12
12
12
12
12
12
12
12
12
12
12
12
12
12
12
12
12
12
12
12
12
12
12
12
12
12
12
12
12
12
12
12
12
12
12
12
12
12
12
12
12
12
12
12
12
12
12
12
12
12
12
12
12
12
12
12
12
12
12
12
12
12
12
12
12
12
12
12
12
12
12
12
12
12
12
12
12
12
12
12
12
12
12
12
12
12
12
12
12
12
12
12
12
12
12
12
12
12
12
12
12
12
12
12
12
12
12
12
12
12
12
12
12
12
12
12
12
12
12
12
12
12
12
12
12
12
12
12
12
12
12
12
12
12
12
12
12
12
12
12
12
12
12
12
12
12
12
12
12
12
12
12
12
12
12
12
12
12
12
12
12
12
12
12
12
12
12
12
12
12
12
12
12
12
12
12
12
12
12
12
12
12
12
12
12
12
12
12
12
12
12
12
12
12
12
12
12
12
12
12
12
12
12
12
12
12
12
12
12
12
12
12
12
12
12
12
12
12
12
12
12
12
12
12
12
12
12
12
12
12
12
12
12
12
12
12
12
12
12
12
12
12
12
12
12
12
12
12
12
12
12
12
12
12
12
12
12
12
12
12
12
12
12
12
12
12
12
12
12
12
12
12
12
12
12
12
12
12
12
12
12
12
12
12
12
12
12
12
12
12
12
12
12
12
12
12
12
12
12
12
12
12
12
12
12
12
12
12
12
12
12
12
12
12
12
12
12
12
12
12
12
12
12
12
12
12
12
12
12
12
12
12
12
12
12
12
12
12
12
12
12
12
12
12
12
12
12
12
12
12
12
12
12
12
12
12
12
12
12
12
12
12
12
12
12
12
12
12
12
12
12
12
12
12
12
12
12
12
12
12
12
12
12
12
12
12
12
12
12
12
12
12
12
12
12
12
12
12
12
12
12
12
12
12
12
12
12
12
12
12
12
12
12
12
12
12
12
12
12
12
12
12
12
12
12
12
12
12
12
12
12
12
12
12
12
12
12
12
12
12
12
12
12
12
12
12
12
12
12
12
12
12
12
12
12
12
12
12
12
12
12
12
12
12
12
12
12
12
12
12
12
12
12
12
12
12
12
12
12
12
12
12
12
12
12
12
12
12
12
12
12
12
12
12
12
12
12
12
12
12
12
12
12
12
12
12
12
12
12
12
12
12
12
12
12
12
12
12
12
12
12
12
12
12
12
12
12
12
12
12
12
12
12
12
12
12
12
12
12
12
12
12
12
12
12
12
12
12
12
12
12
12
12
12
12
12
12
12
12
12
12
12
12
12
12
12
12
12
12
12
12
12
12
12
12
12
12
12
12
12
12
12
12
12
12
12
12
12
12
12
12
12
12
12
12
12
12
12
12
12
12
12
12
12
12
12
12
12
12
12
12
12
12
12
12
12
12
12
12
12
12
12
12
12
12
12
12
12
12
12
12
12
12
12
12
12
12
12
12
12
12
12
12
12
12
12
12
12
CELL_DATA 34596
SCALARS Mises_Stress_Abs(MPa) float 1
LOOKUP_TABLE default
143.577000
149.026000
108.710000
130.445000
138.584000
131.034000
139.055000
136.841000
92.058000
141.660000
36.064300
120.935000
66.378500
16.580700
5.732700
3.122370
2.396660
0.971348
53.697700
0.542930
6.333530
26.179100
79.602500
4.766590
3.746890
3.564470
1.876770
0.901731
78.806700
45.462600
70.271300
22.584300
30.886600
34.991600
55.156800
63.839900
49.959900
33.492800
52.993400
34.807700
55.958100
65.842000
74.397600
81.988900
38.528200
54.951400
4.107320
4.965360
3.411580
3.863880
1.763080
68.511600
78.887500
65.992500
52.834500
42.270900
69.721000
81.043600
70.398200
73.513900
73.494000
68.944500
72.526000
22.899500
65.334100
73.941000
23.017500
57.825700
46.692300
2.749240
4.518500
5.087580
4.967230
4.009580
67.882800
48.309800
81.015200
160.074000
52.786400
51.163100
173.437000
164.478000
51.856900
72.944900
182.190000
55.499900
46.263200
172.368000
174.577000
86.446300
171.387000
168.416000
4.704530
6.178860
4.846130
5.685830
5.429380
36.145300
43.107600
65.269400
57.991100
86.612600
94.460700
43.231800
40.717900
65.105300
37.700100
6.401140
7.136870
5.949420
6.171540
40.519700
31.948000
29.809300
13.600100
17.342200
57.185100
35.152000
47.064700
5.618650
60.377000
54.771200
64.977100
42.875700
60.473700
36.699100
26.933400
8.285290
6.677940
6.614140
7.626650
8.370420
31.655100
40.275500
45.638400
41.884500
28.843800
38.580100
34.194500
34.268800
29.423500
34.364500
8.273970
9.975360
9.166680
7.732030
7.846640
33.372000
34.708400
27.136100
38.077200
34.273300
18.041000
26.333400
35.076300
45.349900
29.578500
9.045130
12.503000
8.069230
9.797700
10.522500
18.167600
27.473300
29.578700
32.000900
23.232100
8.880530
11.261000
13.034600
12.908700
9.980520
12.530100
33.582000
37.222100
32.275400
12.591800
22.072400
25.217300
22.242500
33.816100
16.491200
13.087300
12.272000
12.030800
17.304600
9.674350
23.902500
33.427900
37.915900
31.835300
21.656700
23.387900
18.490900
20.588500
15.578600
24.357200
13.446100
14.967900
15.757800
10.328800
33.548000
16.641300
28.215100
35.503800
31.621100
39.327600
18.883600
16.805900
23.473500
13.978900
17.942900
11.084200
15.792900
16.931500
18.167600
37.438000
22.914600
44.508800
40.225300
51.044700
34.794700
14.779900
16.584500
17.430300
13.283900
14.695800
18.012800
22.479800
20.026400
19.170900
18.167200
47.176400
48.081900
38.231500
43.887500
14.740900
12.083200
58.054200
13.909400
11.448700
13.814600
39.248100
24.098200
17.702200
34.645300
26.089300
75.093200
44.327800
42.096500
71.531400
62.270700
11.078100
10.736400
9.837150
10.156000
12.358900
60.043900
26.610300
26.626900
27.887900
46.984100
76.464300
30.905100
51.016600
94.548700
54.752000
8.061890
9.986300
8.865870
8.074500
9.834810
65.204000
127.274000
37.761500
114.286000
129.590000
31.246800
36.775100
115.032000
116.940000
50.100900
44.013400
55.021600
136.254000
65.660000
130.165000
50.348900
72.986700
7.728440
6.639820
7.941760
8.031990
4.605500
36.620000
75.044500
65.842200
29.730200
40.957700
49.405400
63.061900
73.005900
71.955400
29.059500
56.121000
46.076500
47.923400
64.748100
67.296800
57.343600
62.847900
6.424370
3.412540
5.018710
6.174630
6.476460
36.175900
53.223500
34.630000
43.561700
30.478400
9.181550
52.278000
69.724900
14.560700
43.160400
41.797400
17.811500
71.638600
9.923750
30.189600
56.696100
17.851800
1.512230
3.716350
4.921700
5.060650
4.431890
45.043500
29.259300
40.047600
40.235800
47.311200
45.519200
53.853800
47.814500
47.371800
47.358600
21.520300
47.313500
54.374100
64.832100
61.444600
48.572700
59.736200
1.179760
4.554620
2.264190
3.077590
4.034120
16.006300
99.851000
30.275000
97.205400
75.061100
62.746700
42.550200
86.316100
105.576000
95.480500
106.261000
21.312600
82.572000
40.823300
66.824400
7.455460
95.974300
3.725040
2.725960
1.860440
4.294910
1.194160
0.160309
15.981400
27.006800
9.507760
9.123290
22.999600
16.894100
15.090700
8.489610
13.426200
8.204560
10.248400
7.073960
6.163090
11.764800
10.894700
5.653240
8.431210
5.105630
6.138180
5.835260
22.714700
24.476700
18.492300
21.846600
18.483600
19.460800
16.197100
19.118200
23.291500
13.082900
6.343260
15.991900
24.734900
8.478070
5.367610
7.186340
18.435600
12.364700
22.736100
22.031900
23.408100
11.702500
11.768700
7.209680
11.804800
7.993540
9.740040
7.458140
9.361310
8.649160
11.592400
12.608700
11.282500
2.688820
7.440420
5.934190
5.172230
7.361900
6.300080
5.955150
6.962250
5.271850
6.205280
12.183000
6.878630
7.895990
8.251950
9.156060
8.467360
13.895500
10.274000
9.619610
12.411600
9.964850
12.212300
11.854200
7.059520
4.204910
17.356000
13.774700
14.755300
15.288500
11.985400
15.706000
15.609300
16.929300
7.663290
19.552600
13.439700
16.226000
18.005300
9.630950
17.373900
13.211900
16.985300
14.094100
17.099300
15.144100
16.176100
11.811600
19.439100
16.175900
18.064300
14.628200
17.505500
14.095400
12.039400
5.135330
10.403000
13.345800
32.706300
33.104200
15.623500
20.024400
16.110800
24.968700
21.141100
28.209300
42.303500
39.727300
38.493500
29.953600
34.998100
28.831600
23.558800
25.018900
27.082200
37.570700
12.753700
14.793300
13.246000
17.328500
7.950160
7.976310
16.993600
22.253100
25.537000
29.221000
33.117900
10.158700
10.822000
0.005159
0.002774
22.653900
19.543700
16.477200
19.959800
18.363700
26.236700
7.613360
0.010015
0.018982
7.769040
24.423000
11.041000
0.005034
25.403200
0.008970
2.567300
4.339370
14.254200
9.657870
5.602560
0.017007
4.078100
14.886500
26.709800
10.877600
0.034359
13.122800
25.672900
6.001840
0.005586
10.570800
0.007814
4.375840
8.539860
3.624050
1.894740
25.694400
0.014738
12.706600
15.818100
0.030799
27.505900
12.246000
0.005810
4.117420
9.538800
10.629700
0.007121
2.966400
4.755710
0.014578
1.659670
15.900700
26.420900
0.029817
11.805200
0.005656
0.007473
26.916600
13.126100
11.648900
14.507100
6.245590
18.000600
20.331700
0.005503
0.029211
24.853200
0.014169
12.300500
4.454400
14.071300
12.355600
26.901300
9.664000
0.009343
0.005755
0.003649
24.956900
36.232400
34.121200
0.028795
22.985100
0.014052
12.297200
13.665800
4.773250
12.894700
25.135000
0.014384
0.003012
0.008938
0.013675
26.842700
36.784700
24.970000
0.028608
27.017700
44.400700
7.915680
11.750500
0.013958
9.696520
20.851700
23.243800
12.232300
17.900200
0.014241
0.010207
0.004089
16.261800
0.017684
0.028486
16.766700
32.451200
41.766100
0.004418
0.013918
16.484800
12.584300
8.440860
9.211030
20.372800
12.470300
40.293500
0.007874
0.017692
4.548780
15.961300
64.220000
43.918100
59.040700
0.028021
31.275600
14.550300
17.646700
0.013633
10.894000
5.679140
11.821200
12.643900
11.538700
17.085900
0.008383
40.409500
28.582200
28.829700
16.187700
27.384500
7.735590
14.569200
3.027560
0.027838
0.005368
14.280700
0.013072
5.390260
13.114700
21.964900
29.640100
21.757200
13.171500
21.894700
29.479500
29.871900
22.931900
11.559700
13.252500
4.427790
10.530600
2.692070
9.427440
4.993440
2.634510
11.638400
11.405200
0.006597
0.014086
14.586800
18.915900
29.172500
10.271000
20.189100
15.650600
29.750400
19.730200
21.241500
32.006500
23.536000
31.359900
34.268100
17.739600
3.964360
34.228500
32.069300
20.479500
32.013900
9.811110
32.633300
40.486600
17.092100
11.571500
35.798600
14.976600
31.186700
32.416500
36.213500
50.241000
12.062100
52.128700
22.716000
16.769900
15.969600
20.240300
12.815400
14.391900
3.531860
17.843300
15.165700
17.979900
15.039300
9.934990
11.181000
11.469400
16.567200
18.449900
23.100200
20.968200
17.241700
13.941900
15.412900
7.414030
10.722600
0.028732
4.523950
15.953700
13.272200
9.617880
34.475200
41.454800
45.838400
28.304200
40.015400
24.565100
27.961900
4.795120
18.193300
8.602140
19.217100
22.116300
12.697000
10.409200
14.100800
16.368200
14.778300
5.213900
6.662400
17.960300
7.311410
18.269500
4.367110
11.509300
18.424800
8.921480
13.289200
26.024100
33.036400
8.015660
20.325500
14.090600
16.714300
14.651700
26.462700
32.119700
31.865500
13.698900
9.849010
14.414400
17.767900
23.530100
14.950400
28.103000
21.275400
17.472600
13.836100
20.810000
12.377300
6.472260
14.687500
8.111420
16.039300
15.074100
22.872000
7.735460
11.973900
6.276380
11.258000
16.528600
7.606850
23.225000
9.130000
18.486400
19.579900
3.944740
13.216300
9.073600
5.899010
14.270600
10.254200
5.771440
10.215500
14.138700
14.128500
7.393260
9.019630
18.617300
10.819000
4.525850
7.962830
5.233030
9.680450
6.799990
11.987600
13.814000
8.850210
7.817250
4.070380
13.534200
5.355880
10.043500
13.151200
14.471800
7.645530
5.484860
5.500800
4.444540
9.805140
12.154800
7.031130
6.540830
7.606410
7.803320
9.968050
8.144150
10.435900
5.493040
6.250040
3.267200
4.629790
6.396590
3.275560
2.233520
8.348680
3.768780
3.971980
4.299990
3.375500
1.209910
4.452250
8.193130
6.345520
6.051070
4.192560
2.863070
1.990740
6.050020
10.350300
2.980690
8.017950
8.043190
8.400450
4.767430
2.016730
1.624650
3.111930
4.564710
1.864620
8.213350
11.647800
32.194900
3.874010
6.239100
4.525520
9.860700
12.192000
19.563900
9.986970
22.919400
14.183600
0.013103
9.783670
0.009310
0.014550
30.180900
35.179500
17.212000
20.135900
22.317900
0.010506
0.014872
8.067220
0.013242
12.766200
17.028200
13.891300
30.000700
20.565700
9.252620
0.015541
6.911640
0.012583
0.013596
17.243600
14.940700
13.632900
25.031500
2.576000
3.352300
0.014802
7.940000
5.507260
0.014300
0.016481
20.785700
11.838800
12.235500
14.934500
0.015093
0.017910
5.366850
0.018159
4.802070
16.263400
10.883400
12.845300
10.337300
3.662640
4.493500
0.016428
0.021302
0.019458
13.691200
8.427330
9.490520
9.903720
0.026417
0.017437
0.021917
7.866790
9.029740
8.878450
7.217610
0.030609
0.023568
1.808370
2.961980
0.019249
5.066980
6.890350
6.285360
9.148150
4.094430
6.584230
4.108160
4.986760
2.366480
4.397600
5.502210
9.812930
50.290800
32.955700
26.528800
61.538600
39.352300
14.994000
0.015486
0.008648
26.548900
16.878900
57.380400
28.926600
33.288100
51.681700
0.008365
19.924900
13.461400
0.013705
40.573500
26.508800
28.254300
46.946800
20.879300
11.116300
19.092900
0.008479
0.014522
0.013258
38.628100
26.999800
41.704900
22.423300
15.627700
19.774000
39.394600
39.823800
41.862800
26.372900
42.092600
43.480200
33.081600
35.599300
45.063600
47.996600
56.682300
48.257500
57.515900
53.619800
50.748200
60.531300
53.259500
55.486600
45.731100
50.886100
9.650670
54.297600
57.259900
33.871300
21.885700
13.181100
59.529500
62.823600
45.484800
24.764200
26.456100
20.112000
21.599100
22.619100
23.582700
24.450300
23.177400
22.612400
21.895300
20.575200
24.535200
30.752900
27.655300
33.131200
30.205600
31.198200
25.952400
26.114200
29.055300
27.426100
28.913900
30.398900
35.538100
41.561700
13.697400
35.924100
37.693600
29.235300
39.011600
27.516600
58.150000
21.435000
55.552800
52.156400
58.423600
29.381600
26.877900
4.729710
5.599510
6.019700
5.156420
11.309600
6.418400
7.914880
4.070540
3.485770
17.655100
5.484940
4.331720
4.761920
6.321190
5.855520
3.763230
5.172970
3.325830
6.786390
9.876250
6.732740
12.238300
39.584200
24.264000
31.838000
41.756100
44.893700
47.466000
20.333600
30.794900
14.961500
8.882010
20.713000
22.581800
19.428900
17.999300
20.019700
22.062400
20.623500
21.562100
21.418800
21.689500
22.563100
23.184000
25.264400
22.029100
16.641600
24.017300
24.435300
25.215300
26.159900
9.281080
23.218500
53.062800
48.492200
47.966200
28.796100
44.013600
35.805200
38.652100
28.723200
37.007300
20.284000
14.481800
39.391400
43.624900
42.089300
43.539600
45.302800
40.709600
47.062600
41.546100
45.331000
46.887100
50.182200
50.961000
48.920700
48.193400
49.265500
55.818100
29.862900
54.117100
24.777000
53.141000
45.982200
46.753600
61.981800
48.740800
69.964700
61.302400
64.794300
57.161900
67.097900
67.893200
70.664100
72.899800
64.271100
61.374700
74.276400
75.861600
74.883300
87.248100
88.716100
78.599000
80.938300
75.521500
44.373700
32.718400
73.063100
48.404000
68.485000
32.445700
43.239000
0.007158
21.948800
0.012060
34.204500
78.113000
23.049400
45.270600
72.122800
0.011018
36.269700
0.019294
26.283700
38.749900
28.205700
68.156300
71.638600
46.671000
17.355200
25.620100
0.009179
0.016611
0.012033
0.018042
0.015810
0.014490
0.014733
0.028192
0.019689
0.046604
0.024310
0.687313
1.754670
1.032640
0.039571
1.075310
20.681600
27.016700
17.634200
12.674200
10.503700
6.399810
4.784290
2.131940
1.232660
0.931884
0.834744
0.471913
0.306123
0.143134
0.059764
0.445300
0.371268
0.226271
0.130795
0.081678
0.050650
0.395755
0.332082
0.194289
0.109504
0.083693
0.059376
0.307757
0.256578
0.184133
0.128509
0.091710
0.078654
0.268733
0.231166
0.178997
0.136877
0.109995
0.095687
0.235793
0.214966
0.181310
0.146856
0.122016
0.110184
0.221690
0.205974
0.179853
0.152347
0.131550
0.120385
0.207928
0.198755
0.179046
0.155196
0.136581
0.126817
0.198511
0.191491
0.175418
0.155094
0.138522
0.129486
0.189435
0.184627
0.170985
0.152481
0.137164
0.128835
0.180368
0.176261
0.164231
0.147387
0.132950
0.124960
0.170510
0.166916
0.155726
0.139700
0.125761
0.117988
0.158560
0.155012
0.144502
0.129290
0.115620
0.107892
0.144169
0.140594
0.130532
0.115897
0.102422
0.094681
0.126077
0.122556
0.113228
0.099521
0.086252
0.078482
0.104346
0.101191
0.092945
0.080419
0.067561
0.059753
0.079833
0.077685
0.070948
0.060114
0.047810
0.039815
0.059781
0.059278
0.053506
0.043891
0.032326
0.024019
0.059696
0.060991
0.054421
0.043701
0.033846
0.027408
0.078397
0.080190
0.071707
0.058749
0.049580
0.044388
0.100734
0.102705
0.092348
0.077021
0.067041
0.061985
0.116325
0.120402
0.109684
0.092058
0.081653
0.076494
0.127601
0.131984
0.120648
0.102483
0.091910
0.086981
0.130490
0.135972
0.125316
0.107773
0.097854
0.093336
0.126035
0.133354
0.124673
0.108634
0.099904
0.096028
0.117905
0.126268
0.119832
0.106239
0.098867
0.095788
0.107490
0.116776
0.112668
0.101605
0.095794
0.093455
0.096826
0.106692
0.104649
0.095989
0.091541
0.089910
0.087114
0.097337
0.096979
0.090260
0.086953
0.085874
0.079305
0.089601
0.090379
0.085106
0.082595
0.081923
0.073525
0.083768
0.085266
0.080876
0.078858
0.078428
0.069793
0.079871
0.081690
0.077729
0.075916
0.075601
0.067739
0.077648
0.079522
0.075633
0.073815
0.073512
0.066912
0.076725
0.078530
0.074455
0.072505
0.072150
0.067037
0.076817
0.078431
0.074053
0.071893
0.071459
0.067735
0.077641
0.079078
0.074284
0.071900
0.071370
0.069067
0.079157
0.080348
0.075088
0.072451
0.071822
0.070975
0.081357
0.082246
0.076415
0.073504
0.072761
0.073622
0.084320
0.084786
0.078252
0.075011
0.074127
0.077126
0.088136
0.087985
0.080566
0.076911
0.075847
0.081567
0.092839
0.091827
0.083285
0.079110
0.077808
0.086984
0.098397
0.096204
0.086278
0.081448
0.079844
0.093238
0.104616
0.100892
0.089304
0.083696
0.081714
0.100007
0.111097
0.105483
0.092020
0.085514
0.083098
0.106629
0.117135
0.109357
0.093910
0.086489
0.083579
0.112136
0.121716
0.111653
0.094410
0.086070
0.082693
0.115140
0.123563
0.111420
0.092716
0.083774
0.079911
0.114608
0.121325
0.107436
0.088387
0.079035
0.074782
0.108260
0.113722
0.099351
0.080893
0.071567
0.066959
0.095798
0.100445
0.086811
0.070347
0.061474
0.056337
0.080158
0.083281
0.070883
0.058289
0.049517
0.043282
0.061396
0.064174
0.055276
0.047763
0.038502
0.029035
0.050380
0.052276
0.048519
0.045919
0.033923
0.018072
0.059561
0.059062
0.057741
0.055373
0.040002
0.020637
0.076527
0.074566
0.073180
0.069441
0.051461
0.031865
0.096840
0.093448
0.090557
0.083049
0.062163
0.042361
0.104437
0.101145
0.098036
0.091774
0.069498
0.048963
0.117531
0.112885
0.108664
0.096854
0.070932
0.050583
0.097252
0.094070
0.092001
0.089422
0.065673
0.046353
0.115563
0.106488
0.105074
0.079631
0.049839
0.038166
0.055029
0.062682
0.063199
0.037670
0.042708
0.032149
0.514340
0.495184
0.484671
0.295868
0.116663
0.044056
1.316540
0.995054
0.499975
0.280958
0.125987
0.058997
0.269115
0.246509
0.122571
0.110218
0.065251
0.049861
0.129939
0.119372
0.077435
0.063274
0.057109
0.053757
0.163125
0.134407
0.096711
0.077772
0.067988
0.062929
0.170942
0.153152
0.124366
0.096701
0.080249
0.073054
0.172005
0.159965
0.136685
0.110578
0.091493
0.081820
0.169054
0.162743
0.143959
0.118713
0.099146
0.088902
0.164600
0.160844
0.145548
0.122966
0.104057
0.093598
0.158369
0.145121
0.124065
0.105984
0.095857
0.154941
0.153619
0.142039
0.122714
0.105422
0.095537
0.149684
0.148460
0.137531
0.119124
0.102418
0.092781
0.143198
0.141552
0.131073
0.113554
0.097235
0.087702
0.136436
0.133870
0.123161
0.106100
0.090065
0.080595
0.129009
0.125002
0.113752
0.097214
0.081450
0.072049
0.122663
0.116467
0.103988
0.087742
0.072422
0.063250
0.119595
0.110483
0.095660
0.079473
0.064817
0.056138
0.123942
0.111428
0.092686
0.075320
0.061205
0.053345
0.136757
0.121743
0.097973
0.077183
0.063058
0.055650
0.151750
0.135813
0.107763
0.083057
0.067744
0.060437
0.142848
0.133262
0.109571
0.085282
0.071174
0.064609
0.133456
0.129339
0.109402
0.085793
0.073235
0.067271
0.124389
0.124732
0.107572
0.085948
0.074286
0.069026
0.112325
0.119150
0.106300
0.085758
0.075397
0.070572
0.103879
0.114806
0.105228
0.086093
0.076582
0.072367
0.100378
0.111663
0.103459
0.086367
0.077763
0.074122
0.096855
0.107562
0.100736
0.085764
0.078431
0.075355
0.091746
0.101788
0.096615
0.084185
0.078107
0.075717
0.084891
0.094712
0.091505
0.081620
0.076870
0.075112
0.077777
0.087564
0.086131
0.078561
0.074953
0.073761
0.071268
0.081198
0.081310
0.075471
0.072765
0.071992
0.066469
0.076433
0.077490
0.072801
0.070647
0.070151
0.063491
0.073388
0.074916
0.070761
0.068858
0.068492
0.062117
0.071877
0.073509
0.069410
0.067519
0.067172
0.061920
0.071538
0.072986
0.068691
0.066648
0.066258
0.062166
0.071827
0.073142
0.068458
0.066224
0.065754
0.062908
0.072673
0.073744
0.068658
0.066193
0.065644
0.063853
0.073922
0.074811
0.069223
0.066531
0.065892
0.065332
0.075721
0.076326
0.070157
0.067195
0.066458
0.067383
0.078163
0.078339
0.071432
0.068144
0.067281
0.070147
0.081312
0.080867
0.073003
0.069307
0.068281
0.073641
0.085194
0.083863
0.074793
0.070582
0.069345
0.077775
0.089717
0.087226
0.076669
0.071835
0.070330
0.082347
0.094696
0.090766
0.078459
0.072895
0.071074
0.087039
0.099804
0.094207
0.079943
0.073596
0.071411
0.091544
0.104671
0.097220
0.080942
0.073774
0.071215
0.095704
0.108924
0.099511
0.081281
0.073391
0.070414
0.099968
0.112509
0.100892
0.081074
0.072397
0.069055
0.105183
0.115671
0.101593
0.080228
0.070982
0.067184
0.112916
0.118894
0.101225
0.079078
0.069207
0.064800
0.121313
0.121453
0.100107
0.077872
0.066879
0.061767
0.126400
0.121761
0.098550
0.075948
0.064024
0.057589
0.130754
0.120910
0.095494
0.074080
0.060013
0.051762
0.131514
0.116875
0.090633
0.071520
0.055242
0.043674
0.113802
0.100415
0.081744
0.068565
0.050327
0.033707
0.096885
0.087191
0.077299
0.069219
0.047798
0.023723
0.083117
0.077936
0.076454
0.072809
0.048945
0.017821
0.074267
0.073682
0.079083
0.077962
0.052739
0.021156
0.057803
0.062274
0.076386
0.082557
0.058030
0.031231
0.059596
0.061871
0.080036
0.088012
0.064248
0.043566
0.078851
0.086080
0.096553
0.100177
0.074330
0.053106
0.289220
0.287696
0.286281
0.187178
0.090061
0.054038
0.612344
0.586259
0.571088
0.372643
0.132311
0.047856
1.285220
0.986905
0.541112
0.275299
0.127177
0.066684
0.626118
0.460742
0.207402
0.138169
0.098032
0.063208
0.191296
0.145235
0.125879
0.106496
0.077741
0.068628
0.100598
0.109531
0.104453
0.082566
0.073396
0.068297
0.105176
0.112878
0.104873
0.085064
0.072249
0.066450
0.118489
0.125000
0.114058
0.090585
0.073545
0.065034
0.121365
0.128778
0.119046
0.095686
0.075679
0.064609
0.124887
0.131299
0.121580
0.098354
0.077295
0.064856
0.124365
0.130323
0.121483
0.099355
0.078043
0.064976
0.124510
0.129091
0.120148
0.098763
0.077699
0.064513
0.123458
0.126627
0.117636
0.097093
0.076383
0.063265
0.123382
0.124477
0.114663
0.094621
0.074406
0.061530
0.124380
0.122786
0.111637
0.092053
0.072470
0.060060
0.128357
0.123121
0.109658
0.090256
0.071604
0.060024
0.137324
0.127348
0.110080
0.090500
0.072960
0.062552
0.153570
0.137859
0.115055
0.094073
0.077384
0.068180
0.177538
0.156301
0.125582
0.101128
0.084417
0.075730
0.205128
0.180227
0.140967
0.110493
0.091596
0.082709
0.231091
0.206561
0.160379
0.119202
0.096207
0.086171
0.203248
0.186683
0.148088
0.112227
0.093177
0.084430
0.175853
0.166011
0.133375
0.102424
0.086231
0.079027
0.140588
0.143098
0.120394
0.091528
0.078499
0.072203
0.116068
0.125698
0.108952
0.083144
0.071498
0.066311
0.102401
0.114220
0.100229
0.077344
0.067101
0.062537
0.092859
0.105879
0.094571
0.073929
0.065123
0.061162
0.086789
0.099019
0.089914
0.072235
0.064538
0.061367
0.080961
0.092070
0.085209
0.070754
0.064473
0.062011
0.074391
0.084688
0.080146
0.069016
0.064137
0.062397
0.066772
0.077115
0.075180
0.066949
0.063395
0.062252
0.060190
0.070781
0.070836
0.064938
0.062345
0.061667
0.055353
0.066256
0.067749
0.063236
0.061264
0.060857
0.053197
0.064040
0.066050
0.062092
0.060345
0.060044
0.053215
0.063729
0.065558
0.061530
0.059690
0.059370
0.054046
0.064329
0.065895
0.061365
0.059316
0.058898
0.055244
0.065376
0.066467
0.061484
0.059156
0.058651
0.055825
0.066263
0.067249
0.061738
0.059211
0.058613
0.056601
0.067359
0.068172
0.062198
0.059446
0.058780
0.057560
0.068833
0.069426
0.062866
0.059873
0.059127
0.059158
0.070901
0.071111
0.063766
0.060468
0.059619
0.061536
0.073745
0.073266
0.064889
0.061187
0.060200
0.064671
0.077367
0.075904
0.066176
0.061968
0.060790
0.068499
0.081746
0.078970
0.067562
0.062729
0.061310
0.072860
0.086760
0.082375
0.068963
0.063411
0.061694
0.077674
0.092320
0.086033
0.070357
0.063997
0.061943
0.083026
0.098356
0.089899
0.071779
0.064601
0.062149
0.089562
0.105086
0.094064
0.073500
0.065415
0.062550
0.098339
0.112876
0.098782
0.075773
0.066857
0.063422
0.110711
0.122322
0.104268
0.079319
0.069057
0.065040
0.126367
0.133801
0.111498
0.083874
0.072125
0.067321
0.147698
0.147793
0.119233
0.089075
0.075727
0.069608
0.172293
0.162661
0.126140
0.094865
0.078339
0.070881
0.189211
0.172757
0.132213
0.098074
0.079106
0.069383
0.201618
0.177617
0.133175
0.098088
0.075757
0.063795
0.167472
0.145128
0.112042
0.089840
0.068256
0.053382
0.131440
0.114565
0.095838
0.082937
0.060141
0.039639
0.094020
0.086306
0.083964
0.080268
0.055501
0.027211
0.059305
0.063999
0.079503
0.084136
0.058312
0.027830
0.032290
0.053848
0.084334
0.095226
0.069673
0.044019
0.058283
0.078488
0.106162
0.116617
0.087514
0.064271
0.197132
0.204058
0.208914
0.166812
0.107090
0.080101
0.378103
0.367107
0.352601
0.240490
0.126081
0.079252
0.591262
0.554613
0.521955
0.371053
0.145410
0.052892
1.195380
0.935849
0.552695
0.275658
0.122000
0.069774
0.780737
0.569543
0.282979
0.163447
0.119850
0.081676
0.404565
0.294069
0.194736
0.143974
0.112196
0.092505
0.125437
0.148803
0.153119
0.121559
0.099876
0.089973
0.081702
0.126516
0.129401
0.103636
0.088238
0.080040
0.074179
0.115104
0.117842
0.095059
0.077132
0.067838
0.083266
0.113842
0.113481
0.089801
0.068583
0.056189
0.087327
0.112246
0.110743
0.086865
0.062626
0.046702
0.092862
0.111935
0.108732
0.084807
0.058877
0.040144
0.096689
0.111409
0.107058
0.083595
0.057045
0.036890
0.101776
0.112033
0.106087
0.083171
0.057095
0.037200
0.108554
0.114141
0.106252
0.084028
0.059256
0.041119
0.118493
0.118954
0.108333
0.086699
0.063941
0.048404
0.133966
0.128178
0.113285
0.091880
0.071371
0.058515
0.156164
0.143163
0.122227
0.100077
0.081451
0.070736
0.187214
0.166132
0.135680
0.111110
0.093199
0.083659
0.226082
0.196378
0.153333
0.123649
0.104619
0.095352
0.267934
0.233149
0.174470
0.135313
0.113747
0.103292
0.329576
0.291389
0.212894
0.150641
0.117999
0.105017
0.252875
0.235762
0.180213
0.133146
0.109440
0.099344
0.195434
0.195791
0.156167
0.114421
0.097351
0.088876
0.159941
0.165762
0.133351
0.098331
0.083764
0.077144
0.132904
0.142092
0.114839
0.083909
0.072192
0.066198
0.108136
0.122447
0.101796
0.073100
0.063310
0.058056
0.091876
0.107609
0.091736
0.066624
0.057596
0.053356
0.081929
0.096438
0.083865
0.062676
0.054907
0.051479
0.074156
0.086575
0.077020
0.060120
0.053797
0.051283
0.065291
0.076578
0.070551
0.057953
0.053282
0.051590
0.056534
0.067448
0.064639
0.056051
0.052769
0.051798
0.048009
0.059717
0.060106
0.054395
0.052214
0.051737
0.042627
0.054964
0.057188
0.053278
0.051708
0.051500
0.040960
0.053385
0.056183
0.052788
0.051383
0.051230
0.042598
0.054462
0.056816
0.052867
0.051273
0.051021
0.045633
0.056781
0.058007
0.053307
0.051293
0.050915
0.046978
0.058245
0.059235
0.053681
0.051424
0.050896
0.047797
0.059288
0.060035
0.054069
0.051581
0.050970
0.047770
0.060064
0.060874
0.054469
0.051805
0.051132
0.048333
0.061214
0.061987
0.054994
0.052117
0.051387
0.049820
0.063206
0.063517
0.055715
0.052535
0.051726
0.052212
0.066096
0.065603
0.056629
0.053058
0.052120
0.055538
0.069970
0.068265
0.057741
0.053656
0.052541
0.059696
0.074807
0.071513
0.059030
0.054322
0.052969
0.064675
0.080654
0.075369
0.060528
0.055086
0.053441
0.070540
0.087541
0.079881
0.062327
0.056084
0.054080
0.077759
0.095731
0.085225
0.064690
0.057556
0.055147
0.087229
0.105635
0.091677
0.067953
0.059923
0.056995
0.100474
0.118002
0.099608
0.072703
0.063518
0.060030
0.118718
0.133418
0.109347
0.079052
0.068766
0.064364
0.142473
0.151844
0.120396
0.087782
0.075143
0.069818
0.168896
0.172815
0.134406
0.097646
0.082004
0.075582
0.201390
0.196969
0.149722
0.106768
0.088584
0.080042
0.243281
0.224115
0.162904
0.115994
0.091785
0.081589
0.285530
0.247739
0.172125
0.119183
0.090733
0.077744
0.212420
0.181249
0.134079
0.105805
0.082662
0.068194
0.157406
0.135218
0.110756
0.096409
0.073074
0.054856
0.104942
0.096780
0.096295
0.092634
0.067789
0.043886
0.050601
0.066672
0.092165
0.098221
0.072129
0.045888
0.029732
0.069915
0.107114
0.116062
0.087068
0.062766
0.121269
0.141573
0.162119
0.149713
0.108134
0.084652
0.246578
0.247246
0.240442
0.191805
0.130330
0.100018
0.391129
0.372508
0.347864
0.244623
0.140191
0.094218
0.586244
0.543075
0.506403
0.374043
0.148630
0.053810
1.112490
0.889894
0.545479
0.271188
0.117340
0.066703
0.824648
0.606344
0.323814
0.187706
0.132464
0.095774
0.543114
0.399622
0.251477
0.173064
0.137631
0.114738
0.269446
0.244797
0.203372
0.155151
0.129232
0.114252
0.107254
0.168324
0.169479
0.134710
0.113340
0.102567
0.069900
0.138841
0.143943
0.115985
0.096163
0.085484
0.056927
0.119965
0.126792
0.101757
0.079541
0.066759
0.059769
0.110588
0.115905
0.090963
0.065415
0.048402
0.065079
0.105205
0.108820
0.083805
0.054892
0.031792
0.073070
0.103421
0.104723
0.079818
0.049008
0.019419
0.083155
0.104564
0.103404
0.079097
0.048669
0.019179
0.095786
0.109188
0.105075
0.081753
0.053909
0.031014
0.114020
0.118603
0.110279
0.087923
0.063674
0.046752
0.137483
0.133529
0.119694
0.097590
0.076684
0.063843
0.170270
0.156286
0.133668
0.110242
0.091542
0.081106
0.212417
0.187435
0.151825
0.124775
0.106604
0.097223
0.264084
0.229200
0.172241
0.139481
0.120158
0.110319
0.320054
0.276179
0.192489
0.152605
0.129515
0.118271
0.438709
0.395961
0.271469
0.177174
0.133539
0.118218
0.297800
0.290642
0.208889
0.145347
0.120997
0.109154
0.246504
0.243047
0.169694
0.122587
0.104208
0.095470
0.194777
0.200365
0.142126
0.100750
0.088415
0.080345
0.144120
0.161877
0.121835
0.082877
0.073608
0.066661
0.109840
0.132723
0.104118
0.070187
0.061314
0.055707
0.090493
0.112515
0.090499
0.060939
0.052994
0.048197
0.078486
0.097124
0.080078
0.055014
0.047902
0.044232
0.068662
0.083643
0.070814
0.051081
0.045322
0.042730
0.058533
0.070770
0.062010
0.048231
0.044046
0.042471
0.046698
0.058589
0.054871
0.046032
0.043313
0.042572
0.037631
0.049530
0.049755
0.044493
0.042858
0.042659
0.030174
0.043702
0.046853
0.043716
0.042643
0.042692
0.028111
0.042620
0.046310
0.043723
0.042706
0.042728
0.032573
0.045927
0.047988
0.044345
0.042952
0.042824
0.037032
0.049581
0.050555
0.045033
0.043321
0.042959
0.039632
0.051989
0.051836
0.045693
0.043645
0.043121
0.038225
0.052248
0.052614
0.046119
0.043912
0.043294
0.037527
0.052378
0.053359
0.046500
0.044148
0.043495
0.038299
0.053590
0.054372
0.047002
0.044423
0.043740
0.040157
0.055828
0.055992
0.047662
0.044798
0.044039
0.043159
0.059216
0.058253
0.048550
0.045277
0.044400
0.047103
0.063724
0.061202
0.049667
0.045883
0.044828
0.051999
0.069460
0.064890
0.051055
0.046657
0.045367
0.057840
0.076493
0.069385
0.052796
0.047715
0.046122
0.064911
0.085092
0.074872
0.055094
0.049269
0.047315
0.073771
0.095598
0.081580
0.058256
0.051674
0.049273
0.085612
0.108725
0.089918
0.062762
0.055322
0.052409
0.102019
0.125383
0.100307
0.068992
0.060637
0.057030
0.125101
0.146729
0.113051
0.077416
0.067602
0.063261
0.156422
0.173658
0.127910
0.087411
0.076363
0.070626
0.196132
0.204991
0.142576
0.100175
0.085423
0.078379
0.239003
0.238382
0.161635
0.113782
0.093447
0.085164
0.288106
0.276690
0.189262
0.124129
0.099810
0.088510
0.380665
0.333603
0.213928
0.133912
0.099447
0.086716
0.242247
0.203767
0.141698
0.116318
0.092290
0.078249
0.171873
0.147686
0.120965
0.106073
0.083519
0.066087
0.103362
0.100123
0.107207
0.104038
0.079306
0.057258
0.044057
0.077034
0.110363
0.113497
0.085258
0.060943
0.063326
0.104405
0.137725
0.135299
0.101501
0.077973
0.152611
0.169866
0.180729
0.164066
0.123360
0.098862
0.266183
0.262488
0.248720
0.198055
0.140587
0.111741
0.409689
0.386036
0.354605
0.247557
0.143987
0.100386
0.590203
0.540012
0.496452
0.374211
0.151840
0.052918
1.048130
0.859359
0.536003
0.266042
0.112784
0.061010
0.824977
0.612436
0.340475
0.201619
0.140138
0.103945
0.597539
0.445681
0.283042
0.195828
0.154888
0.131211
0.372953
0.321238
0.244836
0.181456
0.152409
0.135365
0.201029
0.232324
0.208035
0.162588
0.138313
0.125019
0.104947
0.177408
0.176901
0.141924
0.119097
0.107219
0.069447
0.146076
0.151878
0.122572
0.099360
0.086386
0.052294
0.124987
0.133432
0.106722
0.081083
0.065243
0.049612
0.112625
0.120708
0.094729
0.066074
0.045538
0.055528
0.106019
0.112729
0.087235
0.056209
0.029929
0.066743
0.104761
0.109167
0.084511
0.053447
0.025524
0.083896
0.108842
0.110004
0.086689
0.058379
0.035969
0.104282
0.118512
0.115484
0.093551
0.069371
0.052994
0.135030
0.135966
0.125915
0.104474
0.084062
0.071841
0.172325
0.161355
0.141734
0.118562
0.100423
0.090670
0.224893
0.199519
0.162664
0.134303
0.116764
0.107814
0.295238
0.255246
0.187373
0.150636
0.130600
0.121309
0.379530
0.334261
0.211123
0.163576
0.140890
0.128354
0.639956
0.565033
0.337279
0.197957
0.143744
0.126792
0.397090
0.383346
0.226716
0.155463
0.126789
0.115235
0.290387
0.307909
0.177510
0.124036
0.109458
0.098354
0.198464
0.235335
0.148280
0.099460
0.090907
0.081682
0.136278
0.178904
0.122583
0.081478
0.073608
0.066488
0.098515
0.140945
0.102425
0.066611
0.059946
0.053724
0.077207
0.116106
0.087464
0.055718
0.049615
0.044425
0.070855
0.099912
0.075736
0.047996
0.042785
0.038652
0.066159
0.084800
0.064666
0.043070
0.038541
0.035883
0.050287
0.065194
0.053888
0.039735
0.036218
0.034900
0.036893
0.049737
0.045988
0.037103
0.035133
0.034665
0.028708
0.040860
0.040315
0.035647
0.034612
0.034692
0.023178
0.035089
0.037487
0.035164
0.034531
0.034808
0.016503
0.032293
0.037502
0.035659
0.034737
0.035021
0.023946
0.038398
0.040344
0.036400
0.035302
0.035261
0.033415
0.046356
0.043103
0.037257
0.035912
0.035532
0.029354
0.046583
0.044474
0.037981
0.036361
0.035807
0.025908
0.044921
0.045073
0.038446
0.036665
0.036065
0.026309
0.045273
0.045587
0.038886
0.036907
0.036319
0.028238
0.046995
0.046827
0.039378
0.037207
0.036591
0.031665
0.050101
0.048784
0.040093
0.037591
0.036919
0.035928
0.054406
0.051469
0.041038
0.038109
0.037324
0.040957
0.059976
0.054886
0.042249
0.038796
0.037846
0.046646
0.066867
0.059062
0.043775
0.039745
0.038567
0.053188
0.075352
0.064144
0.045755
0.041116
0.039652
0.060917
0.085747
0.070274
0.048416
0.043185
0.041362
0.070634
0.098709
0.077809
0.052109
0.046303
0.044056
0.083490
0.115018
0.087033
0.057243
0.050871
0.048093
0.101466
0.136013
0.098485
0.064262
0.057154
0.053742
0.126973
0.163456
0.112462
0.073384
0.065303
0.060959
0.163826
0.199821
0.129312
0.084807
0.074813
0.069485
0.216821
0.248766
0.148106
0.097007
0.085836
0.078248
0.289195
0.306972
0.165453
0.113132
0.095721
0.086207
0.378122
0.363710
0.198707
0.129799
0.101298
0.091803
0.541278
0.460471
0.247263
0.139943
0.104137
0.091195
0.255590
0.219160
0.146406
0.120651
0.098844
0.084370
0.173109
0.149384
0.128933
0.113451
0.091148
0.074378
0.093580
0.102763
0.121667
0.115076
0.089031
0.067773
0.041084
0.097294
0.132484
0.127612
0.096494
0.072693
0.091789
0.132193
0.157283
0.148044
0.113019
0.088897
0.181931
0.196668
0.200111
0.174689
0.131732
0.107838
0.291616
0.283910
0.262010
0.204420
0.145288
0.117148
0.423575
0.392901
0.352887
0.246088
0.145436
0.101979
0.592415
0.537166
0.489572
0.370636
0.152171
0.053289
0.998021
0.838281
0.527758
0.262416
0.109735
0.055243
0.809339
0.607267
0.345829
0.207935
0.143536
0.107901
0.615208
0.462213
0.296697
0.209261
0.165791
0.141820
0.424557
0.361448
0.269916
0.201206
0.169092
0.151230
0.272565
0.283981
0.239208
0.184965
0.158605
0.144093
0.168767
0.223729
0.207697
0.165361
0.140771
0.127670
0.106407
0.179902
0.179866
0.145219
0.120464
0.107161
0.074927
0.151027
0.157205
0.126922
0.100959
0.085881
0.057212
0.131147
0.140171
0.112261
0.084230
0.066280
0.051499
0.119029
0.128570
0.102029
0.072240
0.051109
0.057049
0.113168
0.122062
0.096900
0.066989
0.044612
0.069738
0.113459
0.120523
0.097125
0.069469
0.049730
0.091978
0.120196
0.123859
0.102403
0.078672
0.063347
0.116756
0.133385
0.132098
0.111974
0.092313
0.080836
0.161683
0.157075
0.145279
0.124744
0.108158
0.099169
0.206484
0.190495
0.164695
0.139932
0.123974
0.116091
0.298840
0.256121
0.191424
0.155878
0.137701
0.129162
0.421703
0.373067
0.226812
0.173591
0.146505
0.135576
0.763593
0.685288
0.387568
0.207403
0.150093
0.131962
0.449748
0.509810
0.245034
0.159069
0.130571
0.117708
0.246246
0.377714
0.176904
0.130051
0.107952
0.099546
0.150226
0.269781
0.131946
0.105265
0.087333
0.081899
0.098521
0.202389
0.105269
0.084334
0.069755
0.065860
0.067811
0.156614
0.087774
0.067855
0.055212
0.052430
0.049115
0.125922
0.074720
0.055037
0.044247
0.042008
0.041318
0.106806
0.064505
0.045070
0.036810
0.034858
0.054941
0.085607
0.055516
0.037385
0.032454
0.030696
0.035639
0.054928
0.046328
0.032403
0.029849
0.028806
0.026782
0.041445
0.037469
0.029689
0.028315
0.028155
0.020921
0.033654
0.032494
0.028130
0.027731
0.027996
0.017116
0.029274
0.029974
0.027987
0.027642
0.028094
0.017345
0.026610
0.030593
0.028706
0.027963
0.028339
0.019678
0.036297
0.032411
0.030232
0.028365
0.028723
0.022406
0.045867
0.034340
0.031491
0.028897
0.029089
0.012115
0.041507
0.035615
0.032229
0.029351
0.029426
0.011230
0.040198
0.035560
0.032810
0.029648
0.029747
0.014817
0.042058
0.036239
0.033208
0.029947
0.030045
0.020736
0.045995
0.037787
0.033788
0.030269
0.030374
0.026404
0.051483
0.040087
0.034616
0.030687
0.030765
0.032255
0.058258
0.043072
0.035715
0.031235
0.031260
0.037721
0.066187
0.046667
0.037122
0.031972
0.031918
0.043256
0.075458
0.050939
0.038926
0.033003
0.032854
0.049014
0.086375
0.055917
0.041292
0.034522
0.034259
0.055721
0.099593
0.061857
0.044469
0.036804
0.036410
0.064366
0.115927
0.068852
0.048786
0.040189
0.039629
0.076453
0.136726
0.077398
0.054582
0.045011
0.044218
0.094356
0.163651
0.087488
0.062217
0.051534
0.050342
0.121334
0.199474
0.100070
0.071927
0.059846
0.057968
0.163168
0.248338
0.114883
0.083999
0.069953
0.066688
0.229258
0.317730
0.136799
0.098832
0.080802
0.075979
0.340334
0.425251
0.173937
0.113678
0.092027
0.084619
0.539845
0.547013
0.222907
0.125065
0.102196
0.091153
0.704497
0.584813
0.285449
0.138127
0.104876
0.092994
0.275008
0.234365
0.160570
0.125159
0.100685
0.088543
0.163897
0.135846
0.137467
0.119826
0.096755
0.080395
0.060282
0.111484
0.140637
0.125772
0.097212
0.075976
0.063280
0.128066
0.156582
0.140106
0.105778
0.081577
0.133116
0.169335
0.182923
0.160507
0.120610
0.096490
0.214536
0.224752
0.216892
0.182618
0.136929
0.112617
0.310419
0.296053
0.265156
0.205344
0.146955
0.118885
0.431353
0.395743
0.349725
0.242104
0.143952
0.101730
0.589176
0.529917
0.479726
0.363168
0.150384
0.054454
0.958760
0.821115
0.519637
0.259590
0.108332
0.051503
0.787850
0.596962
0.345372
0.210142
0.144529
0.109332
0.612415
0.463597
0.301162
0.216100
0.171573
0.147822
0.450241
0.381223
0.282727
0.213587
0.180134
0.161932
0.317499
0.316396
0.259580
0.201760
0.173758
0.158653
0.219971
0.261129
0.232442
0.184536
0.158610
0.144858
0.154128
0.216087
0.205532
0.165542
0.139733
0.125953
0.110356
0.181226
0.181906
0.147343
0.120583
0.105741
0.083525
0.156764
0.162918
0.131746
0.103666
0.086980
0.067407
0.139940
0.149013
0.120141
0.090902
0.072285
0.059982
0.129745
0.140231
0.113292
0.084014
0.064632
0.063577
0.125588
0.136379
0.111534
0.084085
0.066166
0.074094
0.126992
0.137145
0.114676
0.090670
0.075945
0.096583
0.134023
0.141970
0.121837
0.102031
0.090746
0.121700
0.146366
0.150082
0.131622
0.116021
0.107379
0.171545
0.163922
0.158881
0.142799
0.130354
0.123093
0.221967
0.186996
0.165888
0.155401
0.142668
0.135093
0.258675
0.251892
0.196742
0.173297
0.150202
0.140271
0.763620
0.657110
0.336496
0.210868
0.147544
0.135681
10.083700
0.444093
0.222725
0.159973
0.127216
0.119670
5.418430
0.322828
0.168944
0.128152
0.105090
0.099058
0.248993
0.120323
0.103704
0.084250
0.080514
0.191655
0.093697
0.082640
0.066621
0.064119
0.149980
0.075834
0.065955
0.052177
0.050415
0.120470
0.063576
0.052599
0.040834
0.039658
0.102222
0.053186
0.041970
0.032669
0.031886
0.040276
0.077216
0.045462
0.032969
0.027784
0.026825
0.021959
0.043927
0.038272
0.026901
0.024883
0.024190
0.017515
0.034607
0.030533
0.023781
0.023097
0.023069
0.013901
0.028347
0.026436
0.022430
0.022289
0.022689
0.012106
0.025105
0.024865
0.022292
0.022210
0.022659
0.016907
0.025511
0.025351
0.023259
0.022470
0.022862
0.021942
0.037120
0.026738
0.024811
0.022875
0.023219
0.040960
0.028207
0.026165
0.023371
0.023612
0.036202
0.028333
0.027196
0.023703
0.024008
0.035776
0.028284
0.027645
0.024077
0.024346
0.037566
0.029295
0.028081
0.024408
0.024699
0.041058
0.031169
0.028729
0.024799
0.025094
0.045931
0.033751
0.029639
0.025291
0.025571
0.052045
0.036885
0.030825
0.025927
0.026172
0.059406
0.040532
0.032328
0.026770
0.026972
0.068170
0.044660
0.034254
0.027951
0.028096
0.078659
0.049375
0.036782
0.029658
0.029743
0.091363
0.054750
0.040140
0.032160
0.032159
0.106990
0.061033
0.044598
0.035746
0.035617
0.126483
0.068340
0.050470
0.040676
0.040340
0.151161
0.077166
0.057981
0.047164
0.046449
0.182838
0.087628
0.067503
0.055278
0.053913
0.224099
0.101489
0.079143
0.064894
0.062519
0.278043
0.121191
0.093437
0.075588
0.071779
0.346710
0.161721
0.107865
0.086737
0.080892
11.263900
0.462634
0.197285
0.122534
0.096971
0.089545
0.669105
0.521497
0.221956
0.138298
0.100135
0.092892
0.147508
0.140551
0.150680
0.124574
0.101752
0.090457
0.054559
0.120956
0.156249
0.123980
0.100838
0.084440
0.066839
0.150315
0.168786
0.135634
0.103131
0.082132
0.117328
0.174666
0.184529
0.151091
0.112028
0.087948
0.178151
0.205335
0.201436
0.167927
0.125612
0.101017
0.242597
0.245193
0.225936
0.185677
0.138819
0.114540
0.324957
0.304813
0.266536
0.204260
0.145704
0.118374
0.431128
0.391616
0.341246
0.235868
0.141323
0.100330
0.575543
0.515354
0.465646
0.352091
0.146531
0.056274
0.925843
0.804214
0.510382
0.256613
0.108155
0.050873
0.765087
0.583656
0.341282
0.209855
0.144224
0.109584
0.599934
0.457549
0.300463
0.218619
0.173970
0.150578
0.456147
0.387075
0.287814
0.220446
0.186510
0.168378
0.344433
0.335001
0.271306
0.212810
0.184153
0.168819
0.258620
0.287746
0.249555
0.199028
0.172256
0.158157
0.194690
0.245820
0.226212
0.182320
0.155680
0.141643
0.149838
0.211624
0.204188
0.165453
0.138050
0.123201
0.117900
0.184889
0.185460
0.150470
0.121908
0.105759
0.095646
0.165760
0.171089
0.138723
0.109247
0.091783
0.082048
0.153267
0.161435
0.131183
0.101651
0.083612
0.073115
0.146202
0.156586
0.128312
0.100069
0.082942
0.073584
0.144856
0.156226
0.129981
0.104458
0.089602
0.077979
0.147443
0.159902
0.135520
0.113639
0.101527
0.088190
0.153297
0.166553
0.144054
0.125594
0.115922
0.116848
0.160954
0.176861
0.154113
0.138196
0.129824
0.104878
0.168161
0.193701
0.165927
0.148836
0.140080
0.500231
0.364441
0.230636
0.182145
0.154155
0.143377
0.892726
0.672795
0.341204
0.203320
0.150385
0.135538
4.452480
0.332689
0.199092
0.151347
0.127078
0.117671
3.269290
0.262270
0.149737
0.120150
0.103030
0.096786
0.209524
0.117183
0.094683
0.082602
0.077578
0.164457
0.091028
0.074924
0.065143
0.061109
0.130383
0.073153
0.058979
0.050911
0.047558
0.105715
0.059893
0.046391
0.039512
0.036932
0.090904
0.048230
0.036635
0.030792
0.029220
0.037611
0.069533
0.038828
0.028609
0.025015
0.023964
0.019785
0.038575
0.031753
0.022964
0.021466
0.020917
0.012533
0.029995
0.025651
0.019845
0.019359
0.019413
0.010917
0.025214
0.022499
0.018485
0.018411
0.018747
0.011478
0.023116
0.021371
0.018424
0.018159
0.018549
0.016872
0.024887
0.022158
0.019122
0.018373
0.018616
0.018731
0.033100
0.023968
0.020143
0.018800
0.018849
0.033438
0.024930
0.021252
0.019204
0.019180
0.030000
0.024813
0.022015
0.019609
0.019528
0.029716
0.024944
0.022496
0.019968
0.019904
0.031069
0.026095
0.022990
0.020370
0.020314
0.033734
0.028082
0.023702
0.020855
0.020797
0.037584
0.030706
0.024653
0.021472
0.021380
0.042611
0.033852
0.025849
0.022255
0.022107
0.048876
0.037441
0.027324
0.023276
0.023046
0.056530
0.041524
0.029162
0.024660
0.024322
0.065842
0.046108
0.031531
0.026593
0.026104
0.077221
0.051307
0.034658
0.029272
0.028607
0.091186
0.057239
0.038746
0.032937
0.032032
0.108472
0.064183
0.044018
0.037797
0.036552
0.130040
0.072328
0.050807
0.043963
0.042278
0.157320
0.082556
0.059263
0.051544
0.049229
0.192247
0.095210
0.069809
0.060320
0.057357
0.236795
0.113784
0.081782
0.070401
0.066337
0.286929
0.132471
0.097136
0.080410
0.075808
16.045500
0.340514
0.160472
0.112148
0.090969
0.085115
0.799752
0.531580
0.228123
0.125230
0.097776
0.090055
0.413783
0.305920
0.188202
0.124871
0.101003
0.090455
0.223373
0.225553
0.188720
0.129542
0.102695
0.086962
0.166826
0.215926
0.194881
0.140949
0.106738
0.086131
0.190996
0.221049
0.200997
0.155211
0.115181
0.091785
0.219521
0.233318
0.212200
0.170171
0.126812
0.103060
0.265646
0.258973
0.229140
0.184862
0.137681
0.114167
0.328933
0.304190
0.261011
0.199661
0.142502
0.116191
0.420779
0.380077
0.328410
0.227348
0.137274
0.098181
0.551245
0.492345
0.445769
0.337803
0.140989
0.058209
0.896571
0.785881
0.499273
0.252885
0.108653
0.053186
0.741628
0.567886
0.334631
0.208043
0.143319
0.109502
0.583134
0.447950
0.296780
0.218287
0.174152
0.151291
0.452413
0.385825
0.288047
0.223180
0.189483
0.171615
0.355451
0.342465
0.276590
0.219263
0.190512
0.175243
0.283780
0.304061
0.260069
0.208868
0.181873
0.167706
0.228448
0.268401
0.240975
0.195031
0.168036
0.153908
0.185418
0.237071
0.222048
0.180311
0.152467
0.137676
0.153823
0.212031
0.205276
0.166716
0.137761
0.121909
0.131053
0.193150
0.191943
0.155760
0.125837
0.108944
0.114150
0.180387
0.182911
0.148396
0.118161
0.100773
0.105280
0.174028
0.178423
0.145189
0.115671
0.098783
0.098925
0.173005
0.178751
0.146167
0.118484
0.103130
0.102978
0.178743
0.183472
0.150995
0.125689
0.112505
0.114725
0.191275
0.193323
0.158328
0.135859
0.124529
0.150763
0.213210
0.207862
0.167442
0.146873
0.136286
0.350145
0.293471
0.225260
0.178578
0.155766
0.144575
0.629967
0.450363
0.267405
0.189606
0.159434
0.145606
0.824428
0.629581
0.339096
0.203412
0.149560
0.136367
7.817860
0.309385
0.189298
0.147590
0.125799
0.116735
3.470410
0.225341
0.141567
0.112480
0.101677
0.094628
0.177971
0.108857
0.088666
0.079766
0.075143
0.143742
0.085772
0.069430
0.062490
0.058640
0.116282
0.068417
0.054444
0.048507
0.045361
0.095871
0.055729
0.042500
0.037446
0.035009
0.083522
0.044146
0.033266
0.028909
0.027408
0.033867
0.064253
0.034984
0.025570
0.023106
0.022055
0.019490
0.035962
0.027908
0.020436
0.019296
0.018781
0.012108
0.027643
0.022518
0.017560
0.016987
0.016983
0.011228
0.023466
0.020002
0.016216
0.015858
0.016062
0.012820
0.022025
0.019155
0.015983
0.015451
0.015651
0.015484
0.022389
0.020160
0.016388
0.015480
0.015551
0.016491
0.029264
0.021393
0.017224
0.015706
0.015654
0.029376
0.022030
0.018025
0.016022
0.015882
0.025984
0.022162
0.018565
0.016373
0.016195
0.025646
0.022426
0.019031
0.016760
0.016582
0.026724
0.023700
0.019566
0.017238
0.017062
0.028946
0.025794
0.020311
0.017858
0.017650
0.032302
0.028512
0.021318
0.018637
0.018372
0.036866
0.031666
0.022568
0.019611
0.019255
0.042724
0.035197
0.024073
0.020826
0.020360
0.049967
0.039118
0.025915
0.022374
0.021787
0.058758
0.043592
0.028167
0.024418
0.023666
0.069463
0.048556
0.031016
0.027133
0.026148
0.082591
0.053943
0.034779
0.030600
0.029417
0.098555
0.059935
0.039579
0.035009
0.033600
0.117937
0.067034
0.045549
0.040581
0.038797
0.141412
0.075536
0.053188
0.047263
0.045129
0.169832
0.086961
0.062337
0.055293
0.052593
0.202788
0.100863
0.073586
0.064253
0.061243
0.242191
0.118832
0.085282
0.075093
0.070591
35.134600
0.314489
0.143384
0.103579
0.086087
0.080526
0.657776
0.459620
0.215602
0.125545
0.092516
0.087311
0.497133
0.361742
0.205663
0.126363
0.099649
0.089198
0.342942
0.297171
0.197946
0.131790
0.102609
0.087932
0.275087
0.262280
0.199137
0.141263
0.107229
0.088121
0.244860
0.247282
0.204118
0.153472
0.114968
0.093323
0.246689
0.244821
0.210431
0.166624
0.124985
0.102900
0.272624
0.259130
0.223348
0.179274
0.133986
0.112001
0.322350
0.295227
0.250568
0.192233
0.137357
0.112745
0.400799
0.360965
0.310558
0.216736
0.132176
0.095315
0.516865
0.461909
0.420954
0.321094
0.134142
0.059919
0.868677
0.765506
0.485990
0.248103
0.109435
0.057495
0.717558
0.550031
0.326024
0.205203
0.142121
0.109502
0.563945
0.436266
0.291077
0.216082
0.172961
0.150793
0.443154
0.380671
0.285198
0.222984
0.190007
0.172604
0.358579
0.343924
0.277462
0.221985
0.193726
0.178720
0.297614
0.311900
0.265147
0.214750
0.188006
0.173996
0.251643
0.282611
0.250196
0.203750
0.176894
0.162904
0.215743
0.256573
0.234728
0.191412
0.163634
0.149033
0.187324
0.234599
0.220596
0.179649
0.150652
0.135142
0.166323
0.218098
0.209222
0.169853
0.139802
0.123402
0.152826
0.207427
0.201463
0.163068
0.132445
0.115554
0.144849
0.202897
0.198078
0.159816
0.129451
0.112802
0.146769
0.205670
0.199146
0.160297
0.130997
0.115444
0.159742
0.217190
0.205112
0.163860
0.136639
0.122569
0.197661
0.239281
0.214935
0.170006
0.145040
0.132219
0.299688
0.284745
0.226956
0.178151
0.153954
0.141755
0.429182
0.347882
0.248151
0.186029
0.160664
0.147828
0.579226
0.430813
0.270941
0.195252
0.160362
0.146834
0.742527
0.568982
0.312518
0.196747
0.148332
0.135556
6.251850
0.287892
0.180213
0.142691
0.123959
0.115268
6.116220
0.208300
0.135121
0.108447
0.098810
0.092853
0.159776
0.102471
0.083721
0.077175
0.072971
0.128503
0.079866
0.065168
0.059639
0.056542
0.105453
0.063760
0.050770
0.046007
0.043465
0.088054
0.051693
0.039578
0.035350
0.033410
0.077456
0.041011
0.030758
0.027299
0.026016
0.030861
0.059965
0.032244
0.023670
0.021692
0.020761
0.018636
0.034098
0.025497
0.019131
0.017882
0.017457
0.011998
0.026115
0.020580
0.016407
0.015571
0.015482
0.011275
0.022196
0.018380
0.015068
0.014346
0.014365
0.012318
0.020346
0.017705
0.014656
0.013773
0.013765
0.014984
0.020428
0.018422
0.014859
0.013573
0.013489
0.017063
0.026968
0.019384
0.015356
0.013616
0.013426
0.026391
0.019952
0.015912
0.013754
0.013544
0.023032
0.020076
0.016315
0.014025
0.013795
0.022519
0.020510
0.016718
0.014415
0.014190
0.023314
0.021937
0.017264
0.014966
0.014737
0.025084
0.024376
0.017986
0.015753
0.015437
0.027970
0.027586
0.018920
0.016798
0.016292
0.032323
0.031033
0.020189
0.018033
0.017333
0.038236
0.034519
0.021774
0.019454
0.018594
0.045579
0.038303
0.023600
0.021143
0.020133
0.054323
0.042542
0.025722
0.023208
0.022040
0.064608
0.047498
0.028118
0.025839
0.024422
0.077061
0.052763
0.030954
0.029232
0.027379
0.092373
0.057298
0.035111
0.033142
0.031099
0.110270
0.061838
0.041021
0.037572
0.035803
0.130690
0.068768
0.047972
0.043288
0.041564
0.154237
0.078292
0.056337
0.050431
0.048517
0.182127
0.091151
0.066059
0.059423
0.056689
0.223074
0.108946
0.078829
0.069602
0.066071
47.250200
0.288047
0.130034
0.096752
0.081049
0.076393
0.547961
0.389654
0.183753
0.117077
0.089337
0.083587
0.382640
0.301632
0.185148
0.124184
0.096710
0.086983
0.286908
0.267402
0.187797
0.129377
0.100616
0.087293
0.259836
0.251168
0.188865
0.137505
0.105085
0.088338
0.246718
0.238962
0.192241
0.147707
0.112170
0.092972
0.244744
0.236412
0.199435
0.159160
0.120879
0.101051
0.263735
0.247389
0.211180
0.170727
0.128412
0.108498
0.305243
0.278085
0.235119
0.182378
0.130965
0.108342
0.373282
0.336323
0.289423
0.204571
0.126143
0.091880
0.476244
0.426507
0.392502
0.302898
0.126433
0.061105
0.840995
0.743134
0.470509
0.242226
0.110206
0.062824
0.692451
0.530511
0.315930
0.201631
0.140771
0.109693
0.543268
0.423282
0.283935
0.212604
0.170904
0.149614
0.430914
0.373199
0.280120
0.220710
0.188857
0.172072
0.355942
0.341249
0.275168
0.221913
0.194550
0.180004
0.304793
0.314457
0.266185
0.217280
0.191298
0.177645
0.266828
0.290139
0.254607
0.208905
0.182683
0.169034
0.237431
0.268694
0.242282
0.198856
0.171654
0.157461
0.215018
0.250993
0.230758
0.188882
0.160466
0.145466
0.198439
0.237433
0.221255
0.180331
0.150794
0.135025
0.188157
0.229175
0.214779
0.174075
0.143895
0.127673
0.186189
0.227018
0.211792
0.170718
0.140563
0.124466
0.194080
0.232147
0.212687
0.170265
0.141140
0.125731
0.219012
0.245345
0.216780
0.172699
0.145207
0.130852
0.267756
0.269243
0.223580
0.177514
0.151517
0.138276
0.318322
0.296295
0.235084
0.183256
0.158181
0.145507
0.398717
0.331157
0.245502
0.190147
0.161977
0.149366
0.526951
0.397236
0.258115
0.192707
0.159972
0.146115
0.674603
0.522255
0.289364
0.187400
0.145068
0.133859
9.376270
0.273786
0.174376
0.138369
0.121048
0.113257
6.476520
0.192607
0.128800
0.104217
0.096228
0.090769
0.147881
0.096886
0.080061
0.074372
0.071027
0.118115
0.074799
0.061608
0.057137
0.054663
0.097147
0.059334
0.047840
0.043706
0.041821
0.081783
0.048136
0.037177
0.033500
0.032032
0.072354
0.038196
0.028876
0.025917
0.024889
0.027520
0.056179
0.030103
0.022364
0.020630
0.019818
0.017614
0.032529
0.023702
0.018480
0.016929
0.016606
0.011584
0.024912
0.019243
0.015928
0.014725
0.014577
0.010592
0.020853
0.017268
0.014580
0.013496
0.013351
0.011621
0.018933
0.016557
0.014060
0.012808
0.012617
0.013846
0.018683
0.017164
0.014002
0.012449
0.012188
0.016135
0.024796
0.017886
0.014275
0.012275
0.011980
0.023944
0.018306
0.014605
0.012249
0.011977
0.020579
0.018467
0.014819
0.012431
0.012157
0.019936
0.018983
0.015163
0.012797
0.012546
0.020470
0.020578
0.015717
0.013402
0.013151
0.021763
0.023458
0.016472
0.014318
0.013960
0.006358
0.025208
0.027010
0.017559
0.015535
0.014954
0.009651
0.030035
0.030440
0.019129
0.016915
0.016147
0.010938
0.035195
0.033838
0.020909
0.018469
0.017537
0.012307
0.041376
0.037275
0.022796
0.020213
0.019145
0.013574
0.048695
0.041085
0.024759
0.022214
0.021025
0.014798
0.057306
0.045532
0.026811
0.024616
0.023261
0.014222
0.067977
0.050569
0.029014
0.027666
0.025984
0.009226
0.086341
0.053204
0.032215
0.031261
0.029138
0.107011
0.055765
0.037625
0.034930
0.033349
0.124099
0.062109
0.043803
0.039785
0.038603
0.144403
0.070994
0.051197
0.046544
0.045065
0.170728
0.083143
0.060864
0.054973
0.052961
0.206268
0.099859
0.073119
0.065360
0.062061
57.503000
0.270302
0.121547
0.091256
0.077029
0.072326
0.469982
0.348765
0.166469
0.110283
0.084645
0.080094
0.340584
0.275155
0.171276
0.116901
0.093206
0.084087
0.260369
0.239408
0.169469
0.123372
0.097356
0.085425
0.213858
0.219646
0.172999
0.130637
0.101688
0.086989
0.210465
0.214374
0.177940
0.139881
0.107825
0.091241
0.223950
0.216844
0.184162
0.150172
0.115419
0.098043
0.244932
0.228806
0.195571
0.160556
0.121886
0.104110
0.282636
0.257177
0.217796
0.171493
0.123794
0.103334
0.342743
0.309274
0.266646
0.191703
0.119580
0.088009
0.432526
0.389067
0.362544
0.284164
0.118289
0.061623
0.812700
0.719109
0.452999
0.235354
0.110825
0.068459
0.666220
0.509866
0.304735
0.197515
0.139301
0.110055
0.521455
0.409515
0.275784
0.208260
0.168311
0.148051
0.416915
0.364306
0.273477
0.216993
0.186565
0.170546
0.350239
0.336043
0.270539
0.219766
0.193656
0.179718
0.306432
0.312883
0.264098
0.217228
0.192380
0.179265
0.275599
0.292604
0.255226
0.211040
0.185926
0.172812
0.252366
0.274933
0.245379
0.203016
0.176931
0.163335
0.234605
0.260236
0.235895
0.194670
0.167407
0.153128
0.222493
0.249393
0.227840
0.187151
0.158878
0.143945
0.216182
0.242718
0.221899
0.181332
0.152447
0.137130
0.216703
0.241076
0.218599
0.177656
0.148884
0.133597
0.227040
0.244719
0.217796
0.176476
0.148456
0.133697
0.244828
0.253578
0.219692
0.177618
0.150849
0.137038
0.262006
0.264516
0.224510
0.180477
0.155130
0.142281
0.308708
0.283904
0.229172
0.184724
0.159397
0.147214
0.378450
0.315354
0.236899
0.187333
0.161320
0.148789
0.479117
0.368482
0.245881
0.186584
0.156584
0.143946
0.616995
0.479731
0.266773
0.177776
0.140555
0.130854
9.785030
0.261667
0.167226
0.133363
0.117602
0.110478
8.853990
0.181818
0.123256
0.100262
0.093223
0.088456
0.138151
0.091694
0.076575
0.071835
0.069029
0.110564
0.070306
0.058720
0.054795
0.052963
0.090917
0.055483
0.045357
0.041755
0.040362
0.076808
0.044874
0.035260
0.031902
0.030855
0.068122
0.035726
0.027352
0.024795
0.023950
0.024983
0.052947
0.028223
0.021440
0.019800
0.019093
0.016518
0.031209
0.022290
0.018140
0.016260
0.016027
0.011189
0.023869
0.018223
0.015772
0.014211
0.014020
0.010024
0.019832
0.016416
0.014454
0.013030
0.012762
0.010550
0.017644
0.015733
0.013822
0.012303
0.011954
0.012752
0.017244
0.016186
0.013601
0.011820
0.011425
0.015890
0.022949
0.016689
0.013673
0.011489
0.011104
0.021717
0.016998
0.013796
0.011320
0.011000
0.018402
0.017135
0.013851
0.011410
0.011111
0.017664
0.017758
0.014111
0.011746
0.011486
0.017999
0.019492
0.014679
0.012387
0.012129
0.018939
0.022745
0.015564
0.013383
0.013027
0.009006
0.023827
0.026473
0.016962
0.014692
0.014129
0.012276
0.030162
0.029767
0.018918
0.016148
0.015429
0.017238
0.034932
0.033026
0.020929
0.017775
0.016900
0.019856
0.039497
0.036091
0.022873
0.019519
0.018532
0.021437
0.044637
0.039246
0.024714
0.021391
0.020349
0.022153
0.051185
0.042760
0.026552
0.023466
0.022434
0.020591
0.061006
0.046713
0.028481
0.025985
0.024954
0.013657
0.083300
0.047353
0.030761
0.029268
0.027581
0.106446
0.048938
0.035454
0.032614
0.031413
0.120430
0.056060
0.040300
0.036991
0.036132
0.138798
0.064611
0.047295
0.043200
0.042234
0.162088
0.076005
0.056378
0.051447
0.049747
0.196047
0.092343
0.068326
0.061545
0.058511
55.742100
0.256400
0.112298
0.085629
0.073138
0.068529
0.406822
0.312235
0.147344
0.102804
0.080502
0.076155
0.289991
0.247018
0.156659
0.110324
0.088408
0.080735
0.238372
0.224508
0.158842
0.115792
0.093036
0.082728
0.218313
0.209161
0.159322
0.122796
0.097273
0.084663
0.204085
0.199312
0.163021
0.131160
0.102900
0.088502
0.206610
0.199740
0.170003
0.140587
0.109448
0.094305
0.226758
0.211001
0.180452
0.150348
0.114917
0.099234
0.259982
0.236280
0.200406
0.160475
0.116411
0.097990
0.311929
0.282380
0.244165
0.178916
0.112761
0.083861
0.389516
0.352068
0.332587
0.265652
0.110067
0.061434
0.783462
0.693940
0.433753
0.227683
0.111227
0.073976
0.638781
0.488652
0.292780
0.192990
0.137722
0.110521
0.498871
0.395433
0.266959
0.203323
0.165378
0.146273
0.401975
0.354574
0.265765
0.212307
0.183528
0.168379
0.342511
0.329178
0.264309
0.216177
0.191552
0.178346
0.305036
0.308802
0.259774
0.215242
0.191838
0.179392
0.279323
0.291232
0.252933
0.210858
0.187192
0.174764
0.260704
0.276235
0.244987
0.204519
0.179961
0.167129
0.247102
0.263873
0.236991
0.197530
0.171930
0.158524
0.237537
0.254221
0.229768
0.190916
0.164420
0.150487
0.232494
0.247868
0.223967
0.185378
0.158420
0.144171
0.232589
0.244795
0.219825
0.181490
0.154566
0.140374
0.235408
0.244898
0.217796
0.179395
0.153150
0.139449
0.241786
0.247994
0.217668
0.179077
0.154015
0.141096
0.268803
0.258482
0.218414
0.180313
0.156313
0.144254
0.299592
0.273893
0.222456
0.181552
0.158578
0.146986
0.348148
0.295808
0.226831
0.182241
0.158018
0.146665
0.436957
0.340110
0.231433
0.178884
0.151820
0.140363
0.567744
0.441478
0.245723
0.167819
0.135219
0.126967
12.818300
0.251305
0.160238
0.127847
0.113519
0.107131
9.899330
0.172662
0.117587
0.096157
0.090022
0.085792
0.131031
0.086928
0.073341
0.069231
0.066970
0.104547
0.066213
0.056057
0.052705
0.051318
0.086194
0.052028
0.043285
0.040018
0.039067
0.072916
0.041987
0.033631
0.030585
0.029840
0.064687
0.033472
0.026143
0.023877
0.023181
0.022211
0.050164
0.026572
0.020739
0.019172
0.018528
0.015539
0.030126
0.021104
0.017977
0.015780
0.015622
0.010872
0.023121
0.017441
0.015771
0.013899
0.013675
0.009487
0.019007
0.015781
0.014484
0.012794
0.012431
0.009732
0.016681
0.015099
0.013794
0.012059
0.011601
0.011622
0.015974
0.015407
0.013437
0.011512
0.011018
0.014659
0.021016
0.015716
0.013359
0.011069
0.010630
0.019579
0.015872
0.013317
0.010796
0.010454
0.016364
0.016015
0.013225
0.010815
0.010513
0.015580
0.016728
0.013418
0.011119
0.010871
0.015794
0.018612
0.014000
0.011784
0.011535
0.016529
0.022214
0.015000
0.012852
0.012484
0.013586
0.023176
0.026264
0.016615
0.014254
0.013645
0.013351
0.030662
0.029767
0.018797
0.015809
0.014993
0.017528
0.036055
0.033055
0.020964
0.017493
0.016492
0.020349
0.040838
0.035828
0.022932
0.019223
0.018101
0.021613
0.045900
0.038376
0.024686
0.020960
0.019838
0.021710
0.052277
0.040960
0.026316
0.022763
0.021782
0.021201
0.061996
0.043529
0.027925
0.024877
0.024088
0.015853
0.083863
0.042514
0.029464
0.027869
0.026306
0.106119
0.043525
0.033310
0.030938
0.029748
0.118729
0.050598
0.037599
0.034637
0.034100
0.135025
0.058951
0.043938
0.040498
0.039806
0.156965
0.069758
0.052567
0.048303
0.046925
0.188405
0.085028
0.063830
0.058025
0.055212
57.831400
0.245304
0.104027
0.080027
0.069444
0.064754
0.355856
0.284836
0.132206
0.095594
0.075948
0.072229
0.258693
0.225879
0.141987
0.102596
0.083640
0.076973
0.210928
0.203079
0.143683
0.108612
0.088223
0.079412
0.189221
0.190771
0.147298
0.114874
0.092435
0.081635
0.190866
0.186309
0.151016
0.122718
0.097528
0.085206
0.197299
0.186693
0.156577
0.131417
0.103329
0.090133
0.210861
0.195282
0.166344
0.140330
0.107986
0.094115
0.238879
0.216997
0.184104
0.149890
0.109040
0.092528
0.283131
0.257010
0.222673
0.166652
0.105919
0.079548
0.348532
0.316915
0.303747
0.247836
0.102023
0.060589
0.753102
0.668187
0.413120
0.219444
0.111409
0.079143
0.610252
0.467423
0.280363
0.188159
0.136034
0.111018
0.475826
0.381431
0.257727
0.197990
0.162235
0.144370
0.386647
0.344468
0.257396
0.207002
0.180014
0.165809
0.333825
0.321380
0.257051
0.211636
0.188645
0.176245
0.301438
0.303059
0.253984
0.211949
0.190149
0.178464
0.280027
0.287591
0.248710
0.209005
0.187009
0.175363
0.264661
0.274363
0.242176
0.204067
0.181289
0.169315
0.253303
0.263246
0.235250
0.198227
0.174545
0.162112
0.245278
0.254330
0.228622
0.192335
0.167932
0.155080
0.240119
0.247477
0.222728
0.187070
0.162266
0.149200
0.237048
0.242927
0.218065
0.182796
0.158135
0.145154
0.238705
0.241153
0.214542
0.179820
0.155823
0.143256
0.249661
0.243790
0.212232
0.178147
0.155202
0.143344
0.257601
0.248404
0.212357
0.177217
0.155660
0.144572
0.279320
0.257696
0.212677
0.176876
0.155739
0.145313
0.323119
0.276753
0.214337
0.175112
0.153528
0.143193
0.399855
0.314401
0.217065
0.170040
0.145953
0.135865
0.523455
0.405933
0.225528
0.157852
0.129335
0.122371
14.221700
0.241319
0.152267
0.121840
0.109014
0.103294
12.044300
0.165207
0.111888
0.091845
0.086543
0.082852
0.125134
0.082256
0.070085
0.066617
0.064782
0.100017
0.062416
0.053599
0.050682
0.049709
0.082475
0.048877
0.041398
0.038500
0.037874
0.069936
0.039363
0.032263
0.029456
0.028980
0.061945
0.031441
0.025129
0.023161
0.022564
0.020037
0.047920
0.025104
0.020213
0.018704
0.018112
0.014626
0.029325
0.020122
0.017907
0.015461
0.015356
0.010640
0.022601
0.016837
0.015852
0.013728
0.013481
0.009195
0.018504
0.015322
0.014598
0.012700
0.012275
0.009010
0.015935
0.014621
0.013863
0.011982
0.011452
0.010565
0.014925
0.014767
0.013412
0.011402
0.010854
0.013764
0.019169
0.014860
0.013215
0.010894
0.010434
0.017464
0.014893
0.013036
0.010559
0.010221
0.014382
0.015027
0.012838
0.010529
0.010249
0.013600
0.015859
0.012977
0.010816
0.010596
0.013779
0.017895
0.013582
0.011502
0.011268
0.014501
0.021900
0.014669
0.012623
0.012242
0.017987
0.023240
0.026255
0.016456
0.014090
0.013418
0.015353
0.031273
0.029966
0.018828
0.015693
0.014769
0.018079
0.036790
0.033379
0.021082
0.017402
0.016245
0.020641
0.041736
0.036015
0.023062
0.019094
0.017804
0.022075
0.046859
0.038205
0.024715
0.020725
0.019448
0.022733
0.053234
0.040144
0.026162
0.022315
0.021258
0.023113
0.062451
0.041701
0.027491
0.024094
0.023377
0.018500
0.083906
0.039486
0.028191
0.026937
0.025235
0.106116
0.039449
0.031444
0.029668
0.028347
0.117692
0.045988
0.035248
0.032772
0.032356
0.133007
0.053937
0.041087
0.038120
0.037675
0.153363
0.063944
0.049055
0.045458
0.044314
0.183055
0.078265
0.059481
0.054646
0.052029
46.133400
0.235910
0.095510
0.074358
0.065718
0.061029
0.312438
0.261977
0.117738
0.088460
0.071530
0.068111
0.227945
0.207803
0.129354
0.095556
0.078440
0.073022
0.194721
0.189665
0.131939
0.101007
0.083249
0.075732
0.182970
0.178130
0.134137
0.107337
0.087416
0.078161
0.175774
0.171811
0.138466
0.114563
0.092181
0.081500
0.181223
0.172691
0.144443
0.122639
0.097244
0.085752
0.196029
0.180687
0.153007
0.130983
0.101182
0.088921
0.219164
0.199007
0.168694
0.139832
0.101900
0.087061
0.256192
0.233400
0.202627
0.155151
0.099167
0.075161
0.310950
0.284304
0.276474
0.231014
0.094312
0.059189
0.721627
0.642434
0.391472
0.210882
0.111387
0.083845
0.580781
0.446683
0.267743
0.183104
0.134245
0.111487
0.452651
0.367838
0.248292
0.192404
0.158966
0.142393
0.371372
0.334335
0.248683
0.201335
0.176216
0.162992
0.324728
0.313166
0.249239
0.206522
0.185225
0.173671
0.296895
0.296532
0.247351
0.207822
0.187700
0.176815
0.278693
0.282601
0.243336
0.206071
0.185816
0.174996
0.265872
0.270760
0.237951
0.202300
0.181388
0.170313
0.256213
0.260601
0.231895
0.197425
0.175764
0.164326
0.248768
0.251932
0.225697
0.192171
0.169910
0.158164
0.243180
0.244893
0.219837
0.187037
0.164540
0.152649
0.240605
0.239619
0.214427
0.182461
0.160135
0.148349
0.240461
0.236406
0.209898
0.178618
0.156945
0.145574
0.238358
0.234412
0.206652
0.175496
0.154947
0.144229
0.248377
0.236838
0.203605
0.173153
0.153629
0.143666
0.265779
0.244389
0.202358
0.170613
0.151994
0.142549
0.298814
0.258786
0.202246
0.167330
0.148050
0.138942
0.366312
0.290349
0.202759
0.160960
0.139606
0.130765
0.483018
0.373182
0.206574
0.148076
0.123169
0.117386
17.790600
0.231803
0.144188
0.115556
0.104202
0.099161
13.711300
0.158540
0.105887
0.087364
0.082891
0.079694
0.120431
0.077655
0.066808
0.063931
0.062505
0.096375
0.058760
0.051187
0.048741
0.048102
0.079693
0.045934
0.039671
0.037096
0.036774
0.067654
0.036945
0.031032
0.028509
0.028244
0.059852
0.029582
0.024290
0.022595
0.022097
0.017603
0.046104
0.023788
0.019804
0.018390
0.017838
0.013829
0.028815
0.019318
0.017905
0.015278
0.015224
0.010516
0.022356
0.016408
0.015978
0.013676
0.013420
0.009021
0.018228
0.015003
0.014759
0.012716
0.012259
0.008495
0.015470
0.014280
0.013990
0.012019
0.011459
0.009537
0.014019
0.014228
0.013468
0.011427
0.010867
0.012265
0.017257
0.014122
0.013171
0.010891
0.010443
0.015330
0.014002
0.012890
0.010526
0.010219
0.012405
0.014153
0.012612
0.010476
0.010241
0.011668
0.015108
0.012724
0.010763
0.010587
0.011911
0.017340
0.013363
0.011474
0.011265
0.012962
0.021764
0.014545
0.012633
0.012243
0.023328
0.024071
0.026418
0.016479
0.014129
0.013404
0.017417
0.032067
0.030306
0.018977
0.015749
0.014712
0.018857
0.037598
0.033773
0.021290
0.017435
0.016128
0.021032
0.042595
0.036302
0.023252
0.019077
0.017606
0.022703
0.047798
0.038233
0.024828
0.020607
0.019154
0.024066
0.054118
0.039716
0.026137
0.022025
0.020841
0.024955
0.063129
0.040629
0.027166
0.023563
0.022801
0.022088
0.084520
0.037228
0.027258
0.026232
0.024356
0.106274
0.036194
0.029851
0.028700
0.027145
0.117321
0.042090
0.033214
0.031184
0.030826
0.131705
0.049440
0.038497
0.036008
0.035721
0.151105
0.058650
0.045760
0.042772
0.041837
0.178959
0.071595
0.055250
0.051345
0.048925
44.128700
0.228077
0.087472
0.068805
0.062075
0.057315
0.274343
0.243815
0.105297
0.081671
0.067051
0.064021
0.205036
0.193019
0.117322
0.088601
0.073414
0.068945
0.176734
0.175389
0.120041
0.094203
0.078185
0.071846
0.166067
0.165785
0.123739
0.100051
0.082394
0.074441
0.168186
0.161674
0.127476
0.106996
0.086835
0.077596
0.171780
0.161261
0.132709
0.114467
0.091360
0.081251
0.181371
0.167104
0.140708
0.122158
0.094650
0.083750
0.201016
0.182511
0.154424
0.130511
0.095020
0.081678
0.231755
0.211776
0.184072
0.144519
0.092602
0.070762
0.276687
0.254503
0.251092
0.215316
0.087027
0.057356
0.689103
0.617241
0.369165
0.202231
0.111190
0.088037
0.550584
0.426873
0.255130
0.177887
0.132367
0.111878
0.429651
0.354894
0.238800
0.186669
0.155629
0.140368
0.356432
0.324419
0.239854
0.195482
0.172261
0.160029
0.315701
0.304904
0.241200
0.201099
0.181500
0.170798
0.291858
0.289706
0.240334
0.203222
0.184762
0.174686
0.276586
0.277149
0.237402
0.202478
0.183951
0.173958
0.265641
0.266391
0.233008
0.199716
0.180643
0.170458
0.257232
0.257007
0.227707
0.195682
0.175990
0.165530
0.250342
0.248740
0.221959
0.190953
0.170813
0.160124
0.244870
0.241428
0.216008
0.185998
0.165685
0.154918
0.239719
0.235080
0.210282
0.181086
0.161013
0.150392
0.235014
0.229763
0.204861
0.176442
0.157047
0.146809
0.237589
0.227362
0.199573
0.172225
0.153786
0.144151
0.239442
0.227006
0.195642
0.168131
0.150922
0.141962
0.249781
0.230507
0.192220
0.164172
0.147541
0.139201
0.277507
0.241880
0.190010
0.159275
0.142284
0.134231
0.335645
0.268292
0.188953
0.151797
0.133033
0.125413
0.444804
0.342727
0.188608
0.138588
0.116925
0.112207
19.673700
0.222523
0.135628
0.109119
0.099258
0.094874
16.004300
0.152682
0.099763
0.082756
0.079123
0.076428
0.116475
0.072992
0.063476
0.061231
0.060174
0.093590
0.055205
0.048824
0.046837
0.046524
0.077592
0.043122
0.038011
0.035816
0.035754
0.066046
0.034677
0.029925
0.027691
0.027639
0.058323
0.027854
0.023559
0.022178
0.021776
0.015607
0.044809
0.022625
0.019490
0.018208
0.017714
0.013137
0.028591
0.018680
0.017947
0.015230
0.015230
0.010476
0.022358
0.016122
0.016143
0.013735
0.013494
0.009005
0.018223
0.014835
0.014951
0.012832
0.012375
0.008118
0.015226
0.014054
0.014162
0.012154
0.011603
0.008563
0.013332
0.013804
0.013577
0.011563
0.011029
0.011047
0.015422
0.013462
0.013198
0.011021
0.010618
0.013166
0.013209
0.012831
0.010656
0.010405
0.010391
0.013366
0.012509
0.010608
0.010439
0.009752
0.014467
0.012617
0.010916
0.010799
0.010212
0.016914
0.013319
0.011664
0.011486
0.012079
0.021787
0.014613
0.012851
0.012461
0.028278
0.025512
0.026732
0.016676
0.014360
0.013578
0.019734
0.033024
0.030770
0.019264
0.015954
0.014808
0.019703
0.038432
0.034248
0.021587
0.017584
0.016121
0.021546
0.043414
0.036658
0.023511
0.019145
0.017492
0.023518
0.048631
0.038365
0.025014
0.020572
0.018931
0.025256
0.054918
0.039541
0.026177
0.021849
0.020503
0.026844
0.063862
0.039881
0.027011
0.023156
0.022330
0.026218
0.085246
0.035575
0.026477
0.025710
0.023599
0.106725
0.033490
0.028491
0.027899
0.026087
0.117220
0.038658
0.031403
0.029789
0.029432
0.131041
0.045440
0.036113
0.034052
0.033890
0.149494
0.053657
0.042635
0.040207
0.039452
0.175904
0.065346
0.051129
0.048142
0.045891
34.051900
0.221381
0.079589
0.063406
0.058506
0.053681
0.240599
0.228947
0.093828
0.075186
0.062759
0.059949
0.183487
0.180529
0.106689
0.082288
0.068412
0.064893
0.163704
0.164875
0.110004
0.087608
0.073287
0.067899
0.158233
0.155592
0.113138
0.093482
0.077476
0.070599
0.155495
0.150680
0.117394
0.099935
0.081687
0.073587
0.160217
0.150583
0.122398
0.106923
0.085665
0.076752
0.169336
0.155192
0.129267
0.114084
0.088415
0.078658
0.184376
0.167474
0.141287
0.121888
0.088482
0.076426
0.209433
0.192071
0.167157
0.134832
0.086270
0.066406
0.246086
0.227524
0.227648
0.200833
0.080200
0.055209
0.655641
0.593143
0.346528
0.193697
0.110843
0.091714
0.519910
0.408349
0.242688
0.172556
0.130417
0.112161
0.407085
0.342755
0.229354
0.180863
0.152259
0.138307
0.342038
0.314866
0.231056
0.189561
0.168232
0.156981
0.306918
0.296799
0.233147
0.195542
0.177601
0.167738
0.286830
0.282918
0.233207
0.198376
0.181524
0.172237
0.274000
0.271560
0.231264
0.198522
0.181644
0.172453
0.264870
0.261864
0.227776
0.196651
0.179324
0.169992
0.257433
0.253190
0.223199
0.193370
0.175540
0.165999
0.250970
0.245196
0.217842
0.189156
0.170963
0.161264
0.244633
0.237717
0.212044
0.184332
0.166067
0.156340
0.239159
0.230817
0.205859
0.179187
0.161187
0.151610
0.235919
0.225061
0.199513
0.173905
0.156525
0.147320
0.230078
0.219741
0.193609
0.168520
0.152143
0.143503
0.230624
0.217019
0.187558
0.163223
0.147821
0.139851
0.237585
0.218518
0.182476
0.157607
0.143004
0.135578
0.257608
0.226343
0.178543
0.151386
0.136431
0.129429
0.307225
0.247820
0.175650
0.142901
0.126559
0.120041
0.408626
0.314540
0.171696
0.129546
0.110775
0.107055
24.568800
0.213577
0.126978
0.102703
0.094306
0.090598
17.933300
0.147454
0.093423
0.078108
0.075358
0.073156
0.113265
0.068320
0.060135
0.058552
0.057871
0.091462
0.051681
0.046475
0.045019
0.045008
0.076163
0.040412
0.036427
0.034637
0.034847
0.065014
0.032517
0.028886
0.027019
0.027169
0.057377
0.026233
0.022932
0.021887
0.021616
0.013365
0.043951
0.021569
0.019249
0.018161
0.017750
0.012578
0.028688
0.018198
0.018027
0.015315
0.015389
0.010531
0.022612
0.015997
0.016332
0.013911
0.013715
0.009114
0.018458
0.014796
0.015182
0.013048
0.012635
0.007903
0.015260
0.013976
0.014367
0.012389
0.011889
0.007665
0.012863
0.013494
0.013736
0.011802
0.011338
0.009397
0.013625
0.012927
0.013277
0.011275
0.010950
0.010969
0.012505
0.012844
0.010931
0.010760
0.008321
0.012672
0.012503
0.010907
0.010823
0.007854
0.013914
0.012637
0.011258
0.011211
0.008778
0.016603
0.013433
0.012055
0.011915
0.012045
0.021948
0.014871
0.013271
0.012883
0.033896
0.027653
0.027176
0.017065
0.014772
0.013938
0.022222
0.034158
0.031360
0.019696
0.016316
0.015050
0.020761
0.039309
0.034788
0.021993
0.017843
0.016220
0.022183
0.044174
0.037043
0.023845
0.019287
0.017444
0.024197
0.049322
0.038545
0.025241
0.020593
0.018756
0.026519
0.055602
0.039410
0.026291
0.021715
0.020212
0.028771
0.064548
0.039344
0.026912
0.022822
0.021912
0.030395
0.086297
0.034207
0.025820
0.025270
0.022915
0.107286
0.031144
0.027272
0.027211
0.025112
0.117374
0.035611
0.029763
0.028512
0.028131
0.130631
0.041736
0.033913
0.032215
0.032149
0.148397
0.049085
0.039661
0.037762
0.037162
0.173472
0.059294
0.047181
0.045058
0.042962
30.633500
0.215757
0.072144
0.058250
0.055124
0.050165
0.210525
0.216978
0.083651
0.069160
0.058628
0.056030
0.166081
0.170171
0.096914
0.076359
0.063708
0.060943
0.151379
0.155004
0.100551
0.081770
0.068560
0.064006
0.146633
0.146539
0.104430
0.087318
0.072774
0.066764
0.148614
0.142306
0.108097
0.093524
0.076728
0.069581
0.150637
0.140879
0.112625
0.099981
0.080272
0.072296
0.156776
0.143923
0.118835
0.106639
0.082497
0.073707
0.169229
0.153785
0.129205
0.114033
0.082287
0.071345
0.189352
0.174225
0.151736
0.126056
0.080212
0.062137
0.218688
0.203271
0.206157
0.187553
0.073841
0.052855
0.621390
0.570622
0.323846
0.185454
0.110365
0.094890
0.489025
0.391385
0.230535
0.167149
0.128410
0.112313
0.385187
0.331508
0.220019
0.175037
0.148881
0.136214
0.328265
0.305747
0.222384
0.183646
0.164179
0.153885
0.298514
0.288955
0.225195
0.189952
0.173611
0.164558
0.281844
0.276281
0.226132
0.193427
0.178097
0.169568
0.271404
0.266092
0.225110
0.194373
0.179043
0.170613
0.263733
0.257352
0.222496
0.193319
0.177610
0.169075
0.257363
0.249431
0.218619
0.190744
0.174612
0.165921
0.251200
0.241869
0.213766
0.187005
0.170601
0.161798
0.245337
0.234469
0.208039
0.182392
0.165946
0.157143
0.239217
0.227171
0.201705
0.177086
0.160906
0.152272
0.231526
0.219748
0.194935
0.171230
0.155671
0.147388
0.227785
0.213663
0.187543
0.165017
0.150314
0.142555
0.223891
0.208962
0.180467
0.158376
0.144751
0.137607
0.225408
0.207301
0.173595
0.151476
0.138531
0.131996
0.239994
0.212108
0.167670
0.143873
0.130847
0.124753
0.280946
0.229134
0.163023
0.134423
0.120342
0.114876
0.373365
0.288526
0.155862
0.120987
0.104879
0.102085
26.567900
0.205073
0.118163
0.096420
0.089493
0.086465
21.322100
0.142913
0.086994
0.073511
0.071677
0.069997
0.110728
0.063599
0.056813
0.055985
0.055670
0.090005
0.048218
0.044188
0.043314
0.043622
0.075341
0.037777
0.034895
0.033612
0.034085
0.064582
0.030456
0.027937
0.026489
0.026874
0.057006
0.024686
0.022386
0.021746
0.021641
0.011584
0.043678
0.020634
0.019073
0.018254
0.017975
0.012171
0.029075
0.017887
0.018136
0.015550
0.015725
0.010708
0.023141
0.016009
0.016563
0.014212
0.014109
0.009354
0.018973
0.014935
0.015435
0.013383
0.013059
0.007886
0.015574
0.014047
0.014615
0.012734
0.012337
0.006862
0.012727
0.013345
0.013940
0.012161
0.011809
0.008021
0.012052
0.012521
0.013411
0.011662
0.011448
0.008810
0.011931
0.012920
0.011358
0.011292
0.006216
0.012071
0.012590
0.011378
0.011398
0.006065
0.013446
0.012780
0.011793
0.011826
0.007814
0.016380
0.013710
0.012655
0.012555
0.012948
0.022220
0.015335
0.013898
0.013516
0.039421
0.030344
0.027752
0.017652
0.015384
0.014490
0.025105
0.035513
0.032059
0.020297
0.016843
0.015449
0.021857
0.040209
0.035389
0.022514
0.018223
0.016425
0.022808
0.044845
0.037430
0.024242
0.019499
0.017455
0.025062
0.049862
0.038658
0.025512
0.020640
0.018603
0.027580
0.056060
0.039256
0.026405
0.021593
0.019928
0.030882
0.065182
0.038786
0.026850
0.022489
0.021506
0.035368
0.087402
0.033001
0.025200
0.024868
0.022251
0.107953
0.029056
0.026132
0.026589
0.024178
0.117547
0.032785
0.028275
0.027322
0.026894
0.130397
0.038367
0.031875
0.030495
0.030499
0.147509
0.044744
0.036895
0.035449
0.034987
0.171507
0.053678
0.043425
0.042160
0.040181
24.532100
0.210914
0.065079
0.053394
0.051972
0.046842
0.182834
0.207261
0.074430
0.063541
0.054820
0.052311
0.150587
0.161567
0.088179
0.071108
0.059255
0.057202
0.141075
0.147170
0.092439
0.076358
0.064159
0.060259
0.139657
0.138845
0.096009
0.081864
0.068320
0.063019
0.138667
0.133899
0.099833
0.087620
0.072054
0.065649
0.141398
0.132216
0.103815
0.093656
0.075141
0.067961
0.146075
0.133818
0.109091
0.099851
0.076930
0.068924
0.155050
0.141197
0.118128
0.106867
0.076452
0.066474
0.171092
0.158037
0.137780
0.118177
0.074447
0.057996
0.194442
0.181530
0.186544
0.175483
0.067927
0.050384
0.586495
0.550096
0.301364
0.177632
0.109772
0.097589
0.458244
0.376164
0.218750
0.161697
0.126364
0.112320
0.364123
0.321186
0.210844
0.169233
0.145510
0.134091
0.315169
0.297090
0.213888
0.177777
0.160129
0.150757
0.290434
0.281393
0.217406
0.184383
0.169573
0.161295
0.277012
0.269843
0.219167
0.188441
0.174545
0.166732
0.268672
0.260733
0.219031
0.190123
0.176227
0.168508
0.262594
0.252993
0.217255
0.189826
0.175597
0.167797
0.257091
0.245825
0.214110
0.187919
0.173327
0.165406
0.251658
0.238769
0.209740
0.184686
0.169854
0.161853
0.245416
0.231474
0.204339
0.180310
0.165462
0.157484
0.238409
0.223811
0.197917
0.174944
0.160357
0.152536
0.232373
0.216253
0.190526
0.168722
0.154678
0.147181
0.223748
0.208362
0.182651
0.161695
0.148514
0.141509
0.217865
0.201623
0.174052
0.154077
0.141835
0.135442
0.216057
0.197795
0.165572
0.145819
0.134435
0.128629
0.223923
0.199304
0.157759
0.136962
0.125651
0.120415
0.256319
0.211957
0.151106
0.126499
0.114595
0.110061
0.339720
0.264667
0.140945
0.113075
0.099352
0.097452
32.547200
0.197099
0.109303
0.090441
0.084918
0.082611
22.258000
0.139163
0.080464
0.069035
0.068215
0.067053
0.108918
0.058918
0.053600
0.053600
0.053677
0.089228
0.044818
0.041983
0.041813
0.042436
0.075161
0.035264
0.033477
0.032775
0.033543
0.064753
0.028498
0.027075
0.026165
0.026799
0.057268
0.023210
0.021966
0.021769
0.021904
0.009689
0.043867
0.019793
0.018985
0.018518
0.018430
0.011939
0.029836
0.017721
0.018297
0.015956
0.016283
0.011024
0.023962
0.016236
0.016805
0.014677
0.014715
0.009837
0.019785
0.015236
0.015727
0.013860
0.013690
0.008052
0.016259
0.014308
0.014894
0.013225
0.012985
0.006228
0.012966
0.013391
0.014197
0.012669
0.012480
0.006272
0.010851
0.012315
0.013608
0.012216
0.012150
0.006917
0.011519
0.013080
0.011970
0.012034
0.004298
0.011596
0.012784
0.012053
0.012191
0.004726
0.013048
0.013062
0.012551
0.012669
0.007644
0.016223
0.014171
0.013490
0.013431
0.014756
0.022591
0.016028
0.014760
0.014386
0.045771
0.033726
0.028439
0.018481
0.016212
0.015265
0.028052
0.037086
0.032899
0.021075
0.017568
0.016027
0.023389
0.041206
0.036019
0.023169
0.018739
0.016753
0.023557
0.045395
0.037764
0.024710
0.019783
0.017525
0.025621
0.050126
0.038663
0.025782
0.020703
0.018459
0.028999
0.056295
0.038885
0.026519
0.021441
0.019626
0.032998
0.065552
0.038113
0.026770
0.022119
0.021080
0.039296
0.088563
0.031804
0.024560
0.024477
0.021574
0.108516
0.027076
0.025045
0.026020
0.023263
0.117671
0.030184
0.026917
0.026229
0.025724
0.130105
0.035167
0.030062
0.028905
0.028962
0.146725
0.040772
0.034349
0.033332
0.032977
0.169774
0.048315
0.039966
0.039501
0.037613
20.742800
0.206761
0.058607
0.048858
0.049161
0.043769
0.159275
0.199423
0.066138
0.058504
0.051347
0.048887
0.137259
0.154343
0.080393
0.066374
0.055223
0.053734
0.132532
0.140297
0.084984
0.071689
0.060078
0.056745
0.131012
0.132016
0.088889
0.076877
0.064205
0.059441
0.132120
0.126966
0.092091
0.082342
0.067656
0.061860
0.132411
0.123979
0.095575
0.087871
0.070351
0.063782
0.135175
0.124251
0.100128
0.093674
0.071696
0.064361
0.142107
0.129676
0.107907
0.100387
0.070988
0.061837
0.154623
0.143399
0.125121
0.111124
0.068989
0.054023
0.173009
0.162206
0.168734
0.164554
0.062438
0.047875
0.551136
0.531891
0.279283
0.170322
0.109073
0.099844
0.427888
0.362789
0.207381
0.156228
0.124294
0.112179
0.344055
0.311792
0.201865
0.163481
0.142158
0.131939
0.302707
0.288899
0.205607
0.171977
0.156099
0.147609
0.282652
0.274109
0.209797
0.178858
0.165507
0.157965
0.272165
0.263555
0.212332
0.183445
0.170891
0.163753
0.265914
0.255481
0.213021
0.185797
0.173226
0.166170
0.261183
0.248668
0.212068
0.186204
0.173323
0.166199
0.256822
0.242326
0.209637
0.184946
0.171726
0.164500
0.251797
0.235846
0.205879
0.182215
0.168777
0.161489
0.246116
0.228923
0.200787
0.178156
0.164690
0.157421
0.239577
0.221399
0.194456
0.172853
0.159601
0.152478
0.230635
0.212918
0.186990
0.166368
0.153621
0.146793
0.222816
0.204381
0.178216
0.158826
0.146829
0.140453
0.214091
0.196110
0.168721
0.150256
0.139255
0.133456
0.207662
0.189543
0.158660
0.140902
0.130768
0.125619
0.210124
0.188031
0.148831
0.130758
0.121048
0.116519
0.233712
0.196651
0.140039
0.119336
0.109404
0.105742
0.305820
0.243066
0.127251
0.105825
0.094341
0.093275
33.763700
0.190018
0.100513
0.084880
0.080728
0.079154
26.728800
0.136305
0.073931
0.064838
0.065052
0.064450
0.107980
0.054303
0.050552
0.051527
0.051980
0.089211
0.041627
0.039954
0.040597
0.041550
0.075675
0.032954
0.032225
0.032226
0.033296
0.065577
0.026719
0.026417
0.026089
0.027034
0.058195
0.021820
0.021720
0.022039
0.022471
0.008470
0.044909
0.019055
0.019044
0.018996
0.019191
0.011986
0.030938
0.017851
0.018451
0.016615
0.017123
0.011740
0.025101
0.016629
0.017067
0.015358
0.015602
0.010540
0.021049
0.015720
0.016014
0.014553
0.014595
0.008435
0.017328
0.014773
0.015202
0.013921
0.013904
0.005837
0.013736
0.013666
0.014510
0.013395
0.013419
0.004922
0.010443
0.012364
0.013893
0.013002
0.013121
0.006032
0.011354
0.013357
0.012832
0.013049
0.003574
0.011286
0.013133
0.012995
0.013262
0.004686
0.012730
0.013534
0.013592
0.013795
0.008523
0.016100
0.014866
0.014617
0.014594
0.017339
0.023030
0.017012
0.015901
0.015542
0.052631
0.037747
0.029250
0.019582
0.017315
0.016304
0.031786
0.039041
0.033837
0.022094
0.018522
0.016830
0.024574
0.042189
0.036720
0.023964
0.019432
0.017240
0.024351
0.045823
0.037999
0.025244
0.020159
0.017683
0.026833
0.050109
0.038403
0.026069
0.020780
0.018336
0.030025
0.056037
0.038256
0.026568
0.021258
0.019307
0.035413
0.065656
0.037082
0.026663
0.021693
0.020631
0.044648
0.089487
0.030447
0.023892
0.024095
0.020890
0.108892
0.025191
0.023975
0.025537
0.022382
0.117514
0.027665
0.025775
0.025267
0.024663
0.129653
0.032237
0.028510
0.027534
0.027602
0.145832
0.036992
0.032168
0.031476
0.031207
0.168147
0.043459
0.036836
0.037201
0.035344
16.774200
0.203065
0.052624
0.044777
0.046754
0.041041
0.135519
0.192985
0.058899
0.053958
0.048370
0.045827
0.126695
0.148534
0.073423
0.062435
0.051588
0.050632
0.124704
0.134554
0.078638
0.067555
0.056449
0.053520
0.125178
0.126191
0.082175
0.072588
0.060424
0.056100
0.124049
0.120188
0.085159
0.077557
0.063617
0.058267
0.124032
0.116431
0.087922
0.082677
0.065876
0.059824
0.125181
0.115306
0.091682
0.088081
0.066850
0.060049
0.129676
0.118884
0.098479
0.094557
0.065901
0.057484
0.139656
0.130129
0.113681
0.104860
0.063859
0.050259
0.154213
0.145063
0.152676
0.154746
0.057336
0.045400
0.515473
0.516228
0.257781
0.163577
0.108283
0.101687
0.398340
0.351287
0.196452
0.150771
0.122211
0.111890
0.325085
0.303318
0.193117
0.157800
0.138837
0.129760
0.290867
0.281184
0.197563
0.166265
0.152098
0.144447
0.275019
0.267078
0.202379
0.173387
0.161424
0.154579
0.267255
0.257377
0.205606
0.178437
0.167146
0.160643
0.262831
0.250208
0.207059
0.181387
0.170046
0.163609
0.259597
0.244320
0.206866
0.182438
0.170787
0.164285
0.256172
0.238788
0.205173
0.181787
0.169805
0.163208
0.252174
0.233043
0.202003
0.179580
0.167361
0.160699
0.246850
0.226611
0.197422
0.175888
0.163603
0.156951
0.239850
0.219187
0.191367
0.170758
0.158627
0.152089
0.232400
0.210956
0.183756
0.164225
0.152500
0.146208
0.222097
0.201547
0.174798
0.156295
0.145273
0.139391
0.211549
0.191783
0.164349
0.147096
0.136991
0.131672
0.202418
0.183297
0.152914
0.136719
0.127655
0.122985
0.198096
0.178471
0.141146
0.125452
0.117062
0.113150
0.212610
0.182996
0.130021
0.112963
0.104939
0.101974
0.274298
0.223998
0.114405
0.099494
0.089915
0.089654
37.282100
0.183971
0.091733
0.079968
0.076997
0.076205
26.401500
0.134690
0.067450
0.060998
0.062362
0.062282
0.108068
0.049943
0.047838
0.049867
0.050707
0.090173
0.038759
0.038201
0.039809
0.041060
0.077003
0.031169
0.031244
0.032098
0.033448
0.067058
0.025420
0.026102
0.026391
0.027672
0.059793
0.020581
0.021976
0.022565
0.023464
0.008057
0.045695
0.018769
0.019389
0.019804
0.020352
0.013464
0.031901
0.018297
0.018779
0.017615
0.018349
0.013005
0.026713
0.017235
0.017393
0.016394
0.016871
0.011288
0.022472
0.016418
0.016402
0.015569
0.015884
0.009239
0.018644
0.015367
0.015631
0.014946
0.015201
0.006178
0.014942
0.014152
0.014956
0.014466
0.014732
0.003595
0.011235
0.012726
0.014340
0.014145
0.014466
0.007207
0.011545
0.013842
0.014059
0.014438
0.005364
0.011240
0.013736
0.014311
0.014706
0.006451
0.012509
0.014300
0.015010
0.015291
0.010453
0.016005
0.015893
0.016118
0.016123
0.020625
0.023533
0.018368
0.017405
0.017058
0.060320
0.042493
0.030201
0.021062
0.018745
0.017688
0.035257
0.041276
0.035005
0.023361
0.019794
0.017930
0.027061
0.043484
0.037392
0.024973
0.020351
0.017971
0.025409
0.046021
0.038110
0.025858
0.020685
0.018001
0.027280
0.049577
0.037863
0.026321
0.020921
0.018299
0.032153
0.055300
0.037048
0.026607
0.021063
0.019027
0.037665
0.065041
0.035608
0.026513
0.021253
0.020217
0.047106
0.089955
0.028840
0.023185
0.023789
0.020264
0.108739
0.023258
0.023015
0.025220
0.021627
0.116939
0.025328
0.024920
0.024571
0.023817
0.128796
0.029435
0.027426
0.026491
0.026541
0.144715
0.033645
0.030434
0.030056
0.029808
0.166442
0.038916
0.034263
0.035363
0.033501
13.412700
0.199717
0.047578
0.041102
0.044913
0.038740
0.118556
0.187680
0.052387
0.050207
0.045906
0.043228
0.116792
0.143435
0.067514
0.059120
0.048529
0.047949
0.119209
0.129806
0.072880
0.064239
0.053237
0.050671
0.118752
0.120825
0.076378
0.068822
0.057090
0.053043
0.117536
0.114128
0.078598
0.073405
0.059925
0.054940
0.115597
0.109040
0.080704
0.078021
0.061808
0.056133
0.114932
0.106609
0.083776
0.083105
0.062397
0.056058
0.118075
0.108806
0.089706
0.089375
0.061236
0.053461
0.126031
0.118096
0.103326
0.099334
0.059079
0.046764
0.138039
0.130139
0.138279
0.145972
0.052603
0.043033
0.479687
0.503191
0.237016
0.157432
0.107417
0.103163
0.369968
0.341643
0.185988
0.145330
0.120133
0.111471
0.307348
0.295748
0.184624
0.152220
0.135561
0.127564
0.279591
0.273956
0.189789
0.160657
0.148139
0.141283
0.267471
0.260309
0.195163
0.167975
0.157338
0.151149
0.262040
0.251246
0.198987
0.173417
0.163315
0.157411
0.259367
0.244842
0.201087
0.176876
0.166685
0.160827
0.257385
0.239744
0.201585
0.178482
0.167973
0.162049
0.255219
0.235052
0.200553
0.178384
0.167525
0.161505
0.251971
0.230055
0.198051
0.176672
0.165541
0.159446
0.247523
0.224332
0.194000
0.173395
0.162128
0.156010
0.241716
0.217587
0.188362
0.168553
0.157337
0.151284
0.233204
0.209367
0.181092
0.162123
0.151196
0.145334
0.223683
0.199975
0.171958
0.154095
0.143743
0.138217
0.211986
0.189531
0.161079
0.144468
0.135003
0.129993
0.198491
0.178729
0.148548
0.133384
0.125007
0.120683
0.189695
0.171151
0.134897
0.121065
0.113782
0.110257
0.193964
0.171834
0.121256
0.107704
0.101188
0.098808
0.240007
0.207512
0.103182
0.094074
0.086220
0.086649
35.596800
0.179714
0.083279
0.075865
0.073899
0.073851
29.041000
0.134554
0.061201
0.057800
0.060233
0.060676
0.109643
0.045945
0.045610
0.048809
0.049944
0.092404
0.036618
0.036948
0.039601
0.041092
0.079488
0.030240
0.030738
0.032547
0.034109
0.069375
0.025324
0.026202
0.027304
0.028813
0.061577
0.020725
0.022935
0.023519
0.024967
0.005245
0.049982
0.018954
0.020807
0.020947
0.022136
0.008469
0.038838
0.019030
0.019640
0.019099
0.020134
0.007609
0.032512
0.018432
0.018233
0.017923
0.018702
0.006669
0.026801
0.017504
0.017239
0.017104
0.017719
0.005516
0.021803
0.016418
0.016429
0.016514
0.017035
0.004447
0.017403
0.015145
0.015737
0.016090
0.016574
0.002562
0.013579
0.013665
0.015144
0.015834
0.016331
0.010427
0.012287
0.014763
0.015818
0.016343
0.008870
0.011634
0.014802
0.016156
0.016654
0.009569
0.012524
0.015540
0.016949
0.017280
0.013314
0.015957
0.017424
0.018118
0.018131
0.024551
0.024134
0.020252
0.019372
0.019042
0.070153
0.048312
0.031315
0.023010
0.020624
0.019519
0.040425
0.044280
0.036293
0.025053
0.021451
0.019454
0.027987
0.044716
0.038274
0.026166
0.021638
0.019076
0.026730
0.046207
0.038000
0.026603
0.021459
0.018646
0.029796
0.048563
0.036802
0.026631
0.021229
0.018515
0.032988
0.053508
0.035342
0.026559
0.021008
0.018950
0.040353
0.063694
0.033285
0.026442
0.020922
0.020004
0.052640
0.089510
0.026803
0.022599
0.023714
0.019894
0.107846
0.021427
0.022307
0.025253
0.021200
0.115578
0.023149
0.024660
0.024345
0.023405
0.127389
0.027035
0.026995
0.026052
0.025990
0.143143
0.030575
0.029502
0.029255
0.028983
0.164538
0.035175
0.032336
0.034251
0.032260
10.468800
0.196525
0.043113
0.038207
0.043721
0.037037
0.096529
0.183190
0.047377
0.047058
0.044204
0.041192
0.111602
0.139690
0.062219
0.056842
0.045990
0.045809
0.114053
0.125389
0.068074
0.061544
0.050623
0.048233
0.113484
0.116033
0.070946
0.065807
0.054165
0.050363
0.110864
0.108115
0.072517
0.069811
0.056696
0.051939
0.106908
0.101732
0.073862
0.074007
0.058170
0.052804
0.105093
0.098151
0.076250
0.078779
0.058430
0.052459
0.106600
0.099145
0.081603
0.084876
0.057046
0.049849
0.113673
0.107209
0.093996
0.094544
0.054693
0.043609
0.124194
0.117230
0.125563
0.138205
0.048217
0.040856
0.443915
0.492817
0.217290
0.151903
0.106487
0.104315
0.343310
0.333738
0.175886
0.139926
0.118111
0.110934
0.290938
0.288996
0.176397
0.146779
0.132338
0.125365
0.268876
0.267266
0.182330
0.155167
0.144249
0.138137
0.259888
0.253833
0.188188
0.162649
0.153270
0.147699
0.256459
0.245177
0.192486
0.168399
0.159423
0.154080
0.255160
0.239283
0.195100
0.172256
0.163152
0.157841
0.254440
0.234817
0.196127
0.174302
0.164870
0.159493
0.253234
0.230804
0.195671
0.174645
0.164848
0.159373
0.251261
0.226633
0.193726
0.173365
0.163243
0.157676
0.247898
0.221771
0.190301
0.170487
0.160134
0.154508
0.242668
0.215794
0.185272
0.166002
0.155554
0.149931
0.236063
0.208551
0.178455
0.159853
0.149519
0.143987
0.226376
0.199531
0.169729
0.151968
0.142011
0.136730
0.213934
0.188784
0.158840
0.142255
0.133067
0.128209
0.200273
0.177353
0.145614
0.130773
0.122712
0.118504
0.182942
0.166241
0.130479
0.117758
0.111039
0.107731
0.178117
0.162957
0.114276
0.103455
0.098242
0.096116
0.211735
0.195012
0.092968
0.090015
0.083229
0.084244
32.181700
0.177614
0.075065
0.072906
0.071485
0.072122
30.269200
0.136755
0.055322
0.055459
0.058900
0.059668
0.113195
0.042937
0.044245
0.048516
0.049810
0.096589
0.035552
0.036530
0.040165
0.041732
0.083670
0.030749
0.031024
0.033778
0.035394
0.073178
0.026985
0.027007
0.028997
0.030582
0.064169
0.023804
0.024159
0.025507
0.027029
0.055677
0.021952
0.022208
0.023125
0.024443
0.047313
0.021595
0.020640
0.021532
0.022540
0.039682
0.020998
0.019441
0.020343
0.021182
0.033077
0.019915
0.018513
0.019509
0.020226
0.027276
0.018666
0.017780
0.018912
0.019557
0.022306
0.017252
0.017172
0.018504
0.019113
0.018273
0.015658
0.016711
0.018288
0.018894
0.015293
0.014037
0.016489
0.018327
0.018932
0.013609
0.012915
0.016661
0.018736
0.019268
0.013774
0.013090
0.017577
0.019583
0.019910
0.017065
0.016176
0.019711
0.020778
0.020754
0.029170
0.024903
0.022881
0.021948
0.021621
0.079810
0.054747
0.032799
0.025630
0.023056
0.021932
0.044553
0.047606
0.038058
0.027158
0.023679
0.021546
0.032502
0.046865
0.039003
0.027806
0.023379
0.020774
0.028169
0.046000
0.037824
0.027472
0.022721
0.019858
0.029151
0.046679
0.035326
0.026984
0.021950
0.019291
0.036579
0.050738
0.032566
0.026734
0.021314
0.019407
0.042111
0.060591
0.030322
0.026515
0.021084
0.020314
0.051136
0.087490
0.024474
0.022464
0.024156
0.020158
0.105489
0.019897
0.022316
0.025946
0.021483
0.113156
0.021595
0.025348
0.024977
0.023775
0.125040
0.025177
0.027736
0.026540
0.026279
0.141028
0.028390
0.029636
0.029485
0.029014
0.162286
0.032015
0.031619
0.034056
0.031889
8.216120
0.193451
0.040529
0.035921
0.043501
0.036067
0.088906
0.179008
0.042906
0.045183
0.043246
0.039878
0.104960
0.135631
0.058249
0.055278
0.044285
0.044258
0.110712
0.121924
0.063701
0.059821
0.048501
0.046355
0.109600
0.111207
0.065937
0.063413
0.051822
0.048115
0.103143
0.101813
0.066705
0.066914
0.053967
0.049387
0.098535
0.094354
0.067247
0.070717
0.055088
0.049943
0.094588
0.089614
0.069266
0.075210
0.055059
0.049371
0.095777
0.090025
0.074162
0.081145
0.053427
0.046750
0.102485
0.097460
0.085692
0.090490
0.050776
0.040891
0.113125
0.106541
0.114404
0.131364
0.044189
0.038964
0.408147
0.484590
0.198974
0.146794
0.105495
0.105117
0.318624
0.327332
0.165773
0.134704
0.116119
0.110282
0.275818
0.283063
0.168572
0.141467
0.129216
0.123188
0.258679
0.261161
0.175247
0.149860
0.140461
0.135049
0.252318
0.247748
0.181525
0.157461
0.149271
0.144275
0.250398
0.239234
0.186177
0.163433
0.155515
0.150697
0.250188
0.233582
0.189128
0.167567
0.159492
0.154695
0.250234
0.229406
0.190498
0.169902
0.161505
0.156651
0.250008
0.225832
0.190371
0.170529
0.161767
0.156822
0.248888
0.222216
0.188838
0.169522
0.160405
0.155364
0.246844
0.218203
0.185883
0.166933
0.157496
0.152365
0.243692
0.213491
0.181491
0.162769
0.153079
0.147880
0.238352
0.207573
0.175525
0.156993
0.147156
0.141957
0.230904
0.200097
0.167632
0.149473
0.139743
0.134635
0.219942
0.190408
0.157319
0.140109
0.130785
0.125992
0.202366
0.177897
0.144359
0.128636
0.120393
0.116117
0.186509
0.166109
0.128132
0.115332
0.108641
0.105230
0.166464
0.158774
0.109669
0.100676
0.095827
0.093747
0.172399
0.185846
0.085607
0.087212
0.081063
0.082318
25.620300
0.179385
0.067566
0.071447
0.069994
0.070965
29.774400
0.142111
0.050774
0.054569
0.058487
0.059281
0.120070
0.041417
0.044338
0.049161
0.050288
0.103735
0.036682
0.037450
0.041699
0.043025
0.090573
0.033315
0.032566
0.035969
0.037350
0.079446
0.030583
0.028964
0.031705
0.033028
0.069752
0.028618
0.026262
0.028604
0.029797
0.060996
0.027315
0.024241
0.026384
0.027408
0.053022
0.026314
0.022826
0.024798
0.025677
0.045814
0.025289
0.021796
0.023690
0.024423
0.039457
0.024078
0.021028
0.022875
0.023527
0.033935
0.022632
0.020435
0.022294
0.022898
0.029171
0.021023
0.019969
0.021913
0.022487
0.025166
0.019260
0.019640
0.021738
0.022292
0.021989
0.017440
0.019522
0.021825
0.022342
0.019833
0.015786
0.019812
0.022255
0.022682
0.019292
0.015057
0.020838
0.023114
0.023308
0.021885
0.017165
0.023188
0.024254
0.024112
0.034551
0.026275
0.026543
0.025286
0.024905
0.095722
0.063351
0.034677
0.029142
0.026201
0.025044
0.051426
0.052212
0.040005
0.030049
0.026537
0.024374
0.031300
0.048520
0.040207
0.029742
0.025904
0.023234
0.029208
0.046044
0.037126
0.028849
0.024637
0.021957
0.032490
0.043757
0.033405
0.027668
0.023454
0.020989
0.032933
0.045728
0.029680
0.027081
0.022516
0.020827
0.044163
0.055785
0.026232
0.027361
0.022159
0.021614
0.058644
0.083020
0.022446
0.023419
0.025603
0.021548
0.101060
0.019694
0.023827
0.027647
0.022982
0.108887
0.021590
0.027671
0.026923
0.025357
0.121578
0.024797
0.030094
0.028451
0.027771
0.138050
0.027379
0.031612
0.031062
0.030273
0.159747
0.030683
0.032350
0.035314
0.032660
5.718380
0.190372
0.038521
0.035288
0.044323
0.036159
0.067435
0.175998
0.041360
0.043968
0.043548
0.039433
0.108953
0.133924
0.054451
0.055179
0.043174
0.043556
0.110123
0.117406
0.059816
0.058797
0.047179
0.045083
0.101610
0.105596
0.061256
0.061767
0.050075
0.046494
0.097354
0.095372
0.060755
0.064855
0.051871
0.047442
0.088418
0.086231
0.061081
0.068248
0.052759
0.047719
0.084331
0.081154
0.062872
0.072592
0.052416
0.046949
0.085324
0.081590
0.067748
0.078287
0.050527
0.044290
0.093048
0.089119
0.078484
0.087234
0.047417
0.038721
0.104207
0.097779
0.104830
0.125425
0.040552
0.037464
0.372508
0.478155
0.182239
0.142076
0.104402
0.105594
0.295843
0.322480
0.155904
0.129817
0.114120
0.109535
0.261980
0.277951
0.161181
0.136419
0.126254
0.121083
0.249127
0.255737
0.168642
0.144818
0.136847
0.132076
0.244861
0.242179
0.175278
0.152500
0.145412
0.140940
0.244055
0.233603
0.180178
0.158611
0.151673
0.147335
0.244378
0.227872
0.183308
0.162900
0.155787
0.151469
0.244836
0.223632
0.184775
0.165365
0.157960
0.153602
0.244771
0.219973
0.184712
0.166075
0.158345
0.153925
0.244246
0.216441
0.183192
0.165114
0.157053
0.152556
0.243057
0.212759
0.180362
0.162560
0.154163
0.149578
0.241304
0.208878
0.176298
0.158493
0.149737
0.145059
0.239369
0.204877
0.171058
0.152940
0.143831
0.139061
0.236206
0.200387
0.164483
0.145883
0.136443
0.131663
0.229901
0.194387
0.156066
0.137048
0.127648
0.122942
0.217910
0.185041
0.144324
0.126416
0.117348
0.113087
0.185084
0.169014
0.128947
0.113322
0.105954
0.102323
0.165630
0.158695
0.108316
0.098870
0.093540
0.091198
0.156221
0.184856
0.080236
0.086437
0.079420
0.080463
17.782200
0.186761
0.062012
0.071852
0.069531
0.070004
26.011500
0.153799
0.048610
0.055991
0.058992
0.059252
0.132567
0.044337
0.046543
0.050791
0.051222
0.115757
0.041233
0.040457
0.044213
0.044823
0.101727
0.038467
0.036082
0.039220
0.039819
0.090037
0.036557
0.032783
0.035484
0.036020
0.079968
0.035053
0.030350
0.032719
0.033169
0.071117
0.033843
0.028607
0.030697
0.031061
0.063218
0.032733
0.027351
0.029239
0.029512
0.056164
0.031586
0.026440
0.028180
0.028386
0.049880
0.030305
0.025749
0.027417
0.027572
0.044308
0.028856
0.025229
0.026866
0.027001
0.039390
0.027218
0.024835
0.026506
0.026634
0.035079
0.025407
0.024583
0.026346
0.026471
0.031395
0.023442
0.024544
0.026431
0.026538
0.028513
0.021415
0.024902
0.026839
0.026871
0.026917
0.019751
0.025987
0.027642
0.027456
0.028354
0.020451
0.028336
0.028686
0.028182
0.041010
0.028854
0.031718
0.029474
0.028874
0.107077
0.071610
0.037903
0.033794
0.030131
0.028841
0.051846
0.055927
0.042989
0.033642
0.030297
0.027908
0.034043
0.050795
0.040986
0.032776
0.029147
0.026566
0.025347
0.044709
0.036833
0.030799
0.027601
0.025007
0.024146
0.040399
0.031677
0.029244
0.026003
0.023837
0.035536
0.039198
0.027456
0.028450
0.025005
0.023474
0.037617
0.046956
0.024603
0.028976
0.024820
0.024185
0.048189
0.074853
0.022587
0.026621
0.028244
0.024428
0.092915
0.022607
0.027782
0.030741
0.025963
0.101895
0.024919
0.032339
0.030475
0.028418
0.116067
0.027976
0.034868
0.032081
0.030751
0.134620
0.029427
0.035845
0.034482
0.032930
0.157056
0.031148
0.035838
0.038128
0.034902
5.226070
0.188007
0.040740
0.035954
0.046946
0.037422
0.082641
0.170866
0.039122
0.045357
0.044833
0.040205
0.106692
0.128048
0.052876
0.055720
0.043360
0.043753
0.100139
0.113347
0.056764
0.058633
0.046594
0.044792
0.102904
0.100393
0.055352
0.061168
0.049073
0.045731
0.086670
0.086351
0.054936
0.063533
0.050778
0.046338
0.077349
0.077110
0.055266
0.066949
0.051306
0.046374
0.073661
0.073234
0.057932
0.071059
0.050745
0.045363
0.077364
0.074963
0.062768
0.076444
0.048467
0.042603
0.085618
0.082486
0.072593
0.084800
0.044741
0.037213
0.098174
0.091067
0.096506
0.120318
0.037379
0.036470
0.337513
0.473222
0.166608
0.137905
0.103257
0.105865
0.274976
0.319172
0.146891
0.125288
0.112200
0.108741
0.249584
0.273687
0.154350
0.131766
0.123504
0.119093
0.240446
0.251084
0.162612
0.140140
0.133481
0.129273
0.237846
0.237303
0.169590
0.147871
0.141776
0.137767
0.237693
0.228492
0.174655
0.154058
0.147995
0.144083
0.238163
0.222458
0.177824
0.158402
0.152159
0.148270
0.238297
0.217757
0.179205
0.160858
0.154374
0.150478
0.237873
0.213536
0.178882
0.161464
0.154739
0.150825
0.236616
0.209270
0.176994
0.160291
0.153336
0.149401
0.235010
0.204893
0.173659
0.157443
0.150250
0.146282
0.233475
0.200599
0.169140
0.153043
0.145573
0.141554
0.232758
0.196931
0.163719
0.147259
0.139400
0.135318
0.234133
0.194788
0.157787
0.140175
0.131854
0.127690
0.238683
0.194887
0.151267
0.131893
0.122953
0.118849
0.242988
0.196131
0.143720
0.121822
0.112991
0.108982
0.240127
0.193297
0.131261
0.110547
0.101849
0.098572
0.175537
0.177154
0.114201
0.096591
0.090677
0.088058
0.094068
0.193321
0.082052
0.087345
0.077736
0.078170
7.931390
0.208768
0.060733
0.075002
0.069300
0.068739
20.292300
0.178292
0.057533
0.059444
0.060079
0.058946
0.155254
0.053915
0.051575
0.052839
0.052093
0.136331
0.049815
0.046287
0.047323
0.046550
0.121340
0.047759
0.042324
0.043077
0.042272
0.108959
0.046300
0.039466
0.039866
0.039017
0.098415
0.045203
0.037425
0.037483
0.036592
0.089188
0.044159
0.035938
0.035736
0.034798
0.081028
0.043111
0.034866
0.034452
0.033489
0.073738
0.041981
0.034064
0.033510
0.032537
0.067176
0.040723
0.033466
0.032815
0.031859
0.061224
0.039299
0.033005
0.032316
0.031394
0.055781
0.037692
0.032680
0.031983
0.031117
0.050779
0.035882
0.032489
0.031830
0.031025
0.046193
0.033839
0.032525
0.031889
0.031143
0.042125
0.031612
0.032893
0.032244
0.031483
0.039010
0.029384
0.033952
0.032947
0.032033
0.038372
0.028465
0.036025
0.033881
0.032636
0.049538
0.035350
0.038682
0.034449
0.033185
0.138269
0.085554
0.042862
0.039847
0.034921
0.032967
0.060957
0.062059
0.046303
0.039064
0.034549
0.031915
0.025139
0.051005
0.043688
0.036700
0.033268
0.030378
0.025189
0.043528
0.038358
0.034277
0.031317
0.028756
0.025545
0.042210
0.033766
0.032272
0.029648
0.027509
0.029992
0.042288
0.030140
0.031649
0.028710
0.027110
0.053042
0.040814
0.029393
0.032277
0.028992
0.027761
0.076700
0.061865
0.030567
0.031816
0.032208
0.028455
0.079217
0.031763
0.035341
0.034466
0.030289
0.090472
0.034330
0.040025
0.035425
0.032734
0.108010
0.036480
0.042410
0.037318
0.034960
0.129900
0.038617
0.043365
0.039523
0.036999
0.156485
0.038908
0.042591
0.042865
0.038451
2.415360
0.187153
0.042712
0.041859
0.050376
0.040335
0.088882
0.176707
0.044839
0.047052
0.048314
0.042264
0.130532
0.137940
0.051467
0.057998
0.044540
0.045415
0.127074
0.111253
0.049187
0.060119
0.047118
0.045688
0.091127
0.087204
0.048841
0.060920
0.049611
0.046103
0.070599
0.073145
0.048532
0.063701
0.050711
0.046441
0.063376
0.068029
0.051611
0.066900
0.051126
0.046111
0.067528
0.068483
0.055353
0.070816
0.050140
0.044783
0.072558
0.071146
0.060011
0.075617
0.047388
0.041781
0.081264
0.077988
0.068072
0.083216
0.042828
0.036447
0.093388
0.085604
0.089233
0.116008
0.034792
0.036073
0.303521
0.469478
0.151792
0.134224
0.102167
0.106016
0.256100
0.316882
0.138901
0.121142
0.110436
0.107954
0.238718
0.270415
0.148436
0.127541
0.121003
0.117243
0.232860
0.247285
0.157328
0.135919
0.130414
0.126684
0.231574
0.233237
0.164592
0.143681
0.138442
0.134822
0.231793
0.224131
0.169777
0.149908
0.144590
0.141034
0.231995
0.217642
0.172915
0.154252
0.148751
0.145228
0.231477
0.212285
0.174075
0.156616
0.150937
0.147444
0.229768
0.207066
0.173330
0.156995
0.151186
0.147736
0.227024
0.201492
0.170721
0.155432
0.149549
0.146156
0.223156
0.195298
0.166398
0.152006
0.146096
0.142773
0.218926
0.188719
0.160515
0.146857
0.140930
0.137685
0.215257
0.182382
0.153483
0.140177
0.134203
0.131028
0.214595
0.177836
0.145813
0.132278
0.126085
0.122996
0.220175
0.177610
0.138635
0.123360
0.116852
0.113827
0.242112
0.186543
0.132162
0.113872
0.106621
0.103904
0.276469
0.204269
0.126885
0.102832
0.096246
0.093603
0.318577
0.226579
0.113728
0.093174
0.085906
0.083836
0.199684
0.244356
0.097983
0.085774
0.074429
0.074499
6.243660
0.268915
0.090910
0.073972
0.068889
0.066148
8.660390
0.228411
0.077458
0.065354
0.059846
0.057930
0.201161
0.068245
0.058540
0.054304
0.051861
0.181283
0.065528
0.053621
0.049734
0.047265
0.165402
0.064138
0.050314
0.046278
0.043762
0.152063
0.063286
0.048129
0.043784
0.041200
0.140455
0.062500
0.046585
0.042011
0.039355
0.130169
0.061753
0.045523
0.040750
0.038061
0.120870
0.060946
0.044778
0.039860
0.037165
0.112372
0.060050
0.044284
0.039230
0.036568
0.104500
0.059021
0.043953
0.038794
0.036189
0.097088
0.057827
0.043765
0.038498
0.035984
0.090006
0.056451
0.043682
0.038321
0.035925
0.083095
0.054798
0.043743
0.038257
0.036011
0.076314
0.052928
0.043949
0.038346
0.036243
0.069597
0.050656
0.044463
0.038617
0.036622
0.063387
0.048483
0.045290
0.039204
0.037065
0.058754
0.046738
0.046802
0.039796
0.037448
0.065024
0.051626
0.047471
0.040251
0.037406
0.142722
0.092532
0.054173
0.047505
0.039741
0.036748
0.029744
0.066498
0.056491
0.044874
0.038992
0.035508
0.055392
0.058502
0.049742
0.042251
0.037237
0.033953
0.058064
0.057084
0.045199
0.039382
0.035110
0.032356
0.065177
0.064181
0.044673
0.037167
0.033537
0.031170
0.079050
0.075031
0.044780
0.036399
0.032925
0.030856
0.103599
0.079790
0.042861
0.037627
0.033610
0.031528
0.083699
0.057368
0.046454
0.039746
0.036102
0.032864
0.066784
0.053206
0.044092
0.039053
0.035129
0.077913
0.054853
0.049521
0.041405
0.037850
0.098644
0.055456
0.052011
0.043817
0.039994
0.125150
0.057349
0.053072
0.045874
0.041748
0.158814
0.063924
0.052380
0.048794
0.042988
5.769460
0.206184
0.078148
0.048997
0.056488
0.044541
0.164207
0.174684
0.056708
0.055475
0.051550
0.045939
0.237052
0.136318
0.040336
0.063918
0.047761
0.048183
0.121658
0.084445
0.041561
0.061338
0.050216
0.047793
0.060997
0.061841
0.040597
0.063089
0.051322
0.048021
0.046173
0.060208
0.046533
0.065329
0.052343
0.047845
0.060198
0.066181
0.052303
0.068451
0.052196
0.047082
0.067685
0.069271
0.056633
0.071717
0.050706
0.045236
0.073889
0.071444
0.059599
0.075731
0.047245
0.041830
0.079296
0.075458
0.064985
0.082372
0.041730
0.036428
0.090193
0.080924
0.082233
0.112406
0.032933
0.036324
0.270722
0.466784
0.137800
0.130986
0.101160
0.106093
0.239245
0.315219
0.131701
0.117417
0.108854
0.107213
0.229375
0.267815
0.143365
0.123791
0.118772
0.115565
0.226407
0.244321
0.152901
0.132199
0.127678
0.124343
0.226266
0.230015
0.160385
0.140012
0.135467
0.132160
0.226722
0.220627
0.165669
0.146280
0.141550
0.138275
0.226584
0.213716
0.168771
0.150622
0.145703
0.142468
0.225142
0.207663
0.169722
0.152890
0.147851
0.144681
0.222094
0.201426
0.168515
0.153032
0.147973
0.144903
0.217038
0.194262
0.165165
0.151047
0.146077
0.143149
0.210206
0.185846
0.159650
0.146974
0.142214
0.139470
0.201301
0.175924
0.152081
0.140907
0.136476
0.133968
0.190991
0.164732
0.142541
0.133023
0.129025
0.126808
0.179404
0.152641
0.131455
0.123601
0.120119
0.118237
0.170369
0.141799
0.119313
0.113208
0.110106
0.108605
0.168329
0.135151
0.108116
0.102541
0.099554
0.098346
0.202904
0.146984
0.099885
0.093147
0.088889
0.088075
0.328481
0.191955
0.098302
0.085094
0.078715
0.078373
0.599602
0.285394
0.099785
0.077398
0.069968
0.069148
0.772109
0.372307
0.100187
0.069838
0.064127
0.061315
0.627617
0.344510
0.103296
0.063657
0.058515
0.054629
0.527886
0.303232
0.095717
0.060353
0.053311
0.049812
0.454906
0.272192
0.088988
0.057493
0.049601
0.046146
0.399294
0.247200
0.083917
0.055346
0.046969
0.043458
0.355729
0.227483
0.080256
0.053711
0.045121
0.041533
0.320507
0.211018
0.077457
0.052453
0.043840
0.040191
0.291124
0.197183
0.075413
0.051483
0.042951
0.039283
0.265778
0.185100
0.073895
0.050767
0.042338
0.038694
0.243006
0.174282
0.072739
0.050250
0.041927
0.038340
0.221926
0.164183
0.071749
0.049919
0.041659
0.038165
0.201367
0.154382
0.070868
0.049738
0.041504
0.038127
0.181094
0.144712
0.069999
0.049702
0.041452
0.038208
0.159902
0.134688
0.069190
0.049806
0.041501
0.038394
0.138308
0.124495
0.068369
0.050102
0.041680
0.038685
0.115460
0.113577
0.067887
0.050567
0.042016
0.039037
0.094175
0.103092
0.067525
0.051441
0.042547
0.039419
0.078556
0.093446
0.070057
0.052153
0.043024
0.039584
0.081868
0.093519
0.074604
0.052327
0.043611
0.039386
0.140494
0.124592
0.074192
0.052682
0.042917
0.038824
0.121429
0.102241
0.069805
0.050620
0.041503
0.037682
0.119398
0.094546
0.061913
0.047577
0.039543
0.036215
0.109566
0.095075
0.061202
0.044045
0.037662
0.034714
0.111010
0.102185
0.062591
0.042299
0.036160
0.033728
0.127705
0.118692
0.065931
0.041402
0.035902
0.033567
0.158976
0.143666
0.065855
0.042426
0.037094
0.034409
0.151958
0.126062
0.067528
0.046350
0.039080
0.036390
0.226130
0.148463
0.071873
0.051516
0.041924
0.038828
0.155225
0.125807
0.077311
0.055328
0.045119
0.041238
0.114365
0.106220
0.079032
0.058707
0.047852
0.043559
0.132220
0.101890
0.082480
0.060511
0.050820
0.045434
0.206817
0.117655
0.089395
0.062238
0.054133
0.046995
0.323596
0.146798
0.100570
0.059786
0.058207
0.048532
0.221753
0.105574
0.083115
0.061636
0.055214
0.049610
0.234349
0.096698
0.052960
0.067916
0.052580
0.051314
0.097580
0.038479
0.041198
0.066896
0.053935
0.051236
0.042377
0.053094
0.047204
0.067030
0.055006
0.051024
0.062588
0.070777
0.054608
0.069074
0.055216
0.050470
0.072826
0.076430
0.059800
0.071235
0.054497
0.049087
0.079310
0.077330
0.061362
0.073564
0.052176
0.046579
0.079312
0.075337
0.061467
0.076466
0.047907
0.042603
0.079872
0.074580
0.062972
0.082126
0.041357
0.037063
0.085972
0.075724
0.075032
0.109442
0.031926
0.037195
0.239231
0.464864
0.124725
0.128181
0.100260
0.106131
0.224471
0.313992
0.125270
0.114113
0.107467
0.106539
0.221525
0.265702
0.138998
0.120520
0.116818
0.114073
0.221136
0.241949
0.149203
0.129003
0.125287
0.122271
0.222032
0.227536
0.156964
0.136899
0.132886
0.129816
0.222776
0.217987
0.162381
0.143251
0.138940
0.135868
0.222412
0.210797
0.165520
0.147645
0.143127
0.140093
0.220321
0.204280
0.166369
0.149894
0.145291
0.142345
0.216031
0.197248
0.164886
0.149906
0.145357
0.142554
0.209332
0.188930
0.160989
0.147641
0.143301
0.140699
0.199605
0.178645
0.154642
0.143104
0.139141
0.136812
0.186885
0.166048
0.145742
0.136354
0.132963
0.130985
0.169967
0.150511
0.134331
0.127528
0.124923
0.123399
0.148430
0.131725
0.120340
0.116916
0.115299
0.114327
0.118843
0.108143
0.104128
0.105098
0.104512
0.104175
0.074552
0.077965
0.086752
0.093177
0.093210
0.093457
0.038739
0.040906
0.071774
0.083248
0.081855
0.082871
0.131119
0.038460
0.071781
0.075130
0.071495
0.072878
0.120593
0.052980
0.087231
0.066135
0.063572
0.063666
0.226899
0.083617
0.098996
0.059176
0.058889
0.056132
0.159777
0.065058
0.092036
0.057619
0.052989
0.050172
0.110119
0.052823
0.083706
0.056102
0.048478
0.045799
0.075380
0.051714
0.077841
0.054949
0.045491
0.042685
0.055435
0.058322
0.073607
0.053947
0.043628
0.040549
0.051424
0.067781
0.070870
0.053107
0.042461
0.039151
0.059394
0.077727
0.069143
0.052423
0.041753
0.038281
0.072610
0.087548
0.068249
0.051908
0.041338
0.037785
0.087586
0.096989
0.067934
0.051553
0.041131
0.037553
0.103330
0.106185
0.068053
0.051352
0.041071
0.037512
0.119930
0.115360
0.068493
0.051289
0.041127
0.037612
0.137695
0.124672
0.069184
0.051340
0.041281
0.037818
0.157609
0.134507
0.070051
0.051500
0.041522
0.038108
0.180106
0.145029
0.071107
0.051749
0.041851
0.038459
0.207161
0.156915
0.072356
0.052136
0.042260
0.038861
0.239160
0.170416
0.073993
0.052618
0.042741
0.039262
0.280227
0.186912
0.076093
0.053382
0.043200
0.039648
0.329828
0.206654
0.079327
0.053867
0.043682
0.039805
0.402725
0.230504
0.079003
0.055417
0.043329
0.039721
0.427233
0.250024
0.084671
0.053634
0.042858
0.038894
0.294077
0.209078
0.080061
0.051727
0.041163
0.037780
0.218660
0.182219
0.074945
0.048545
0.039321
0.036432
0.178312
0.169593
0.072497
0.045899
0.037491
0.035177
0.140784
0.162379
0.073048
0.044212
0.036420
0.034401
0.122492
0.165697
0.075001
0.044006
0.036331
0.034473
0.081976
0.173134
0.079451
0.044996
0.037468
0.035588
0.074513
0.178423
0.083731
0.047867
0.039846
0.037610
0.177962
0.209547
0.089478
0.052430
0.043088
0.040275
0.257981
0.243116
0.093627
0.057079
0.046590
0.043062
0.356994
0.284523
0.098240
0.060698
0.050158
0.045598
0.486997
0.335809
0.104191
0.064199
0.053545
0.047806
0.660610
0.405927
0.112833
0.066230
0.057242
0.049513
0.905366
0.456929
0.105306
0.067164
0.059547
0.051578
0.617731
0.281473
0.086653
0.069732
0.057525
0.053051
0.317507
0.165151
0.075845
0.071243
0.056976
0.054639
0.180049
0.126426
0.072291
0.071768
0.058038
0.054795
0.131571
0.111281
0.072410
0.072695
0.058972
0.054542
0.108057
0.103037
0.072575
0.073812
0.058870
0.053636
0.102300
0.096834
0.071267
0.074834
0.057355
0.051673
0.095979
0.089894
0.068537
0.075757
0.054190
0.048426
0.088530
0.081778
0.064685
0.077532
0.049034
0.043836
0.081504
0.074688
0.061810
0.082241
0.041560
0.038155
0.080785
0.069301
0.066816
0.107024
0.031779
0.038562
0.209207
0.463434
0.112674
0.125801
0.099480
0.106147
0.211814
0.313021
0.119614
0.111238
0.106267
0.105935
0.215088
0.263967
0.135296
0.117714
0.115122
0.112759
0.217003
0.240039
0.146149
0.126310
0.123232
0.120464
0.218920
0.225622
0.154225
0.134343
0.130700
0.127798
0.220093
0.216099
0.159874
0.140844
0.136787
0.133841
0.219789
0.208881
0.163176
0.145385
0.141081
0.138160
0.217497
0.202234
0.164120
0.147749
0.143364
0.140536
0.212770
0.194957
0.162637
0.147820
0.143515
0.140845
0.205193
0.186151
0.158647
0.145540
0.141479
0.139037
0.194638
0.175265
0.152046
0.140901
0.137265
0.135121
0.180172
0.161651
0.142834
0.133967
0.130941
0.129184
0.161973
0.145116
0.130957
0.124893
0.122675
0.121396
0.138588
0.125075
0.116696
0.114020
0.112719
0.112037
0.110223
0.102053
0.100633
0.101887
0.101514
0.101496
0.085877
0.079348
0.084191
0.089612
0.089460
0.090353
0.082610
0.066346
0.071440
0.077313
0.077772
0.079115
0.154672
0.089200
0.057902
0.068918
0.066512
0.068807
0.124034
0.105755
0.066706
0.057929
0.058327
0.059141
3.995520
0.118340
0.080441
0.047617
0.054913
0.051066
4.529710
0.088671
0.065596
0.048358
0.046310
0.044869
0.069399
0.058373
0.048425
0.042132
0.040748
0.056532
0.054150
0.048405
0.039830
0.037973
0.049405
0.051678
0.048391
0.038576
0.036246
0.047665
0.050492
0.048285
0.038004
0.035255
0.049893
0.050250
0.048185
0.037780
0.034770
0.054514
0.050681
0.048110
0.037777
0.034609
0.060323
0.051639
0.048103
0.037902
0.034666
0.066613
0.052916
0.048175
0.038123
0.034869
0.073094
0.054430
0.048322
0.038411
0.035172
0.079662
0.056060
0.048535
0.038753
0.035542
0.086363
0.057752
0.048794
0.039136
0.035955
0.093262
0.059456
0.049087
0.039543
0.036386
0.100445
0.061141
0.049409
0.039957
0.036807
0.107959
0.062875
0.049756
0.040322
0.037170
0.115661
0.064679
0.050119
0.040604
0.037431
0.123452
0.066323
0.050212
0.040568
0.037419
0.129762
0.067663
0.049837
0.040234
0.037074
0.132609
0.070165
0.048796
0.039384
0.036455
0.129854
0.067969
0.047189
0.037943
0.035480
0.129275
0.068319
0.044326
0.036464
0.034329
0.130595
0.068795
0.042287
0.035051
0.033381
0.133896
0.069801
0.041052
0.034309
0.032908
0.139060
0.071698
0.040742
0.034512
0.033228
0.146703
0.074408
0.041875
0.035875
0.034508
0.159976
0.076668
0.044582
0.038297
0.036571
0.180238
0.079119
0.048037
0.041456
0.039156
0.204670
0.079355
0.051768
0.044937
0.041980
0.232620
0.079130
0.055591
0.048430
0.044770
0.265682
0.080070
0.059853
0.051694
0.047276
0.309148
0.092207
0.063598
0.054536
0.049885
0.374216
0.100157
0.065179
0.061089
0.053260
0.213332
0.310248
0.086136
0.070197
0.058086
0.055060
0.332446
0.243353
0.096986
0.072307
0.059249
0.057370
0.253959
0.195642
0.100669
0.074405
0.061302
0.057571
0.193120
0.161027
0.096135
0.077310
0.062327
0.057666
0.153207
0.135381
0.089719
0.078175
0.062183
0.056616
0.131020
0.118006
0.082925
0.078085
0.060118
0.054203
0.113764
0.103112
0.075975
0.077860
0.056192
0.050332
0.098516
0.089063
0.068472
0.078608
0.050308
0.045193
0.083721
0.075230
0.061160
0.082562
0.042101
0.039459
0.073251
0.061211
0.057587
0.105111
0.032331
0.040210
0.180945
0.462252
0.101778
0.123823
0.098811
0.106139
0.201301
0.312161
0.114732
0.108791
0.105230
0.105384
0.209973
0.262472
0.132222
0.115345
0.113657
0.111599
0.213910
0.238460
0.143675
0.124087
0.121480
0.118893
0.216850
0.224153
0.152099
0.132303
0.128881
0.126081
0.218625
0.214812
0.158053
0.139029
0.135069
0.132178
0.218750
0.207826
0.161661
0.143824
0.139561
0.136670
0.216742
0.201436
0.162915
0.146458
0.142084
0.139273
0.212351
0.194434
0.161747
0.146803
0.142484
0.139823
0.205245
0.186018
0.158091
0.144796
0.140690
0.138241
0.195090
0.175569
0.151919
0.140444
0.136693
0.134521
0.182364
0.162980
0.143228
0.133826
0.130569
0.128733
0.166339
0.148027
0.132279
0.125143
0.122459
0.121038
0.148951
0.131662
0.119409
0.114705
0.112636
0.111680
0.133383
0.115727
0.105441
0.103099
0.101388
0.101044
0.122024
0.103342
0.091752
0.090590
0.089406
0.089552
0.129762
0.100212
0.076939
0.079045
0.076798
0.077971
0.116109
0.099228
0.064686
0.067491
0.064682
0.067054
0.074110
0.111442
0.058941
0.053271
0.055918
0.056364
2.422550
0.114165
0.058574
0.042095
0.050527
0.047504
5.398540
0.089627
0.046364
0.040140
0.041134
0.040513
0.071828
0.040450
0.040432
0.036080
0.036000
0.058628
0.036965
0.040385
0.033427
0.032837
0.049107
0.034998
0.040177
0.032182
0.030895
0.042957
0.033850
0.039889
0.031684
0.029847
0.040089
0.033442
0.039551
0.031605
0.029381
0.039930
0.033670
0.039281
0.031717
0.029292
0.041689
0.034463
0.039090
0.031960
0.029437
0.044579
0.035702
0.038999
0.032286
0.029733
0.048066
0.037232
0.039024
0.032671
0.030132
0.051905
0.038954
0.039170
0.033096
0.030598
0.056018
0.040757
0.039398
0.033550
0.031099
0.060423
0.042543
0.039686
0.034005
0.031609
0.065153
0.044285
0.039994
0.034443
0.032098
0.070126
0.045973
0.040337
0.034816
0.032526
0.075213
0.047547
0.040611
0.035087
0.032830
0.079576
0.049423
0.040728
0.035125
0.032942
0.083429
0.051420
0.040521
0.034841
0.032783
0.087150
0.053476
0.039808
0.034166
0.032300
0.089758
0.054791
0.038367
0.033175
0.031541
0.092302
0.056428
0.036941
0.031945
0.030736
0.096568
0.058313
0.035578
0.031067
0.030087
0.102137
0.060176
0.034834
0.030671
0.029927
0.109319
0.062192
0.034681
0.031089
0.030430
0.119058
0.063828
0.035441
0.032447
0.031685
0.132213
0.065472
0.037120
0.034705
0.033657
0.149072
0.066654
0.039841
0.037588
0.036186
0.169654
0.067363
0.042901
0.040874
0.039055
0.194169
0.067715
0.046338
0.044129
0.042088
0.223964
0.069704
0.049531
0.047404
0.045169
0.257491
0.067544
0.053853
0.051083
0.047961
0.290688
0.055414
0.064559
0.056481
0.052678
0.153752
0.268459
0.073935
0.066690
0.057077
0.055188
0.218066
0.222423
0.103825
0.069185
0.059821
0.057920
0.239918
0.201893
0.108021
0.076334
0.062559
0.059290
0.203864
0.176175
0.106366
0.079400
0.064724
0.059706
0.174056
0.152647
0.099430
0.080822
0.064458
0.058826
0.148706
0.132056
0.091221
0.080323
0.062205
0.056177
0.127533
0.113614
0.081979
0.079491
0.057809
0.051895
0.106898
0.095336
0.071972
0.079575
0.051447
0.046395
0.085865
0.075944
0.060927
0.082972
0.042785
0.040725
0.064833
0.052175
0.047799
0.103708
0.033270
0.041870
0.155091
0.461077
0.092190
0.122200
0.098222
0.106081
0.192926
0.311286
0.110636
0.106732
0.104316
0.104847
0.206074
0.261115
0.129741
0.113365
0.112377
0.110544
0.211731
0.237113
0.141721
0.122273
0.119976
0.117506
0.215669
0.222999
0.150500
0.130715
0.127369
0.124609
0.218206
0.213986
0.156819
0.137728
0.133724
0.130821
0.218998
0.207438
0.160842
0.142873
0.138497
0.135561
0.217791
0.201614
0.162573
0.145913
0.141376
0.138495
0.214195
0.195318
0.161972
0.146714
0.142180
0.139422
0.208251
0.187789
0.158981
0.145218
0.140819
0.138239
0.199960
0.178655
0.153606
0.141431
0.137279
0.134921
0.188967
0.167613
0.145980
0.135451
0.131612
0.129522
0.177064
0.155281
0.136245
0.127449
0.123968
0.122170
0.163999
0.142066
0.124912
0.117743
0.114525
0.113091
0.151606
0.129306
0.112413
0.106586
0.103668
0.102568
0.142807
0.118448
0.098648
0.094794
0.091553
0.091075
0.123695
0.107244
0.084847
0.082099
0.078879
0.079140
0.108397
0.099813
0.068271
0.069622
0.066065
0.067513
0.075016
0.114658
0.056353
0.055158
0.055331
0.056119
3.506780
0.120491
0.055699
0.040443
0.049045
0.046179
7.595470
0.093949
0.039829
0.035677
0.038210
0.038089
0.076095
0.032645
0.034525
0.032189
0.032640
0.062229
0.028741
0.034112
0.028824
0.028883
0.051361
0.026340
0.033668
0.027237
0.026564
0.043205
0.024766
0.033192
0.026661
0.025349
0.037785
0.023825
0.032765
0.026544
0.024872
0.035032
0.023705
0.032318
0.026714
0.024814
0.034373
0.024290
0.031949
0.027029
0.025015
0.035104
0.025392
0.031742
0.027404
0.025381
0.036685
0.026915
0.031670
0.027835
0.025839
0.038761
0.028722
0.031704
0.028310
0.026343
0.041233
0.030630
0.031866
0.028757
0.026868
0.044194
0.032435
0.032049
0.029182
0.027370
0.047715
0.034014
0.032264
0.029525
0.027823
0.051789
0.035404
0.032499
0.029743
0.028194
0.056033
0.036876
0.032665
0.029783
0.028435
0.060349
0.038509
0.032623
0.029678
0.028483
0.064507
0.040482
0.032309
0.029349
0.028307
0.068187
0.042750
0.031761
0.028731
0.027921
0.071922
0.045088
0.030818
0.027987
0.027379
0.076087
0.047272
0.029924
0.027258
0.026848
0.080974
0.049553
0.029318
0.026738
0.026557
0.087157
0.051881
0.028956
0.026757
0.026667
0.094877
0.054009
0.029121
0.027403
0.027344
0.104592
0.056104
0.029790
0.028804
0.028638
0.116881
0.057669
0.031311
0.030874
0.030521
0.132241
0.058636
0.033504
0.033430
0.032901
0.150705
0.058784
0.036106
0.036298
0.035652
0.172393
0.058468
0.038896
0.039420
0.038679
0.196487
0.056585
0.042321
0.042650
0.041862
0.222408
0.052174
0.046856
0.046196
0.045296
0.257219
0.048017
0.055995
0.053013
0.050452
0.101983
0.231358
0.059624
0.061698
0.054290
0.053767
0.129434
0.176505
0.090988
0.067799
0.058791
0.057267
0.150725
0.169657
0.101963
0.074867
0.063013
0.059497
0.179742
0.166287
0.104090
0.079881
0.065363
0.060620
0.168930
0.152935
0.101608
0.081517
0.065675
0.059946
0.153294
0.136879
0.094769
0.081515
0.063360
0.057326
0.133735
0.119040
0.085680
0.080584
0.058884
0.052880
0.112348
0.099555
0.074581
0.080401
0.052313
0.047252
0.087345
0.076597
0.061126
0.083455
0.043455
0.041757
0.057689
0.044536
0.039531
0.102872
0.034237
0.043278
0.132907
0.459660
0.084068
0.120860
0.097652
0.105921
0.186666
0.310305
0.107332
0.104999
0.103462
0.104265
0.203267
0.259848
0.127802
0.111707
0.111214
0.109527
0.210315
0.235931
0.140233
0.120796
0.118644
0.116227
0.215195
0.222075
0.149352
0.129487
0.126079
0.123299
0.218548
0.213480
0.156061
0.136833
0.132649
0.129674
0.220225
0.207521
0.160562
0.142396
0.137771
0.134725
0.219924
0.202442
0.162883
0.145937
0.141096
0.138073
0.217637
0.197106
0.162974
0.147318
0.142422
0.139487
0.212985
0.190741
0.160820
0.146474
0.141638
0.138840
0.206199
0.182925
0.156412
0.143409
0.138710
0.136085
0.197984
0.173757
0.149815
0.138185
0.133681
0.131246
0.187223
0.162987
0.141295
0.130957
0.126631
0.124425
0.176437
0.151518
0.130914
0.121893
0.117764
0.115778
0.164713
0.139591
0.118989
0.111366
0.107212
0.105580
0.149684
0.127130
0.105785
0.099392
0.095376
0.094148
0.137599
0.116410
0.090427
0.086653
0.082481
0.082014
0.116805
0.108292
0.073266
0.073324
0.069125
0.069893
0.071798
0.123350
0.059881
0.057877
0.057160
0.057782
6.888370
0.126962
0.055029
0.042778
0.049160
0.047000
7.502100
0.098954
0.038269
0.034663
0.037570
0.037590
0.080272
0.029160
0.031595
0.030406
0.031110
0.066015
0.024436
0.029963
0.026198
0.026469
0.054056
0.021613
0.029296
0.023930
0.023638
0.044319
0.019604
0.028981
0.022768
0.022155
0.037461
0.018331
0.028294
0.022482
0.021452
0.033279
0.017905
0.027513
0.022645
0.021271
0.031054
0.018197
0.026958
0.022930
0.021429
0.030269
0.019094
0.026623
0.023287
0.021773
0.030419
0.020512
0.026484
0.023689
0.022219
0.031059
0.022467
0.026414
0.024161
0.022697
0.031951
0.024727
0.026273
0.024716
0.023155
0.033440
0.026361
0.026455
0.025079
0.023627
0.036151
0.027529
0.026812
0.025243
0.024056
0.039854
0.028676
0.027030
0.025320
0.024364
0.044335
0.029720
0.027187
0.025238
0.024542
0.049187
0.030846
0.027328
0.024900
0.024586
0.053768
0.032955
0.026980
0.024562
0.024440
0.057904
0.035909
0.026073
0.024291
0.024115
0.062000
0.038483
0.025363
0.023825
0.023768
0.066761
0.040796
0.024890
0.023383
0.023515
0.072335
0.043126
0.024574
0.023236
0.023479
0.078871
0.045474
0.024563
0.023493
0.023806
0.086690
0.047867
0.024849
0.024298
0.024577
0.096119
0.050086
0.025643
0.025660
0.025839
0.107611
0.052114
0.026832
0.027622
0.027582
0.122018
0.052718
0.028563
0.030061
0.029766
0.139767
0.051061
0.031027
0.032535
0.032332
0.159348
0.049018
0.033811
0.035186
0.035259
0.180069
0.047416
0.036749
0.038458
0.038617
0.204675
0.044798
0.041066
0.042604
0.042283
0.239580
0.042335
0.052194
0.049618
0.048096
0.074587
0.220698
0.057127
0.058046
0.052028
0.051905
0.137785
0.172199
0.083459
0.065654
0.057350
0.056064
0.147155
0.156899
0.093732
0.073298
0.062135
0.058808
0.148873
0.150688
0.099056
0.078585
0.065155
0.060374
0.156563
0.145668
0.098983
0.081394
0.065680
0.060042
0.147896
0.134605
0.094908
0.081829
0.063759
0.057569
0.134013
0.119928
0.087022
0.081289
0.059379
0.053220
0.113892
0.101211
0.076206
0.081116
0.052881
0.047674
0.088597
0.077474
0.061861
0.084016
0.044014
0.042421
0.055506
0.042017
0.036325
0.102688
0.034962
0.044231
0.116567
0.457789
0.077556
0.119703
0.097014
0.105580
0.182480
0.309144
0.104811
0.103503
0.102587
0.103556
0.201416
0.258649
0.126365
0.110291
0.110083
0.108464
0.209505
0.234883
0.139160
0.119567
0.117396
0.114966
0.215202
0.221319
0.148587
0.128519
0.124907
0.122046
0.219391
0.213195
0.155676
0.136216
0.131725
0.128618
0.221964
0.207889
0.160676
0.142232
0.137235
0.134018
0.222791
0.203670
0.163617
0.146326
0.141063
0.137835
0.221551
0.199341
0.164477
0.148354
0.142983
0.139813
0.218538
0.194212
0.163178
0.148237
0.142868
0.139797
0.213326
0.187811
0.159742
0.145948
0.140654
0.137712
0.205768
0.179788
0.154191
0.141525
0.136339
0.133551
0.197740
0.170679
0.146515
0.135037
0.129995
0.127362
0.186574
0.159959
0.137036
0.126647
0.121685
0.119275
0.174551
0.148336
0.125601
0.116440
0.111624
0.109457
0.161902
0.136597
0.112284
0.104739
0.099942
0.098211
0.143925
0.124465
0.097092
0.091719
0.086995
0.085975
0.123049
0.115730
0.080091
0.077648
0.073369
0.073388
0.092700
0.132931
0.064159
0.062592
0.060065
0.060753
9.824920
0.134236
0.057540
0.046485
0.050929
0.049104
7.871350
0.104071
0.039017
0.035896
0.038499
0.038570
0.084801
0.028315
0.030677
0.030295
0.031048
0.070591
0.022644
0.027326
0.025202
0.025471
0.004761
0.055113
0.019146
0.026440
0.022060
0.022069
0.009505
0.042434
0.016773
0.026804
0.020027
0.020365
0.009556
0.035714
0.015874
0.025318
0.019753
0.019255
0.009151
0.030754
0.015211
0.024200
0.019865
0.018904
0.008219
0.027101
0.015036
0.023442
0.020119
0.018970
0.007103
0.024528
0.015473
0.022979
0.020447
0.019254
0.005738
0.023033
0.016521
0.022788
0.020805
0.019650
0.021989
0.018402
0.022678
0.021227
0.020076
0.023518
0.020799
0.022358
0.021843
0.020457
0.025158
0.022562
0.022507
0.022150
0.020856
0.027259
0.023217
0.023162
0.022077
0.021256
0.031000
0.024160
0.023392
0.022127
0.021507
0.035805
0.025014
0.023576
0.022026
0.021652
0.041815
0.025095
0.024256
0.021563
0.021771
0.004644
0.043941
0.027592
0.023606
0.021408
0.021628
0.008818
0.044836
0.031598
0.022128
0.021512
0.021342
0.010341
0.049084
0.033711
0.021803
0.021147
0.021176
0.011931
0.053722
0.035817
0.021547
0.020931
0.021108
0.013434
0.059214
0.037997
0.021465
0.020951
0.021247
0.014884
0.065468
0.040310
0.021576
0.021329
0.021673
0.016352
0.072749
0.042655
0.022023
0.022092
0.022458
0.017700
0.081206
0.045040
0.022794
0.023290
0.023634
0.018714
0.091452
0.047247
0.023935
0.024940
0.025237
0.103746
0.048804
0.025497
0.027110
0.027349
0.127453
0.044243
0.027561
0.029449
0.029538
0.153149
0.040061
0.030597
0.031919
0.032423
0.170817
0.041325
0.033017
0.035344
0.035883
0.194477
0.040181
0.037992
0.039770
0.039758
0.228763
0.042322
0.048779
0.047786
0.045709
0.094441
0.211448
0.053302
0.056239
0.050232
0.049920
0.117568
0.161855
0.079444
0.064167
0.055653
0.054462
0.136452
0.151239
0.089494
0.071735
0.060773
0.057506
0.146499
0.144918
0.094571
0.077352
0.064100
0.059307
0.144309
0.138074
0.095979
0.080577
0.065056
0.059219
0.141602
0.130208
0.093235
0.081771
0.063432
0.057023
0.130090
0.117795
0.086912
0.081653
0.059419
0.052929
0.113289
0.101123
0.076990
0.081754
0.053143
0.047649
0.089751
0.078848
0.063370
0.084649
0.044423
0.042647
0.060536
0.047128
0.040856
0.103221
0.035296
0.044618
0.108992
0.455286
0.072770
0.118611
0.096201
0.104961
0.180320
0.307758
0.103046
0.102135
0.101591
0.102625
0.200382
0.257513
0.125385
0.109024
0.108890
0.107256
0.209120
0.233961
0.138463
0.118491
0.116132
0.113618
0.215476
0.220703
0.148146
0.127700
0.123741
0.120735
0.220415
0.213051
0.155582
0.135747
0.130817
0.127518
0.223921
0.208422
0.161055
0.142221
0.136728
0.133281
0.225766
0.205066
0.164626
0.146885
0.141084
0.137595
0.225915
0.201827
0.166231
0.149586
0.143641
0.140178
0.223847
0.197833
0.165834
0.150226
0.144241
0.140852
0.220184
0.192698
0.163318
0.148746
0.142798
0.139507
0.214717
0.186227
0.158698
0.145128
0.139270
0.136096
0.205822
0.177757
0.152037
0.139407
0.133647
0.130629
0.197212
0.168300
0.143104
0.131623
0.126008
0.123154
0.185045
0.157314
0.132308
0.121901
0.116398
0.113813
0.170411
0.145120
0.119280
0.110377
0.105007
0.102812
0.154676
0.133734
0.104274
0.097313
0.092103
0.090530
0.134914
0.125472
0.087767
0.083034
0.078159
0.077609
0.106998
0.143827
0.070826
0.067871
0.063928
0.064446
12.540900
0.142057
0.061189
0.051312
0.053538
0.052030
5.835420
0.109533
0.041686
0.038322
0.040487
0.040425
0.089516
0.029116
0.031123
0.031227
0.031938
0.075440
0.022345
0.026007
0.025275
0.025499
0.009033
0.056917
0.018378
0.024317
0.021386
0.021437
0.017632
0.041395
0.016314
0.025085
0.018658
0.019485
0.017739
0.034738
0.015133
0.023312
0.018114
0.018102
0.016044
0.029410
0.014295
0.022079
0.018124
0.017626
0.013998
0.024577
0.013682
0.021304
0.018330
0.017625
0.011952
0.020281
0.013565
0.020885
0.018605
0.017860
0.010160
0.016581
0.014171
0.020701
0.018918
0.018196
0.013659
0.015584
0.020658
0.019230
0.018561
0.016398
0.017708
0.020284
0.019761
0.018853
0.018283
0.019623
0.020205
0.020097
0.019144
0.019976
0.020227
0.020775
0.020047
0.019461
0.023738
0.021087
0.021098
0.020089
0.019687
0.029017
0.021914
0.021394
0.020040
0.019824
0.035802
0.021879
0.022241
0.019736
0.019985
0.007102
0.037065
0.024071
0.021748
0.019618
0.019892
0.014945
0.035578
0.028229
0.020437
0.019789
0.019721
0.018068
0.038515
0.030072
0.020219
0.019573
0.019643
0.020941
0.042672
0.031830
0.020117
0.019472
0.019673
0.023900
0.047459
0.033869
0.020052
0.019607
0.019864
0.026873
0.053135
0.036019
0.020216
0.019984
0.020293
0.029943
0.059644
0.038347
0.020592
0.020662
0.021004
0.032768
0.067380
0.040720
0.021254
0.021643
0.022044
0.034942
0.076587
0.043138
0.022281
0.022977
0.023491
0.089232
0.045430
0.023763
0.024844
0.025569
0.118913
0.039424
0.024764
0.027230
0.027331
0.148931
0.034347
0.028217
0.029913
0.030230
0.164922
0.037449
0.030996
0.033152
0.033788
0.187626
0.038521
0.036099
0.038010
0.037795
0.221891
0.042320
0.046906
0.046556
0.043816
0.096104
0.206239
0.053400
0.054624
0.049064
0.048153
0.121013
0.158671
0.076462
0.063260
0.054043
0.052823
0.129316
0.144864
0.086166
0.070473
0.059231
0.055797
0.135614
0.138839
0.091424
0.076093
0.062666
0.057646
0.139398
0.133446
0.093107
0.079673
0.063873
0.057715
0.134242
0.125379
0.091329
0.081332
0.062651
0.055804
0.125989
0.114842
0.085994
0.081800
0.059037
0.052097
0.111126
0.100048
0.077431
0.082283
0.053151
0.047198
0.091986
0.081271
0.065749
0.085349
0.044666
0.042421
0.071264
0.058113
0.051481
0.104499
0.035236
0.044410
0.112355
0.452026
0.069764
0.117448
0.095088
0.103951
0.180137
0.306118
0.101985
0.100773
0.100364
0.101361
0.200021
0.256455
0.124817
0.107805
0.107531
0.105799
0.208977
0.233169
0.138103
0.117467
0.114750
0.112076
0.215770
0.220204
0.147981
0.126921
0.122466
0.119247
0.221365
0.213001
0.155702
0.135297
0.129790
0.126234
0.225703
0.209014
0.161610
0.142212
0.136090
0.132353
0.228645
0.206525
0.165764
0.147439
0.140974
0.137163
0.229894
0.204311
0.168129
0.150819
0.144177
0.140368
0.229595
0.201616
0.168572
0.152229
0.145527
0.141761
0.226727
0.197682
0.167052
0.151580
0.144891
0.141204
0.222016
0.192233
0.163387
0.148807
0.142188
0.138606
0.216588
0.185609
0.157508
0.143869
0.137379
0.133917
0.205910
0.176496
0.149629
0.136773
0.130423
0.127148
0.195529
0.166236
0.139169
0.127579
0.121390
0.118347
0.182000
0.155131
0.126810
0.116362
0.110360
0.107670
0.165350
0.143722
0.112244
0.103473
0.097527
0.095436
0.148257
0.136225
0.096567
0.088896
0.083457
0.082193
0.132128
0.156514
0.078273
0.073944
0.068218
0.068562
14.587500
0.150778
0.066377
0.056497
0.056759
0.055345
2.881650
0.115383
0.045367
0.041549
0.042994
0.042748
0.094502
0.031381
0.032392
0.032812
0.033330
0.080046
0.023061
0.025884
0.025908
0.026160
0.009642
0.061108
0.018596
0.023100
0.021392
0.021509
0.017114
0.044152
0.017047
0.023482
0.018306
0.019206
0.017711
0.036463
0.015648
0.021712
0.017413
0.017678
0.016253
0.030437
0.014482
0.020484
0.017320
0.017128
0.014206
0.025030
0.013676
0.019804
0.017474
0.017089
0.011987
0.019980
0.013317
0.019464
0.017717
0.017278
0.009811
0.015402
0.013517
0.019357
0.017953
0.017553
0.012057
0.014323
0.019338
0.018163
0.017840
0.013366
0.015762
0.019023
0.018555
0.018064
0.013011
0.017422
0.018878
0.018873
0.018280
0.013697
0.018062
0.019355
0.018884
0.018530
0.017668
0.019067
0.019713
0.018995
0.018725
0.023349
0.019878
0.020185
0.019008
0.018871
0.030379
0.020250
0.020975
0.018867
0.019020
0.005663
0.033106
0.022488
0.020626
0.018772
0.018978
0.012430
0.033054
0.026216
0.019628
0.018929
0.018882
0.016076
0.035917
0.027916
0.019530
0.018791
0.018848
0.018938
0.039946
0.029615
0.019415
0.018800
0.018895
0.021745
0.044915
0.031441
0.019451
0.018945
0.019088
0.024687
0.050509
0.033559
0.019584
0.019306
0.019463
0.027600
0.057062
0.035789
0.019938
0.019864
0.020072
0.030320
0.064672
0.038202
0.020532
0.020655
0.020966
0.032222
0.074054
0.040807
0.021491
0.021728
0.022272
0.087534
0.042952
0.022816
0.023384
0.024219
0.116291
0.037004
0.023351
0.025829
0.025797
0.144492
0.032764
0.026625
0.028650
0.028630
0.160420
0.036197
0.029920
0.031840
0.032280
0.182875
0.038418
0.035280
0.036869
0.036356
0.217103
0.044647
0.045603
0.045801
0.042294
0.120590
0.203127
0.053865
0.053958
0.048066
0.046617
0.117677
0.154794
0.075446
0.062528
0.052651
0.051165
0.125870
0.141629
0.083860
0.069402
0.057633
0.053891
0.130156
0.134041
0.088733
0.074832
0.061014
0.055574
0.130726
0.128025
0.090511
0.078591
0.062348
0.055693
0.128865
0.121192
0.089226
0.080692
0.061476
0.054060
0.120721
0.111385
0.084892
0.081700
0.058354
0.050809
0.109462
0.099021
0.077764
0.082716
0.052929
0.046376
0.095241
0.084856
0.069100
0.086090
0.044780
0.041771
0.085191
0.071888
0.064935
0.106484
0.034851
0.043646
0.126155
0.447935
0.068515
0.116075
0.093546
0.102425
0.181874
0.304216
0.101555
0.099290
0.098792
0.099653
0.200187
0.255489
0.124608
0.106532
0.105906
0.103988
0.208859
0.232514
0.138038
0.116397
0.113147
0.110234
0.215825
0.219808
0.148040
0.126074
0.120970
0.117466
0.221919
0.212987
0.155977
0.134744
0.128514
0.124634
0.227070
0.209597
0.162250
0.142065
0.135173
0.131077
0.231013
0.207927
0.166960
0.147831
0.140558
0.136359
0.233582
0.206776
0.170034
0.151883
0.144404
0.140175
0.234332
0.205215
0.171379
0.154079
0.146508
0.142302
0.233877
0.202832
0.170776
0.154289
0.146721
0.142564
0.230465
0.198860
0.168191
0.152405
0.144900
0.140831
0.223777
0.192703
0.163391
0.148336
0.140948
0.137003
0.218448
0.185785
0.156078
0.142024
0.134809
0.131012
0.206367
0.176294
0.146869
0.133428
0.126424
0.122859
0.193558
0.165470
0.134843
0.122735
0.115838
0.112604
0.179319
0.155558
0.121105
0.109999
0.103230
0.100471
0.164529
0.148806
0.106173
0.095383
0.088969
0.086982
0.154800
0.170631
0.087005
0.080346
0.072851
0.072859
15.897100
0.160428
0.072171
0.062104
0.060234
0.058852
1.953810
0.121844
0.050059
0.045150
0.045825
0.045250
0.099824
0.034369
0.034323
0.034689
0.034958
0.085007
0.024816
0.026580
0.026870
0.027147
0.010714
0.064947
0.019932
0.022587
0.021864
0.022010
0.017681
0.046795
0.018744
0.022415
0.018573
0.019450
0.018003
0.038320
0.016995
0.020641
0.017420
0.017879
0.016535
0.031777
0.015649
0.019564
0.017235
0.017343
0.014340
0.025969
0.014775
0.019038
0.017399
0.017307
0.011939
0.020838
0.014335
0.018868
0.017626
0.017474
0.009339
0.016452
0.014305
0.018805
0.017820
0.017682
0.012989
0.014494
0.018743
0.017918
0.017872
0.012617
0.014956
0.018322
0.018165
0.017986
0.009619
0.015986
0.018108
0.018380
0.018100
0.008768
0.016729
0.018516
0.018421
0.018265
0.012638
0.017746
0.019051
0.018563
0.018433
0.018918
0.018852
0.019584
0.018677
0.018563
0.026378
0.019364
0.020357
0.018621
0.018693
0.005084
0.030055
0.021203
0.020172
0.018523
0.018667
0.011525
0.030576
0.024729
0.019378
0.018610
0.018603
0.015012
0.033756
0.026597
0.019204
0.018563
0.018552
0.017857
0.038107
0.028271
0.019198
0.018567
0.018589
0.020716
0.042910
0.030273
0.019197
0.018736
0.018735
0.023572
0.048544
0.032348
0.019378
0.019028
0.019044
0.026443
0.054920
0.034672
0.019691
0.019494
0.019547
0.029073
0.062513
0.037149
0.020254
0.020121
0.020317
0.030702
0.071978
0.039806
0.021138
0.021027
0.021492
0.084945
0.041926
0.022520
0.022476
0.023324
0.112675
0.036609
0.022723
0.025008
0.024765
0.140714
0.033025
0.025949
0.027869
0.027554
0.156705
0.036552
0.029589
0.031057
0.031246
0.179171
0.040073
0.035047
0.036207
0.035345
0.213992
0.047370
0.045098
0.045289
0.041142
0.132416
0.201565
0.056274
0.053575
0.047341
0.045310
0.122748
0.153547
0.075127
0.062165
0.051376
0.049566
0.121646
0.138276
0.082517
0.068384
0.056055
0.051843
0.124344
0.130072
0.086460
0.073572
0.059190
0.053218
0.124862
0.123524
0.088116
0.077358
0.060573
0.053275
0.121722
0.116465
0.087109
0.079838
0.060015
0.051900
0.116427
0.108145
0.083633
0.081423
0.057423
0.049157
0.107639
0.098136
0.078306
0.083044
0.052546
0.045247
0.099997
0.089610
0.073248
0.086887
0.044800
0.040753
0.100254
0.086683
0.079469
0.109099
0.034255
0.042389
0.147735
0.443005
0.068903
0.114353
0.091445
0.100262
0.185456
0.302058
0.101659
0.097564
0.096763
0.097389
0.200720
0.254628
0.124698
0.105106
0.103919
0.101726
0.208527
0.231991
0.138211
0.115187
0.111234
0.107998
0.215335
0.219481
0.148265
0.125058
0.119154
0.115289
0.221749
0.212956
0.156332
0.133972
0.126875
0.122598
0.227609
0.210076
0.162905
0.141649
0.133836
0.129311
0.232670
0.209204
0.168108
0.147918
0.139679
0.135017
0.236544
0.209106
0.171909
0.152626
0.144138
0.139415
0.239018
0.208883
0.174123
0.155621
0.147003
0.142266
0.239196
0.207661
0.174606
0.156740
0.148079
0.143372
0.238732
0.205427
0.173019
0.155815
0.147208
0.142551
0.235845
0.201664
0.169351
0.152703
0.144215
0.139657
0.226333
0.194639
0.163473
0.147281
0.138962
0.134561
0.220311
0.187187
0.154591
0.139524
0.131372
0.127160
0.208222
0.178215
0.144016
0.129312
0.121381
0.117437
0.194383
0.168557
0.130807
0.117023
0.108999
0.105513
0.183660
0.163164
0.116703
0.102211
0.094698
0.091789
0.183262
0.186792
0.096529
0.087201
0.077574
0.077203
15.384100
0.171284
0.078777
0.067894
0.063863
0.062361
1.882930
0.129078
0.055160
0.049088
0.048741
0.047771
0.105864
0.038194
0.036676
0.036741
0.036648
0.090536
0.027252
0.027915
0.028090
0.028308
0.011347
0.069700
0.022338
0.022769
0.022734
0.022839
0.018576
0.050055
0.021409
0.021918
0.019408
0.020162
0.018789
0.041001
0.019312
0.020195
0.018074
0.018667
0.017153
0.033837
0.017761
0.019296
0.017858
0.018208
0.014748
0.027907
0.016798
0.019028
0.018023
0.018215
0.012111
0.022702
0.016475
0.018971
0.018284
0.018356
0.009836
0.018536
0.016204
0.018995
0.018405
0.018494
0.015630
0.015678
0.018764
0.018395
0.018557
0.013752
0.014914
0.018114
0.018423
0.018536
0.009372
0.015246
0.017627
0.018503
0.018510
0.006116
0.015699
0.018178
0.018438
0.018575
0.009721
0.017403
0.018810
0.018682
0.018661
0.016219
0.018617
0.019543
0.018830
0.018748
0.024319
0.019121
0.020247
0.018844
0.018830
0.027871
0.020501
0.020028
0.018659
0.018786
0.011196
0.028789
0.023593
0.019236
0.018696
0.018690
0.014115
0.032955
0.025322
0.019152
0.018596
0.018613
0.017098
0.037102
0.027453
0.019037
0.018643
0.018598
0.019897
0.042017
0.029461
0.019145
0.018757
0.018701
0.022770
0.047404
0.031739
0.019306
0.019021
0.018938
0.025575
0.053753
0.034078
0.019648
0.019395
0.019359
0.028111
0.061193
0.036670
0.020170
0.019931
0.020024
0.029862
0.070448
0.039337
0.021092
0.020695
0.021086
0.082982
0.041614
0.022447
0.022028
0.022801
0.110178
0.036937
0.022612
0.024564
0.024152
0.137569
0.034061
0.025836
0.027436
0.026872
0.153721
0.038051
0.029693
0.030617
0.030570
0.176370
0.042377
0.035248
0.035816
0.034623
0.211927
0.050867
0.045027
0.044898
0.040240
0.152791
0.201575
0.059012
0.053696
0.046672
0.044156
0.125429
0.152436
0.075913
0.061804
0.050251
0.047980
0.120601
0.136270
0.081479
0.067482
0.054436
0.049696
0.118950
0.126377
0.084755
0.072225
0.057250
0.050624
0.118282
0.119064
0.085772
0.076020
0.058580
0.050536
0.116049
0.112164
0.085002
0.078815
0.058343
0.049406
0.111273
0.104695
0.082444
0.080994
0.056314
0.047226
0.106868
0.097746
0.079000
0.083303
0.052051
0.043883
0.105576
0.095193
0.078041
0.087720
0.044783
0.039435
0.115287
0.101335
0.093967
0.112198
0.033546
0.040711
0.174253
0.437288
0.070726
0.112156
0.088666
0.097347
0.190754
0.299660
0.102181
0.095490
0.094181
0.094473
0.201442
0.253862
0.125014
0.103442
0.101492
0.098933
0.207710
0.231572
0.138555
0.113752
0.108936
0.105295
0.213967
0.219174
0.148582
0.123780
0.116935
0.112635
0.220464
0.212827
0.156696
0.132876
0.124771
0.120029
0.226937
0.210358
0.163484
0.140845
0.131961
0.126936
0.233052
0.210208
0.169141
0.147567
0.138192
0.132991
0.238522
0.211208
0.173625
0.152911
0.143220
0.137913
0.242855
0.212403
0.176802
0.156710
0.146824
0.141460
0.245811
0.213064
0.178373
0.158781
0.148795
0.143407
0.245166
0.212003
0.178151
0.158918
0.148905
0.143548
0.243904
0.209554
0.175622
0.156889
0.146970
0.141665
0.243565
0.206603
0.170760
0.152518
0.142765
0.137565
0.232183
0.199454
0.163941
0.145630
0.136079
0.131069
0.223972
0.191438
0.153556
0.136316
0.126787
0.122010
0.214078
0.184449
0.141687
0.124275
0.114851
0.110379
0.205738
0.179803
0.128231
0.109510
0.100414
0.096509
0.212947
0.205003
0.107043
0.094311
0.082353
0.081429
15.944500
0.183443
0.085629
0.073940
0.067448
0.065773
2.392410
0.137455
0.060954
0.053229
0.051693
0.050191
0.112843
0.042501
0.039462
0.038896
0.038337
0.097071
0.030770
0.029867
0.029599
0.029634
0.011821
0.075176
0.025742
0.023745
0.024091
0.024043
0.019738
0.054405
0.025278
0.022160
0.020926
0.021427
0.020003
0.044580
0.022786
0.020531
0.019502
0.020119
0.018118
0.037201
0.020978
0.019834
0.019251
0.019782
0.015641
0.030705
0.019931
0.019735
0.019443
0.019815
0.012915
0.025905
0.019360
0.019907
0.019635
0.019933
0.010122
0.021824
0.019246
0.019755
0.019755
0.019960
0.018197
0.018042
0.019425
0.019581
0.019880
0.015644
0.015373
0.018550
0.019341
0.019708
0.011289
0.014089
0.017604
0.019165
0.019528
0.008202
0.015191
0.017888
0.019042
0.019428
0.009941
0.017471
0.019219
0.019130
0.019414
0.016386
0.019797
0.019857
0.019336
0.019383
0.024619
0.019859
0.020144
0.019400
0.019318
0.029739
0.019473
0.020158
0.019162
0.019224
0.009383
0.030702
0.021944
0.019433
0.018953
0.019082
0.013370
0.033308
0.024653
0.019059
0.018926
0.018954
0.016296
0.037402
0.026775
0.019106
0.018889
0.018890
0.019297
0.041801
0.029191
0.019177
0.019015
0.018935
0.022125
0.047151
0.031458
0.019445
0.019222
0.019125
0.024966
0.053185
0.033996
0.019783
0.019561
0.019479
0.027498
0.060520
0.036591
0.020350
0.020016
0.020064
0.029301
0.069464
0.039391
0.021252
0.020704
0.021025
0.081710
0.041767
0.022636
0.021928
0.022623
0.108098
0.037843
0.022832
0.024407
0.023877
0.135146
0.035776
0.026014
0.027229
0.026498
0.151418
0.039973
0.030050
0.030387
0.030122
0.174336
0.045308
0.035660
0.035563
0.034094
0.210867
0.054358
0.045294
0.044526
0.039494
0.167198
0.202578
0.062485
0.053906
0.046050
0.043082
0.131578
0.152530
0.077004
0.061591
0.049120
0.046369
0.118567
0.134518
0.081220
0.066481
0.052783
0.047413
0.115027
0.123174
0.082965
0.070865
0.055151
0.047800
0.112191
0.114785
0.083696
0.074551
0.056422
0.047512
0.109504
0.107705
0.082936
0.077676
0.056495
0.046642
0.107289
0.101549
0.081235
0.080464
0.055092
0.045087
0.106138
0.097623
0.079959
0.083501
0.051502
0.042359
0.111720
0.101198
0.083170
0.088599
0.044762
0.037888
0.130074
0.115708
0.108147
0.115626
0.032803
0.038666
0.203498
0.430901
0.073714
0.109383
0.085110
0.093586
0.197546
0.297035
0.102994
0.092989
0.090973
0.090836
0.202146
0.253151
0.125471
0.101475
0.098578
0.095562
0.206121
0.231191
0.138980
0.112027
0.106208
0.102083
0.211366
0.218798
0.148903
0.122162
0.114259
0.109457
0.217673
0.212499
0.156972
0.131364
0.122130
0.116861
0.224622
0.210329
0.163906
0.139546
0.129451
0.123859
0.231802
0.210847
0.169962
0.146659
0.135978
0.130160
0.238781
0.212900
0.175143
0.152602
0.141500
0.135517
0.245270
0.215584
0.179259
0.157215
0.145804
0.139696
0.250793
0.218133
0.182098
0.160275
0.148660
0.142467
0.255600
0.220092
0.183239
0.161540
0.149825
0.143580
0.254629
0.219477
0.182496
0.160751
0.149001
0.142790
0.250056
0.216102
0.179129
0.157602
0.145954
0.139806
0.253447
0.214246
0.172847
0.151884
0.140389
0.134337
0.244151
0.208881
0.165159
0.143287
0.131986
0.126114
0.234856
0.201708
0.153594
0.132059
0.120484
0.114936
0.232685
0.199244
0.140769
0.117057
0.106174
0.100950
0.247847
0.225943
0.118647
0.101780
0.086982
0.085459
13.558900
0.197331
0.093121
0.080181
0.070955
0.068976
4.485020
0.147246
0.067007
0.057676
0.054616
0.052478
0.121312
0.047825
0.042717
0.041257
0.040054
0.104854
0.035182
0.032661
0.031547
0.031271
0.012139
0.082074
0.030706
0.025738
0.026201
0.025836
0.021275
0.059800
0.030453
0.023455
0.023390
0.023473
0.021448
0.049698
0.027702
0.021892
0.021930
0.022423
0.019477
0.041807
0.025620
0.021347
0.021630
0.022184
0.016304
0.035793
0.024136
0.021372
0.021703
0.022216
0.030129
0.023555
0.021390
0.021898
0.022225
0.026794
0.022770
0.021450
0.021848
0.022139
0.024239
0.021517
0.020966
0.021556
0.021887
0.018747
0.018333
0.020037
0.021005
0.021572
0.012226
0.013764
0.018694
0.020531
0.021225
0.010277
0.013963
0.018407
0.020322
0.020935
0.015869
0.020595
0.019185
0.020302
0.020729
0.021907
0.021975
0.019984
0.020267
0.020532
0.027524
0.019809
0.020176
0.020133
0.020276
0.033762
0.018629
0.020073
0.019949
0.020008
0.004061
0.037037
0.019402
0.019898
0.019597
0.019770
0.010874
0.036609
0.023335
0.019343
0.019412
0.019594
0.015319
0.038639
0.026638
0.019231
0.019442
0.019480
0.018443
0.042762
0.029032
0.019496
0.019497
0.019476
0.021626
0.047444
0.031703
0.019758
0.019716
0.019618
0.024455
0.053404
0.034190
0.020196
0.020010
0.019931
0.027120
0.060340
0.036979
0.020772
0.020431
0.020455
0.028913
0.069160
0.039818
0.021676
0.021047
0.021319
0.080927
0.042431
0.023041
0.022177
0.022777
0.106840
0.039308
0.023247
0.024522
0.023908
0.133332
0.037838
0.026412
0.027194
0.026365
0.149892
0.042412
0.030483
0.030281
0.029831
0.173072
0.048247
0.036152
0.035341
0.033639
0.210762
0.057920
0.045686
0.044057
0.038786
0.184470
0.204780
0.066010
0.054259
0.045280
0.041970
0.136718
0.152979
0.078624
0.061167
0.047951
0.044632
0.118988
0.133149
0.080712
0.065497
0.050958
0.044938
0.110024
0.120058
0.081771
0.069354
0.052899
0.044716
0.106347
0.110571
0.081492
0.073013
0.054080
0.044211
0.103913
0.103295
0.080830
0.076456
0.054531
0.043655
0.102518
0.098276
0.080174
0.079857
0.053808
0.042818
0.106149
0.097789
0.080976
0.083656
0.050942
0.040750
0.118082
0.107369
0.088403
0.089469
0.044765
0.036180
0.143535
0.129046
0.121506
0.119170
0.032063
0.036297
0.233810
0.423992
0.077555
0.105967
0.080713
0.088917
0.205475
0.294184
0.103965
0.090022
0.087107
0.086444
0.202601
0.252400
0.125972
0.099171
0.095165
0.091606
0.203475
0.230731
0.139376
0.109968
0.103043
0.098366
0.207175
0.218221
0.149107
0.120146
0.111108
0.105750
0.212956
0.211828
0.157045
0.129359
0.118915
0.113070
0.220232
0.209853
0.164052
0.137656
0.126242
0.120031
0.228515
0.211013
0.170488
0.145078
0.132938
0.126437
0.237275
0.214220
0.176382
0.151574
0.138847
0.132099
0.245868
0.218467
0.181561
0.156989
0.143775
0.136808
0.253875
0.222897
0.185664
0.161098
0.147486
0.140334
0.260966
0.226883
0.188400
0.163576
0.149704
0.142414
0.269775
0.230875
0.189244
0.164094
0.150126
0.142741
0.272274
0.232323
0.188153
0.162348
0.148333
0.140989
0.262673
0.228095
0.184281
0.157943
0.143984
0.136731
0.266865
0.226284
0.176295
0.150662
0.136676
0.129504
0.264714
0.224441
0.167315
0.139751
0.125969
0.118934
0.264589
0.222511
0.154979
0.125079
0.111623
0.105021
0.288114
0.250107
0.131342
0.109467
0.091502
0.089113
13.191100
0.213155
0.100604
0.086699
0.074261
0.071956
5.904800
0.159151
0.074063
0.062496
0.057634
0.054671
0.131660
0.054017
0.046770
0.044026
0.042003
0.114692
0.041392
0.036590
0.034336
0.033550
0.012411
0.090450
0.037181
0.029181
0.029479
0.028612
0.022959
0.067076
0.037477
0.026144
0.027184
0.026641
0.023169
0.056183
0.034285
0.024660
0.025690
0.025837
0.020437
0.048882
0.031741
0.024057
0.025168
0.025620
0.042976
0.030059
0.023806
0.025121
0.025514
0.040691
0.027524
0.023951
0.024976
0.025386
0.038062
0.025907
0.024002
0.024730
0.025089
0.034313
0.025732
0.023836
0.024143
0.024712
0.026823
0.025998
0.022822
0.023429
0.024246
0.014590
0.023164
0.021372
0.023000
0.023676
28.008400
0.007479
0.019252
0.021012
0.022707
0.023190
0.018372
0.019811
0.020464
0.022382
0.022784
0.030739
0.020199
0.020167
0.022036
0.022303
0.033002
0.017903
0.020312
0.021426
0.021822
0.036470
0.017671
0.020081
0.020966
0.021315
0.041477
0.018336
0.020115
0.020700
0.020881
0.043805
0.020582
0.020178
0.020359
0.020577
0.012204
0.042606
0.025586
0.019874
0.020245
0.020426
0.017277
0.044479
0.029383
0.019972
0.020380
0.020386
0.020749
0.048901
0.031986
0.020421
0.020542
0.020487
0.024169
0.054091
0.034886
0.020876
0.020852
0.020769
0.026779
0.061004
0.037650
0.021490
0.021252
0.021246
0.028721
0.069412
0.040711
0.022408
0.021817
0.022025
0.080954
0.043614
0.023674
0.022853
0.023306
0.106136
0.041307
0.023906
0.024955
0.024270
0.132382
0.040416
0.026942
0.027349
0.026461
0.149092
0.044991
0.030960
0.030250
0.029638
0.172791
0.051397
0.036556
0.035074
0.033176
0.211627
0.061105
0.046094
0.043377
0.038012
0.199741
0.207931
0.069474
0.054399
0.044317
0.040695
0.143365
0.153898
0.080071
0.060699
0.046518
0.042668
0.117769
0.132148
0.080952
0.064208
0.048934
0.042170
0.107106
0.116909
0.079959
0.067791
0.050397
0.041314
0.100193
0.105986
0.079366
0.071392
0.051587
0.040629
0.096996
0.098567
0.078811
0.075172
0.052480
0.040501
0.098828
0.095068
0.078966
0.079223
0.052508
0.040501
0.105950
0.097973
0.082077
0.083743
0.050417
0.039140
0.123875
0.113165
0.093467
0.090298
0.044795
0.034386
0.156565
0.141755
0.134018
0.122645
0.031349
0.033633
0.263786
0.416730
0.081920
0.101890
0.075458
0.083324
0.214030
0.291069
0.104961
0.086599
0.082602
0.081316
0.202557
0.251453
0.126399
0.096535
0.091290
0.087111
0.199533
0.230004
0.139606
0.107565
0.099475
0.094194
0.201104
0.217243
0.149049
0.117701
0.107503
0.101559
0.205909
0.210604
0.156756
0.126807
0.115128
0.108684
0.213244
0.208699
0.163759
0.135093
0.122307
0.115448
0.222612
0.210481
0.170540
0.142711
0.129011
0.121782
0.233534
0.215020
0.177217
0.149676
0.135153
0.127573
0.245293
0.221350
0.183621
0.155870
0.140578
0.132653
0.256761
0.228348
0.189369
0.161042
0.145065
0.136812
0.266711
0.234793
0.193827
0.164865
0.148317
0.139785
0.273957
0.239713
0.196548
0.166864
0.149975
0.141249
0.286813
0.245547
0.196927
0.166572
0.149643
0.140779
0.301172
0.252198
0.195406
0.163644
0.146705
0.137888
0.293340
0.250658
0.191670
0.157555
0.140609
0.131924
0.293859
0.247705
0.181855
0.148109
0.130753
0.122213
0.306477
0.250871
0.170465
0.133145
0.116997
0.108490
0.337728
0.279043
0.145949
0.117511
0.095657
0.092459
9.424740
0.231767
0.109162
0.093557
0.077536
0.074737
7.984300
0.173854
0.081721
0.068102
0.060955
0.057039
0.145127
0.062299
0.052074
0.047724
0.044634
0.126947
0.049438
0.042249
0.038587
0.037055
0.012943
0.101431
0.046271
0.034502
0.034542
0.032919
0.024960
0.076067
0.046482
0.030804
0.032774
0.031367
0.024267
0.065588
0.042790
0.029090
0.031064
0.030678
0.021946
0.057897
0.039801
0.028028
0.030278
0.030297
0.055633
0.035754
0.027705
0.029594
0.029954
0.057215
0.030710
0.027935
0.028835
0.029615
0.053166
0.028716
0.027743
0.028246
0.029070
0.046291
0.028056
0.027526
0.027473
0.028430
0.041606
0.032118
0.025615
0.027113
0.027708
53.356500
0.024490
0.033418
0.025254
0.026669
0.027009
62.966900
0.742939
0.035158
0.026009
0.025938
0.026412
0.026232
0.028509
0.024582
0.025548
0.025690
0.039204
0.016024
0.023500
0.024494
0.024978
0.038434
0.015993
0.021430
0.023580
0.024116
0.039719
0.017350
0.020807
0.022772
0.023314
0.043268
0.018591
0.020803
0.022180
0.022619
0.048414
0.019824
0.021140
0.021913
0.022112
0.004815
0.050545
0.022848
0.021287
0.021629
0.021814
0.013709
0.049033
0.028561
0.021076
0.021625
0.021734
0.019607
0.051057
0.032744
0.021321
0.021890
0.021825
0.023311
0.056204
0.035509
0.021897
0.022201
0.022073
0.026860
0.062291
0.038693
0.022606
0.022621
0.022535
0.028652
0.070667
0.042081
0.023426
0.023204
0.023217
0.081936
0.045450
0.024669
0.024133
0.024324
0.106568
0.044071
0.024878
0.025860
0.025046
0.132150
0.043432
0.027672
0.027796
0.026834
0.149547
0.047911
0.031408
0.030341
0.029552
0.173544
0.054235
0.036843
0.034672
0.032658
0.213934
0.064131
0.046298
0.042435
0.037049
0.215942
0.212411
0.073002
0.054413
0.042913
0.039137
0.150049
0.155542
0.081750
0.059687
0.044797
0.040336
0.119294
0.130407
0.079889
0.062855
0.046496
0.039006
0.100882
0.112974
0.078611
0.066017
0.047648
0.037526
0.093129
0.100967
0.077041
0.069698
0.048938
0.036778
0.091259
0.093422
0.076404
0.073919
0.050395
0.037259
0.093516
0.091315
0.077832
0.078527
0.051253
0.038244
0.105799
0.097962
0.082944
0.083739
0.049934
0.037622
0.129406
0.118525
0.098080
0.090980
0.044855
0.032593
0.167033
0.152711
0.145221
0.125795
0.030652
0.030717
0.292163
0.409256
0.086482
0.097195
0.069390
0.076848
0.222564
0.287609
0.105860
0.082788
0.077539
0.075535
0.201783
0.250084
0.126622
0.093615
0.087048
0.082183
0.194176
0.228763
0.139517
0.104839
0.095586
0.089676
0.193027
0.215615
0.148557
0.114825
0.103511
0.096981
0.196328
0.208564
0.155918
0.123681
0.110816
0.103781
0.203207
0.206547
0.162803
0.131795
0.117665
0.110164
0.213281
0.208810
0.169842
0.139448
0.124173
0.116210
0.226277
0.214694
0.177279
0.146741
0.130342
0.121902
0.241923
0.223522
0.185053
0.153607
0.136074
0.127134
0.259440
0.234381
0.192808
0.159830
0.141175
0.131733
0.277170
0.245885
0.199889
0.165019
0.145373
0.135456
0.291763
0.255743
0.205179
0.168717
0.148270
0.137979
0.296499
0.260789
0.207794
0.170223
0.149370
0.138863
0.305624
0.265168
0.206889
0.168836
0.148126
0.137461
0.338019
0.278139
0.203875
0.164177
0.143603
0.132996
0.347021
0.285072
0.200516
0.155365
0.134954
0.124516
0.360312
0.287664
0.189499
0.141963
0.121539
0.111432
0.400725
0.313664
0.161917
0.125717
0.099883
0.095389
8.163590
0.254155
0.117489
0.101058
0.080903
0.077708
10.113400
0.193251
0.091826
0.074987
0.065289
0.060129
0.162546
0.072890
0.059513
0.053175
0.048778
0.143548
0.061093
0.050354
0.045172
0.042622
0.013044
0.115370
0.057876
0.042372
0.042075
0.039378
0.026062
0.089060
0.058375
0.037701
0.040585
0.038085
0.026317
0.077136
0.053687
0.035400
0.038551
0.037273
0.020528
0.073203
0.047736
0.034200
0.036820
0.036567
0.074971
0.040135
0.034166
0.035000
0.035953
0.071110
0.035696
0.033444
0.033791
0.035145
0.063718
0.033332
0.031816
0.033047
0.034102
0.058387
0.030818
0.030422
0.032325
0.033123
0.057299
0.027903
0.029848
0.031598
0.032246
47.090400
0.041407
0.028999
0.030714
0.030950
0.031461
0.008753
0.032245
0.047636
0.030650
0.030471
0.030656
0.015048
0.031609
0.039783
0.031240
0.029128
0.029830
0.009549
0.036676
0.021424
0.027892
0.028327
0.028537
45.364500
0.041976
0.019275
0.024344
0.027066
0.027310
0.042932
0.018899
0.023361
0.025554
0.026178
0.045575
0.020037
0.022817
0.024641
0.025162
0.049796
0.021235
0.022663
0.024012
0.024364
0.055549
0.022343
0.023060
0.023708
0.023871
0.057902
0.025818
0.023196
0.023474
0.023652
0.015869
0.056422
0.031920
0.022932
0.023715
0.023685
0.023661
0.058405
0.036589
0.023360
0.024216
0.023984
0.027350
0.064643
0.040224
0.024002
0.024805
0.024421
0.029056
0.072919
0.044072
0.025025
0.025416
0.025069
0.084026
0.048392
0.026079
0.026299
0.025968
0.107794
0.048050
0.026284
0.027562
0.026418
0.133510
0.047204
0.028763
0.028726
0.027638
0.151335
0.050805
0.031990
0.030654
0.029680
0.176296
0.056994
0.036895
0.034229
0.032086
0.217653
0.066417
0.046259
0.041061
0.035882
0.235661
0.218586
0.075858
0.053778
0.041120
0.037142
0.156380
0.156161
0.082278
0.058561
0.042421
0.037547
0.114735
0.128247
0.079950
0.060902
0.043673
0.035324
0.096619
0.108202
0.076013
0.064137
0.044599
0.033310
0.085950
0.094310
0.074007
0.068100
0.046206
0.032718
0.081931
0.087010
0.074065
0.072644
0.048373
0.034081
0.089141
0.087268
0.076249
0.077823
0.050058
0.036190
0.104481
0.097299
0.083502
0.083559
0.049514
0.036299
0.133048
0.122694
0.101998
0.091401
0.044917
0.030908
0.177329
0.162807
0.155051
0.128429
0.029995
0.027618
0.317728
0.401658
0.090931
0.091995
0.062628
0.069600
0.230356
0.283670
0.106545
0.078720
0.072069
0.069252
0.200097
0.248025
0.126512
0.090496
0.082577
0.076986
0.187470
0.226743
0.138948
0.101842
0.091495
0.084962
0.183142
0.213096
0.147461
0.111548
0.099235
0.092155
0.184390
0.205470
0.154341
0.119988
0.106067
0.098489
0.190170
0.203105
0.160951
0.127738
0.112385
0.104287
0.200083
0.205511
0.168065
0.135209
0.118458
0.109797
0.214174
0.212352
0.176070
0.142600
0.124393
0.115116
0.232640
0.223334
0.185061
0.149923
0.130161
0.120219
0.255972
0.238166
0.194864
0.157006
0.135630
0.124989
0.284007
0.256221
0.204992
0.163518
0.140545
0.129237
0.315841
0.276264
0.214504
0.168872
0.144575
0.132662
0.345964
0.294664
0.221574
0.172471
0.147162
0.134835
0.355038
0.303403
0.224341
0.173293
0.147569
0.135111
0.351392
0.303060
0.221102
0.170148
0.145031
0.132442
0.391750
0.314807
0.213618
0.162788
0.138106
0.125679
0.441645
0.336109
0.209517
0.149551
0.126086
0.113783
0.488131
0.359890
0.182474
0.134714
0.103857
0.098613
5.969830
0.282692
0.128997
0.109720
0.085443
0.081443
13.468400
0.219820
0.104116
0.084624
0.071547
0.065127
0.187228
0.088507
0.070079
0.061652
0.055621
0.164337
0.076500
0.061631
0.055245
0.051064
0.015327
0.133881
0.074591
0.053241
0.052739
0.048560
0.030207
0.104363
0.073118
0.047348
0.051131
0.047232
0.023304
0.096761
0.064884
0.044738
0.047903
0.046049
0.008802
0.097218
0.054627
0.044059
0.044555
0.045006
0.092406
0.047695
0.042665
0.042269
0.043725
0.083271
0.043969
0.039815
0.040912
0.042102
0.076472
0.039477
0.037468
0.039530
0.040627
0.072207
0.034603
0.035273
0.038312
0.039290
0.068875
0.024515
0.035215
0.037105
0.038151
5.269590
0.061212
0.026443
0.037410
0.035982
0.037299
0.015642
0.047282
0.042830
0.037531
0.035461
0.036103
0.016615
0.032610
0.044104
0.035636
0.034623
0.034721
0.014487
0.033070
0.033146
0.032110
0.033433
0.033108
4.635160
0.046181
0.026330
0.029644
0.031515
0.031565
0.046497
0.023983
0.027966
0.029514
0.030038
0.048697
0.023192
0.026618
0.028184
0.028641
0.052136
0.023353
0.025792
0.027123
0.027516
0.056877
0.024429
0.025358
0.026429
0.026710
0.063401
0.025571
0.025773
0.026122
0.026335
0.006325
0.066055
0.029455
0.026281
0.025910
0.026347
0.012565
0.068709
0.035527
0.026300
0.026506
0.026571
0.013744
0.076498
0.039762
0.027279
0.027198
0.027097
0.014847
0.085145
0.044566
0.028046
0.028070
0.027687
0.096269
0.049370
0.028899
0.029009
0.028339
0.115043
0.051254
0.029168
0.029961
0.028618
0.136833
0.051330
0.030611
0.030540
0.029142
0.156740
0.053745
0.033094
0.031445
0.030246
0.181126
0.059288
0.036872
0.033782
0.031659
0.224397
0.068320
0.045576
0.039568
0.034455
0.258834
0.227548
0.079610
0.052875
0.038499
0.034750
0.162996
0.158512
0.083701
0.056187
0.039584
0.034207
0.116775
0.123318
0.076411
0.058931
0.040266
0.031091
0.086055
0.099167
0.072840
0.062410
0.041343
0.028714
0.072842
0.085661
0.071142
0.066623
0.043553
0.028662
0.074275
0.079922
0.071015
0.071615
0.046497
0.031215
0.081268
0.081751
0.074389
0.076994
0.049010
0.034515
0.102177
0.095642
0.083239
0.083044
0.049107
0.035273
0.135660
0.125565
0.104731
0.091403
0.044934
0.029457
0.183076
0.170111
0.163019
0.130257
0.029392
0.024490
0.339406
0.393922
0.094994
0.086475
0.055381
0.061766
0.236678
0.279093
0.106932
0.074578
0.066414
0.062691
0.197414
0.245035
0.125942
0.087290
0.078056
0.071727
0.179710
0.223726
0.137765
0.098647
0.087336
0.080231
0.171995
0.209530
0.145629
0.107926
0.094796
0.087241
0.170840
0.201225
0.151899
0.115780
0.101001
0.092964
0.174900
0.198273
0.158054
0.122958
0.106580
0.097966
0.183698
0.200381
0.164980
0.129993
0.111960
0.102677
0.197235
0.207410
0.173178
0.137178
0.117358
0.107319
0.216061
0.219397
0.182894
0.144596
0.122828
0.111960
0.241084
0.236479
0.194163
0.152165
0.128301
0.116567
0.274176
0.258993
0.206786
0.159597
0.133608
0.121020
0.316754
0.287004
0.220335
0.166446
0.138415
0.125113
0.371392
0.320493
0.233853
0.171847
0.142326
0.128453
0.433313
0.355655
0.244955
0.175027
0.144578
0.130409
0.473666
0.381328
0.249862
0.174814
0.144040
0.129984
0.485059
0.386722
0.245654
0.168859
0.139811
0.125580
0.545374
0.402380
0.234726
0.158496
0.129657
0.116045
0.607656
0.417157
0.204985
0.144470
0.109446
0.102546
5.656210
0.323164
0.142122
0.121327
0.092001
0.087575
11.215300
0.258420
0.123474
0.098251
0.081600
0.073498
0.219597
0.107973
0.085610
0.074465
0.066370
0.195700
0.100206
0.077240
0.069371
0.063153
0.008733
0.162412
0.094595
0.067899
0.066679
0.060977
0.017531
0.134809
0.089049
0.061247
0.063772
0.059268
0.008951
0.126782
0.076383
0.058981
0.058844
0.057675
0.120100
0.065997
0.056549
0.055025
0.055785
0.108193
0.060602
0.052369
0.052658
0.053414
0.098829
0.054813
0.048961
0.050351
0.051177
0.092055
0.048720
0.046239
0.048053
0.049152
0.087392
0.040767
0.044674
0.045841
0.047376
0.082100
0.035006
0.044164
0.043955
0.045994
0.013746
0.069419
0.037476
0.042907
0.042991
0.044373
0.019856
0.050972
0.041190
0.042875
0.042211
0.042680
0.014572
0.035126
0.042989
0.041114
0.041075
0.040896
0.017881
0.038058
0.039425
0.038547
0.038975
0.039040
0.012386
0.048709
0.034562
0.036299
0.036748
0.037023
0.054221
0.031096
0.034476
0.034660
0.035070
0.054583
0.028138
0.032749
0.032702
0.033246
0.055679
0.027293
0.030595
0.031310
0.031652
0.059151
0.027344
0.029285
0.030204
0.030509
0.064665
0.028434
0.028871
0.029537
0.029868
0.071744
0.030600
0.029717
0.029201
0.029836
0.079465
0.035187
0.031016
0.029481
0.030263
0.088626
0.040636
0.031829
0.030632
0.030807
0.099570
0.045523
0.033105
0.031645
0.031453
0.112684
0.050191
0.033630
0.032647
0.031816
0.128530
0.053432
0.034008
0.033316
0.031836
0.146260
0.054906
0.034771
0.033238
0.031668
0.165765
0.056778
0.035223
0.033325
0.031561
0.192156
0.061700
0.037267
0.033976
0.031641
0.233506
0.069046
0.044387
0.037809
0.033127
0.307510
0.243600
0.082090
0.049520
0.035922
0.031857
0.167899
0.153197
0.079632
0.054113
0.035543
0.030529
0.095944
0.112153
0.075211
0.056889
0.036391
0.026413
0.072139
0.090181
0.070666
0.061074
0.038112
0.024030
0.068128
0.077442
0.067780
0.065976
0.041246
0.025002
0.065198
0.071766
0.068108
0.070810
0.045052
0.029021
0.073918
0.075343
0.071406
0.076022
0.048092
0.033403
0.093804
0.090820
0.081515
0.082021
0.048643
0.034633
0.133599
0.125652
0.105898
0.090671
0.044873
0.028367
0.190937
0.177046
0.169082
0.131131
0.028931
0.021599
0.356244
0.385943
0.098449
0.080890
0.047963
0.053614
0.240920
0.273718
0.106959
0.070579
0.060850
0.056139
0.193731
0.240937
0.124814
0.084116
0.073666
0.066634
0.171380
0.219608
0.135877
0.095328
0.083243
0.075651
0.160455
0.204918
0.143007
0.104036
0.090314
0.082394
0.156845
0.195944
0.148577
0.111149
0.095751
0.087366
0.158869
0.192264
0.154124
0.117567
0.100401
0.091379
0.165806
0.193659
0.160580
0.123917
0.104843
0.095036
0.177422
0.200056
0.168512
0.130558
0.109394
0.098690
0.193938
0.211517
0.178238
0.137643
0.114189
0.102513
0.216038
0.228292
0.189925
0.145134
0.119240
0.106570
0.244934
0.250689
0.203561
0.152839
0.124443
0.110858
0.282891
0.279138
0.218916
0.160304
0.129605
0.115277
0.332801
0.313562
0.235425
0.166929
0.134273
0.119610
0.402688
0.355060
0.251886
0.171530
0.137994
0.123296
0.492316
0.401049
0.266381
0.173548
0.139688
0.125424
0.579757
0.446908
0.273559
0.171873
0.138422
0.124403
0.759324
0.521430
0.277728
0.164988
0.133295
0.118430
0.799300
0.534559
0.255572
0.159912
0.115985
0.108877
11.404800
0.371424
0.170733
0.138294
0.103977
0.097143
9.477370
0.308099
0.147139
0.119272
0.097304
0.086708
0.277894
0.141412
0.108638
0.091911
0.081903
0.238483
0.128534
0.097156
0.087774
0.079277
0.205213
0.116602
0.087584
0.083384
0.077055
0.178853
0.106191
0.080435
0.078681
0.074628
0.158801
0.094750
0.075659
0.073627
0.071993
0.142937
0.085067
0.071016
0.069420
0.068968
0.130388
0.076887
0.066369
0.065814
0.065814
0.120325
0.069779
0.062126
0.062468
0.062776
0.112114
0.061981
0.059124
0.059200
0.060030
0.935667
0.106985
0.052934
0.058270
0.055688
0.057869
0.012845
0.094245
0.049568
0.055404
0.053471
0.055457
0.024873
0.073691
0.052353
0.051387
0.052390
0.052959
0.034121
0.059155
0.052952
0.049112
0.051052
0.050707
0.030015
0.049102
0.049075
0.048243
0.048559
0.048530
0.029077
0.044113
0.046489
0.045799
0.046129
0.046098
0.026377
0.051045
0.044330
0.043122
0.043541
0.043567
0.033618
0.060377
0.039507
0.041527
0.040703
0.041174
0.015998
0.058678
0.037232
0.039030
0.038605
0.038871
0.062571
0.033636
0.037097
0.036570
0.036921
0.063046
0.032328
0.034929
0.034962
0.035371
0.067159
0.032407
0.033735
0.034003
0.034478
0.073676
0.034822
0.033661
0.033873
0.034278
0.082805
0.039240
0.034684
0.034641
0.034686
0.094089
0.044880
0.037095
0.035734
0.035517
0.108366
0.050175
0.038579
0.037240
0.036159
0.124975
0.053700
0.040001
0.038080
0.036462
0.143613
0.056918
0.040823
0.038046
0.036143
0.164916
0.060295
0.040719
0.037491
0.035222
0.185963
0.061346
0.040836
0.036082
0.033928
0.207629
0.064452
0.039008
0.035546
0.032362
0.254450
0.069226
0.042785
0.038127
0.031803
0.381210
0.268547
0.085581
0.046907
0.032700
0.029102
0.167614
0.158818
0.086070
0.050049
0.030882
0.026903
0.118920
0.116754
0.074990
0.055676
0.032213
0.021884
0.095101
0.087805
0.069129
0.061377
0.035634
0.019736
0.078109
0.072723
0.067001
0.066395
0.039870
0.022392
0.069963
0.067906
0.065555
0.070714
0.044050
0.027875
0.061457
0.066939
0.067180
0.074825
0.047310
0.032968
0.080272
0.082414
0.077162
0.080055
0.048118
0.034364
0.127379
0.122017
0.104416
0.089148
0.044582
0.027762
0.191714
0.180554
0.173280
0.130758
0.028684
0.019367
0.367569
0.377557
0.101139
0.075541
0.040818
0.045509
0.242611
0.267422
0.106585
0.066939
0.055683
0.049931
0.189181
0.235667
0.123063
0.081064
0.069566
0.061910
0.163057
0.214423
0.133263
0.091945
0.079305
0.071348
0.149510
0.199437
0.139630
0.099950
0.085879
0.077721
0.143748
0.189935
0.144485
0.106215
0.090438
0.081833
0.143799
0.185535
0.149337
0.111740
0.094022
0.084705
0.148549
0.185971
0.155118
0.117213
0.097326
0.087097
0.157535
0.191110
0.162360
0.123025
0.100760
0.089480
0.170194
0.200820
0.171395
0.129351
0.104526
0.092136
0.186550
0.215031
0.182330
0.136192
0.108707
0.095249
0.205622
0.233341
0.195152
0.143348
0.113289
0.098961
0.227866
0.255122
0.209349
0.150399
0.118164
0.103368
0.251522
0.278222
0.223890
0.156536
0.123126
0.108431
0.278558
0.299538
0.236839
0.160882
0.127591
0.113910
0.317859
0.320295
0.246475
0.161811
0.131387
0.118935
0.417548
0.350365
0.251540
0.162130
0.133054
0.122357
0.617214
0.442520
0.261429
0.164735
0.133527
0.122064
1.017960
0.643097
0.283390
0.172820
0.127710
0.117126
5.601580
0.438909
0.219641
0.170279
0.121612
0.111235
7.396860
0.411567
0.206462
0.153433
0.119251
0.104545
0.348244
0.184422
0.136234
0.114993
0.101561
0.296117
0.158637
0.122412
0.109535
0.099112
0.254132
0.143909
0.111384
0.103696
0.096235
0.222219
0.131221
0.103433
0.097722
0.092852
0.197697
0.120721
0.096734
0.092288
0.089001
0.178506
0.110447
0.090930
0.087091
0.084985
0.163795
0.100189
0.085870
0.081971
0.081000
0.153910
0.089055
0.081688
0.077027
0.077183
5.793410
0.145301
0.080133
0.077656
0.072788
0.073574
0.923292
0.137468
0.073258
0.073917
0.068598
0.070283
0.035167
0.114919
0.072469
0.067578
0.066410
0.066651
0.058697
0.086788
0.072188
0.062875
0.064099
0.063477
0.058713
0.075472
0.065469
0.060477
0.060867
0.060543
0.049517
0.062925
0.060657
0.057476
0.057838
0.057519
0.040616
0.055271
0.056598
0.054568
0.054584
0.054447
0.038881
0.054790
0.053846
0.051461
0.051459
0.051335
0.051187
0.059645
0.051453
0.048001
0.048650
0.048280
0.047230
0.061658
0.046811
0.045613
0.045633
0.045533
0.068518
0.042468
0.043906
0.042770
0.043275
0.072822
0.039511
0.042263
0.040626
0.041545
0.073386
0.037132
0.040875
0.039447
0.040392
0.076803
0.039153
0.040756
0.039255
0.040111
0.087162
0.045475
0.042274
0.040340
0.040558
0.105037
0.052759
0.044995
0.042316
0.041280
0.123856
0.056726
0.048671
0.043525
0.042065
0.143625
0.060359
0.050299
0.044313
0.042080
0.167251
0.063463
0.050458
0.044003
0.041255
0.194070
0.065762
0.049610
0.042421
0.039519
0.224580
0.073221
0.047548
0.040513
0.037001
0.251277
0.074165
0.047217
0.038193
0.033629
0.273546
0.076513
0.044773
0.039910
0.031355
0.606676
0.343980
0.088037
0.036959
0.032583
0.026708
0.290064
0.202641
0.079635
0.048688
0.026262
0.024541
0.188889
0.131188
0.077734
0.056578
0.030104
0.017582
0.129190
0.094071
0.074647
0.063878
0.034816
0.016646
0.119704
0.086556
0.071386
0.068554
0.039291
0.021493
0.110840
0.081726
0.066124
0.071104
0.043515
0.027881
0.077043
0.070706
0.062814
0.073464
0.046539
0.033112
0.047838
0.067415
0.069592
0.077809
0.047225
0.034452
0.109724
0.112310
0.100283
0.086273
0.044413
0.027567
0.209284
0.189819
0.176313
0.129179
0.028743
0.018319
0.372923
0.368592
0.102972
0.070752
0.034545
0.037923
0.241569
0.260144
0.105777
0.063826
0.051201
0.044414
0.183900
0.229272
0.120686
0.078175
0.065848
0.057694
0.155296
0.208361
0.129960
0.088509
0.075553
0.067368
0.139998
0.193364
0.135615
0.095720
0.081528
0.073269
0.132736
0.183605
0.139809
0.101095
0.085154
0.076451
0.131074
0.178617
0.143989
0.105688
0.087604
0.078103
0.133866
0.178080
0.148987
0.110189
0.089666
0.079094
0.139866
0.181611
0.155296
0.114998
0.091798
0.079995
0.148624
0.188953
0.163098
0.120270
0.094270
0.081187
0.158302
0.199375
0.172442
0.126006
0.097215
0.082996
0.168267
0.212099
0.182953
0.131969
0.100735
0.085745
0.173683
0.224624
0.193931
0.137702
0.104836
0.089799
0.171479
0.233895
0.203452
0.142248
0.109544
0.095432
0.153379
0.232624
0.208182
0.144490
0.114811
0.102653
0.136739
0.217658
0.202458
0.144075
0.120400
0.111032
0.120300
0.173591
0.188867
0.142125
0.127869
0.119056
0.352707
0.276774
0.194118
0.157384
0.136397
0.125392
0.891433
0.682145
0.314150
0.199242
0.138518
0.127401
15.898800
0.629729
0.352637
0.210394
0.144027
0.126718
10.753300
0.484775
0.296378
0.195063
0.145388
0.124105
0.416421
0.228205
0.170554
0.141621
0.122843
0.363518
0.203368
0.152474
0.134185
0.120765
0.323183
0.185951
0.141768
0.126519
0.117349
0.291512
0.173231
0.133324
0.119655
0.113050
0.265633
0.160440
0.125762
0.113160
0.108293
0.243973
0.148067
0.118368
0.106888
0.103299
0.225772
0.134975
0.111129
0.100854
0.098272
0.215300
0.119017
0.106050
0.094233
0.093728
0.047988
0.192520
0.110419
0.097863
0.089741
0.088739
0.117930
0.170056
0.102306
0.091105
0.084957
0.084188
0.114304
0.146308
0.097674
0.083525
0.081277
0.079721
0.105327
0.115762
0.092204
0.078155
0.077065
0.075706
0.082351
0.093310
0.083184
0.073849
0.072710
0.071811
0.067772
0.078731
0.074817
0.069423
0.068500
0.067936
0.056659
0.068900
0.068233
0.065031
0.064474
0.064072
0.054141
0.064550
0.063195
0.060874
0.060597
0.060310
0.048782
0.060565
0.059585
0.056897
0.056935
0.056767
0.056111
0.060496
0.056005
0.053271
0.053602
0.053530
0.051579
0.069340
0.052857
0.050306
0.050557
0.050801
0.075234
0.082774
0.047618
0.049168
0.047823
0.048827
0.033751
0.074294
0.047455
0.049063
0.046148
0.047769
0.083937
0.051107
0.049861
0.046223
0.047431
0.091950
0.058399
0.054615
0.047269
0.047967
0.122385
0.078207
0.060812
0.048923
0.049109
0.157243
0.085121
0.063725
0.051697
0.049632
0.182284
0.080636
0.065981
0.052144
0.049372
0.212710
0.077812
0.065245
0.050741
0.047687
0.242462
0.072581
0.063535
0.048162
0.044707
0.271801
0.072006
0.061386
0.044628
0.040339
0.318991
0.102924
0.053862
0.042224
0.034811
0.405383
0.111199
0.045891
0.045048
0.030135
0.404106
0.263865
0.061377
0.042097
0.034876
0.022983
0.445461
0.227250
0.089220
0.053192
0.027059
0.021341
0.315251
0.182545
0.095183
0.060957
0.030533
0.013849
0.158113
0.111695
0.088648
0.067998
0.034790
0.015860
0.166106
0.112332
0.081068
0.070433
0.039504
0.022027
0.163208
0.111472
0.070275
0.071364
0.043014
0.028787
0.134926
0.097095
0.059633
0.072447
0.045076
0.033833
0.038795
0.063982
0.062642
0.075316
0.046007
0.034660
0.098042
0.099893
0.092314
0.084578
0.043739
0.027790
0.224389
0.200182
0.179912
0.126363
0.029348
0.018744
0.372268
0.358920
0.103927
0.066819
0.029886
0.031470
0.237775
0.251948
0.104542
0.061305
0.047612
0.039876
0.178127
0.221969
0.117723
0.075393
0.062527
0.054022
0.148440
0.201650
0.126054
0.084985
0.071945
0.063674
0.132458
0.187001
0.131091
0.091364
0.077242
0.069001
0.124343
0.177295
0.134769
0.095890
0.079939
0.071247
0.121617
0.171996
0.138375
0.099591
0.081290
0.071684
0.122576
0.170577
0.142653
0.103151
0.082106
0.071246
0.126281
0.172624
0.147946
0.106915
0.082893
0.070557
0.131007
0.177413
0.154377
0.111043
0.083936
0.070089
0.135501
0.184149
0.161751
0.115456
0.085470
0.070307
0.136849
0.191118
0.169574
0.119990
0.087660
0.071801
0.131619
0.196013
0.176741
0.124085
0.090809
0.075257
0.116298
0.195205
0.181289
0.127198
0.095173
0.081368
0.088909
0.184958
0.180354
0.128386
0.101412
0.090408
0.066042
0.165457
0.171146
0.129408
0.110203
0.101970
0.171547
0.163127
0.166984
0.137747
0.121931
0.114744
0.430621
0.368943
0.232571
0.166288
0.134322
0.127170
1.258210
1.022500
0.450317
0.217817
0.148425
0.135464
1.141920
1.099370
0.468147
0.236672
0.160966
0.139878
0.935618
0.971996
0.441610
0.227688
0.165213
0.142630
0.784324
0.813687
0.386495
0.210692
0.162228
0.142990
0.667797
0.684116
0.334073
0.194060
0.156281
0.141106
0.578834
0.587058
0.296594
0.181321
0.149144
0.137628
0.509608
0.511137
0.263304
0.169666
0.142024
0.132971
0.455270
0.451922
0.235697
0.158686
0.134883
0.127643
0.408922
0.401940
0.210410
0.148026
0.127746
0.121954
0.375667
0.359308
0.187222
0.138235
0.120568
0.116187
0.325857
0.312651
0.166758
0.128864
0.113866
0.110448
0.263687
0.258878
0.154708
0.118013
0.108706
0.104574
0.210045
0.196289
0.141395
0.109465
0.102915
0.099134
0.133151
0.151781
0.125863
0.102633
0.096885
0.094046
0.127351
0.134230
0.111535
0.095823
0.091306
0.089082
0.103388
0.111104
0.100786
0.089071
0.085894
0.084253
0.085719
0.094765
0.090063
0.082986
0.080605
0.079534
0.072131
0.082265
0.081191
0.077070
0.075642
0.074940
0.059725
0.072280
0.074049
0.071582
0.071002
0.070570
0.052378
0.065351
0.067574
0.066849
0.066677
0.066529
0.033653
0.058303
0.063943
0.062394
0.062889
0.062915
0.035885
0.064513
0.061490
0.058756
0.059789
0.059836
0.069460
0.070589
0.061475
0.056325
0.057550
0.057473
0.084850
0.082107
0.064099
0.056650
0.055862
0.056069
0.213441
0.128673
0.072369
0.060672
0.054999
0.055650
0.224320
0.151561
0.093146
0.064078
0.055608
0.055688
0.397762
0.223866
0.107187
0.067083
0.057380
0.055627
0.336998
0.226042
0.109980
0.074349
0.056811
0.055603
0.300698
0.238121
0.105647
0.075234
0.057495
0.054204
0.411776
0.288164
0.099420
0.072612
0.056000
0.051492
0.486336
0.330584
0.098452
0.067918
0.052357
0.047098
0.443882
0.326579
0.089513
0.063755
0.048265
0.041491
0.598125
0.389505
0.102992
0.058215
0.045758
0.034850
0.965298
0.487605
0.132200
0.042866
0.047035
0.027559
0.474302
0.246802
0.138186
0.039654
0.040099
0.019450
0.208982
0.205527
0.116017
0.056114
0.028756
0.015970
0.317838
0.177424
0.101239
0.067073
0.028978
0.014296
0.072445
0.073598
0.089601
0.068045
0.035730
0.015995
0.180382
0.117672
0.078715
0.068564
0.039776
0.023275
0.195033
0.133633
0.069212
0.069294
0.041871
0.030395
0.167123
0.125268
0.058921
0.070138
0.043225
0.034780
0.127091
0.091202
0.056232
0.073443
0.044315
0.035033
0.095805
0.092648
0.090198
0.082404
0.043283
0.028053
0.306848
0.240542
0.186705
0.123119
0.029350
0.020333
0.365745
0.348519
0.103996
0.063907
0.027505
0.026823
0.231473
0.243023
0.102880
0.059354
0.044968
0.036478
0.171959
0.214001
0.114219
0.072672
0.059501
0.050828
0.142665
0.194579
0.121629
0.081346
0.068368
0.060145
0.126945
0.180650
0.126191
0.086909
0.072937
0.064823
0.118732
0.171320
0.129531
0.090673
0.074781
0.066179
0.115252
0.165899
0.132744
0.093631
0.075143
0.065504
0.114905
0.163802
0.136423
0.096379
0.074844
0.063725
0.116331
0.164411
0.140809
0.099247
0.074370
0.061475
0.117904
0.166918
0.145900
0.102307
0.074058
0.059268
0.118252
0.170313
0.151389
0.105549
0.074174
0.057735
0.114155
0.172852
0.156723
0.108744
0.075114
0.057778
0.104881
0.173059
0.160849
0.111700
0.077376
0.060595
0.087448
0.168589
0.162703
0.114086
0.081840
0.067238
0.070270
0.161333
0.161413
0.116588
0.089392
0.078113
0.080575
0.156054
0.159935
0.121503
0.100966
0.092567
0.143069
0.172600
0.167884
0.134567
0.115456
0.109393
0.275064
0.247358
0.185557
0.154246
0.134894
0.125630
0.691148
0.596584
0.324326
0.203513
0.155416
0.139450
0.675198
0.603918
0.337637
0.231485
0.167745
0.150180
0.580897
0.535101
0.288494
0.223581
0.174953
0.156086
0.510004
0.476028
0.275928
0.212558
0.175109
0.158155
0.456069
0.427090
0.264454
0.205818
0.171383
0.157342
0.410879
0.386247
0.252982
0.197399
0.166738
0.154318
0.370386
0.348312
0.238371
0.187621
0.160633
0.150003
0.331840
0.313272
0.222775
0.177396
0.153809
0.144735
0.297035
0.279765
0.206147
0.167154
0.146540
0.138924
0.250232
0.243846
0.191485
0.157056
0.139298
0.132820
0.196108
0.217673
0.180276
0.146849
0.132599
0.126565
0.203983
0.215018
0.169045
0.138041
0.125767
0.120480
0.200701
0.198671
0.157201
0.129321
0.119267
0.114480
0.167446
0.168834
0.144796
0.120953
0.112682
0.108685
0.141484
0.146722
0.130661
0.113014
0.106112
0.103018
0.122058
0.127467
0.117119
0.105168
0.099794
0.097448
0.102372
0.110019
0.105662
0.097480
0.093765
0.092036
0.085445
0.095738
0.095461
0.090492
0.088036
0.086868
0.071184
0.084095
0.086629
0.084199
0.082749
0.082027
0.053735
0.073586
0.079904
0.078484
0.078075
0.077598
0.045098
0.069596
0.074400
0.074019
0.074022
0.073680
0.033594
0.068075
0.073132
0.070841
0.070748
0.070365
0.048918
0.077462
0.077176
0.069160
0.068373
0.067692
0.096275
0.121044
0.087309
0.069362
0.067005
0.065627
0.132178
0.167069
0.105406
0.070372
0.066616
0.064048
0.089503
0.197676
0.121880
0.073312
0.066461
0.063144
0.475635
0.262300
0.129334
0.077215
0.066216
0.062693
0.727648
0.377246
0.134505
0.079804
0.065811
0.061141
0.447704
0.298092
0.129976
0.079686
0.062416
0.057439
0.299748
0.224799
0.112857
0.074376
0.059421
0.052800
0.272641
0.187973
0.101840
0.067705
0.054142
0.047357
0.069795
0.131449
0.093143
0.059991
0.048174
0.040806
0.309000
0.177737
0.094639
0.053143
0.046253
0.032453
0.471431
0.237806
0.108376
0.048796
0.044225
0.024312
0.607261
0.302229
0.119924
0.044915
0.040046
0.015006
0.342507
0.198153
0.112728
0.051444
0.034971
0.008855
0.339697
0.185149
0.089899
0.062469
0.030649
0.013270
0.106478
0.070723
0.072125
0.063297
0.034558
0.017571
0.135992
0.092416
0.065525
0.060772
0.040420
0.023091
0.136021
0.129870
0.061915
0.061717
0.043004
0.029166
0.133495
0.125989
0.056259
0.061792
0.045012
0.033249
0.170371
0.119849
0.058729
0.067817
0.044003
0.034348
0.044240
0.070543
0.093524
0.077664
0.041254
0.028946
0.443904
0.300731
0.182099
0.116800
0.029755
0.021631
0.353930
0.337530
0.103192
0.062038
0.027403
0.024424
0.222965
0.233623
0.100729
0.057864
0.043126
0.034139
0.165570
0.205643
0.110132
0.069877
0.056648
0.047929
0.137812
0.187376
0.116690
0.077500
0.064720
0.056617
0.123004
0.174410
0.120950
0.082270
0.068553
0.060602
0.115088
0.165660
0.124136
0.085421
0.069653
0.061168
0.111208
0.160302
0.127137
0.087811
0.069220
0.059552
0.109944
0.157735
0.130378
0.089975
0.068018
0.056626
0.109520
0.157175
0.134048
0.092153
0.066522
0.052972
0.109149
0.157974
0.138009
0.094428
0.065068
0.049106
0.106146
0.158790
0.142027
0.096748
0.064030
0.045776
0.100210
0.158828
0.145490
0.099068
0.063966
0.044324
0.088976
0.156498
0.147935
0.101405
0.065790
0.046635
0.076027
0.152598
0.148943
0.104123
0.070677
0.054196
0.070515
0.148829
0.149589
0.108321
0.079798
0.066988
0.089493
0.152602
0.152571
0.116194
0.093324
0.083892
0.143495
0.172452
0.160234
0.129000
0.111427
0.102997
0.242445
0.228504
0.176497
0.150604
0.132051
0.122710
0.472249
0.423188
0.284621
0.195271
0.153732
0.140693
0.480037
0.440678
0.309903
0.215987
0.171234
0.154033
0.428609
0.400314
0.281701
0.214401
0.178823
0.162921
0.386007
0.362654
0.262891
0.211412
0.181092
0.167202
0.351044
0.331228
0.252046
0.206577
0.180668
0.167986
0.321623
0.305754
0.242470
0.201544
0.177676
0.166427
0.293680
0.282268
0.231764
0.194591
0.173231
0.163062
0.267046
0.259811
0.219983
0.186762
0.167541
0.158529
0.236744
0.237938
0.208635
0.178266
0.161249
0.153184
0.212101
0.223452
0.198376
0.169732
0.154752
0.147348
0.219116
0.219588
0.189080
0.161923
0.147958
0.141342
0.214681
0.211920
0.181767
0.153917
0.141312
0.135208
0.197621
0.197097
0.171008
0.146058
0.134452
0.129091
0.179284
0.178626
0.158210
0.137778
0.127567
0.122956
0.158861
0.160053
0.145855
0.129053
0.120717
0.116850
0.138390
0.142119
0.133111
0.120626
0.113917
0.110853
0.120197
0.126153
0.121400
0.112542
0.107407
0.105031
0.103801
0.112294
0.111153
0.105086
0.101306
0.099500
0.088448
0.100630
0.102698
0.098439
0.095762
0.094359
0.078042
0.092952
0.095938
0.092960
0.090852
0.089694
0.070429
0.089223
0.092555
0.088727
0.086733
0.085545
0.073119
0.094100
0.093575
0.086113
0.083445
0.081888
0.108400
0.117713
0.099860
0.085496
0.080835
0.078645
0.163342
0.160764
0.114203
0.085319
0.078684
0.075648
0.286218
0.231494
0.129610
0.083313
0.076893
0.072657
0.387425
0.259882
0.126704
0.080231
0.075154
0.069604
0.339730
0.211847
0.095793
0.082585
0.069886
0.066657
0.224128
0.104226
0.083708
0.066908
0.063399
0.161601
0.105123
0.081327
0.063261
0.058319
0.138665
0.090915
0.075517
0.058136
0.052663
0.200414
0.121089
0.084221
0.066571
0.051300
0.045972
0.092013
0.112482
0.084137
0.059476
0.043882
0.038984
0.208965
0.134294
0.100297
0.046486
0.043030
0.029324
0.108766
0.111631
0.038880
0.042313
0.020406
0.116462
0.103517
0.043736
0.035413
0.012823
0.121946
0.086103
0.044921
0.036555
0.006109
0.176886
0.120342
0.067388
0.049954
0.033619
0.011136
0.045809
0.058392
0.052047
0.055724
0.032262
0.019287
0.160861
0.100796
0.051691
0.054936
0.037478
0.024210
0.120945
0.052794
0.055483
0.042296
0.029162
0.108769
0.048631
0.056446
0.044972
0.032682
0.112265
0.061944
0.062050
0.044711
0.033637
0.194026
0.069152
0.095259
0.072440
0.040929
0.028988
0.382464
0.275721
0.167353
0.111512
0.028976
0.022948
0.337429
0.326180
0.101779
0.061112
0.028894
0.024109
0.212748
0.224047
0.098060
0.056557
0.041821
0.032563
0.159011
0.197186
0.105505
0.066846
0.053779
0.045111
0.133459
0.180182
0.111336
0.073283
0.060843
0.052917
0.119987
0.168305
0.115426
0.077333
0.063938
0.056190
0.112484
0.160209
0.118634
0.080022
0.064435
0.056094
0.108641
0.155114
0.121580
0.082074
0.063433
0.053764
0.106490
0.152224
0.124636
0.083916
0.061627
0.049970
0.105292
0.151017
0.127825
0.085733
0.059458
0.045197
0.102946
0.150465
0.131109
0.087579
0.057255
0.039893
0.098886
0.149917
0.134096
0.089426
0.055482
0.034873
0.091282
0.148195
0.136564
0.091359
0.054905
0.032011
0.081054
0.145285
0.138121
0.093640
0.056755
0.034311
0.071811
0.141835
0.139348
0.097024
0.062454
0.043444
0.073504
0.141121
0.141329
0.102779
0.072930
0.058318
0.097097
0.148035
0.146502
0.112483
0.088328
0.076936
0.142973
0.169257
0.157876
0.128105
0.106959
0.097915
0.209719
0.210464
0.179542
0.148594
0.128536
0.119340
0.343903
0.314027
0.238852
0.182865
0.152360
0.138847
0.364694
0.334657
0.260795
0.204356
0.169415
0.154656
0.344247
0.320386
0.255094
0.207617
0.179343
0.165373
0.323892
0.306287
0.250709
0.209109
0.184072
0.171668
0.304501
0.290870
0.244690
0.208020
0.185561
0.174409
0.285558
0.275632
0.237950
0.204718
0.184660
0.174452
0.267551
0.261108
0.230105
0.200091
0.181715
0.172525
0.249969
0.247723
0.222011
0.194227
0.177550
0.169109
0.238150
0.237719
0.213743
0.187796
0.172487
0.164694
0.235809
0.230255
0.205867
0.181347
0.166796
0.159640
0.224971
0.221924
0.199403
0.174604
0.160884
0.154126
0.217175
0.214122
0.191624
0.167847
0.154573
0.148349
0.207346
0.202799
0.181951
0.160213
0.148070
0.142337
0.190378
0.187784
0.170819
0.152044
0.141278
0.136194
0.173176
0.172226
0.159204
0.143674
0.134350
0.129996
0.156404
0.157326
0.147915
0.135266
0.127530
0.123843
0.140502
0.143482
0.137302
0.127350
0.120934
0.117878
0.126506
0.131629
0.128084
0.120089
0.114792
0.112205
0.116030
0.122715
0.120549
0.113830
0.109208
0.106928
0.109158
0.117360
0.115617
0.108725
0.104308
0.102090
0.109622
0.118075
0.113902
0.105048
0.100106
0.097664
0.123642
0.127945
0.116246
0.102889
0.096494
0.093536
0.155959
0.150078
0.123014
0.101519
0.093227
0.089476
0.209377
0.182319
0.131140
0.099851
0.089886
0.085180
0.277178
0.217563
0.135845
0.096682
0.085395
0.080473
0.326389
0.242159
0.131684
0.088443
0.079861
0.075254
0.448571
0.255500
0.109211
0.079864
0.073267
0.069389
0.111858
0.069224
0.077981
0.065488
0.063195
0.089645
0.060238
0.072897
0.059646
0.056328
0.089998
0.064363
0.067201
0.052516
0.049979
0.185641
0.111383
0.068135
0.059671
0.045798
0.042902
0.064142
0.098872
0.074156
0.051358
0.039904
0.034838
0.177727
0.123883
0.077609
0.041097
0.038276
0.025349
0.076362
0.070332
0.037383
0.035454
0.017030
0.078339
0.058701
0.040141
0.028325
0.012215
0.092813
0.062251
0.035989
0.032207
0.007729
0.139740
0.099626
0.053831
0.040861
0.031735
0.012712
0.041698
0.052276
0.044862
0.048482
0.030410
0.020235
0.133194
0.088287
0.042288
0.052004
0.033026
0.025553
0.091994
0.038183
0.053910
0.035905
0.029539
0.083195
0.038812
0.053157
0.039610
0.031883
0.082574
0.050587
0.058679
0.040041
0.032317
0.130894
0.061817
0.081401
0.066651
0.039674
0.028089
0.292283
0.222016
0.151024
0.103223
0.029805
0.023299
0.317294
0.314838
0.100035
0.060887
0.031074
0.025074
0.201382
0.214611
0.095016
0.055235
0.040746
0.031356
0.152221
0.188844
0.100471
0.063482
0.050720
0.042139
0.129294
0.173101
0.105627
0.068643
0.056617
0.048864
0.117024
0.162245
0.109652
0.072035
0.058987
0.051429
0.110236
0.154880
0.112968
0.074420
0.059022
0.050806
0.106258
0.150050
0.116062
0.076365
0.057688
0.048001
0.104068
0.147212
0.119108
0.078178
0.055624
0.043678
0.101974
0.145560
0.122213
0.080005
0.053212
0.038215
0.099163
0.144470
0.125142
0.081835
0.050806
0.031916
0.094080
0.142991
0.127757
0.083703
0.048890
0.025549
0.086345
0.140620
0.129676
0.085701
0.048411
0.021624
0.076866
0.137333
0.131118
0.088332
0.050774
0.024917
0.070177
0.134493
0.132526
0.092457
0.057425
0.036352
0.075520
0.135061
0.135607
0.099418
0.069071
0.052950
0.098927
0.143218
0.142447
0.110636
0.085021
0.072791
0.138573
0.162932
0.155441
0.126359
0.104696
0.094302
0.192577
0.197140
0.176596
0.147501
0.126368
0.116189
0.271776
0.257563
0.216570
0.175340
0.148557
0.136811
0.298132
0.280529
0.236108
0.193109
0.166571
0.153576
0.297537
0.281283
0.239322
0.201879
0.177774
0.165863
0.292371
0.277684
0.240144
0.206613
0.184902
0.173801
0.284209
0.272135
0.239217
0.208367
0.188422
0.178284
0.275020
0.265080
0.236174
0.207728
0.189246
0.179947
0.265392
0.257328
0.231615
0.205037
0.188051
0.179417
0.257680
0.249951
0.225967
0.201153
0.185264
0.177264
0.250743
0.242323
0.219988
0.196451
0.181376
0.173916
0.240091
0.234812
0.214161
0.191071
0.176796
0.169689
0.235565
0.228567
0.207497
0.185429
0.171561
0.164850
0.226998
0.219902
0.200181
0.179034
0.165885
0.159516
0.214778
0.209186
0.191381
0.171937
0.159699
0.153825
0.202244
0.197206
0.181542
0.164248
0.153192
0.147865
0.188203
0.184590
0.171452
0.156326
0.146518
0.141773
0.174442
0.172213
0.161515
0.148519
0.139868
0.135695
0.162010
0.161104
0.152399
0.141075
0.133475
0.129762
0.151856
0.151902
0.144474
0.134367
0.127464
0.124096
0.144613
0.145331
0.138382
0.128548
0.121982
0.118758
0.142219
0.142649
0.134465
0.123827
0.117048
0.113744
0.146430
0.144836
0.133187
0.120213
0.112586
0.108955
0.158273
0.152594
0.134428
0.117367
0.108364
0.104176
0.177503
0.164669
0.136885
0.114549
0.104009
0.099081
0.197464
0.174564
0.137158
0.111087
0.098668
0.093354
0.184678
0.169410
0.135142
0.104554
0.091974
0.086692
0.163273
0.154777
0.122387
0.094054
0.083723
0.078995
0.213911
0.151420
0.089357
0.082342
0.073506
0.070760
0.085038
0.058372
0.068753
0.064833
0.062129
0.057126
0.045202
0.060679
0.056119
0.053970
0.056497
0.042245
0.058044
0.047224
0.046775
0.135183
0.084647
0.050943
0.051573
0.040540
0.038993
0.050145
0.079314
0.056354
0.043727
0.034957
0.030646
0.133311
0.095850
0.060490
0.034015
0.033046
0.021496
0.066035
0.055967
0.029412
0.030392
0.013703
0.067940
0.046133
0.032220
0.024501
0.010161
0.078173
0.050608
0.030629
0.028260
0.008795
0.109704
0.085211
0.048054
0.035048
0.029146
0.014165
0.036399
0.047256
0.041060
0.043648
0.028642
0.020811
0.109064
0.071985
0.037750
0.048513
0.031066
0.025674
0.072425
0.034391
0.050809
0.033699
0.029234
0.063998
0.035213
0.050698
0.036824
0.031302
0.063320
0.045310
0.055327
0.037587
0.031291
0.082122
0.055180
0.070227
0.061771
0.037342
0.027711
0.226810
0.177744
0.130484
0.094250
0.030579
0.023556
0.294477
0.303942
0.098020
0.061072
0.033124
0.026344
0.189290
0.205589
0.091717
0.053775
0.039632
0.030091
0.145303
0.180848
0.095131
0.059724
0.047369
0.038822
0.124695
0.166135
0.099636
0.063544
0.051967
0.044347
0.113699
0.156200
0.103588
0.066316
0.053626
0.046214
0.107297
0.149413
0.107117
0.068538
0.053316
0.045184
0.103730
0.145028
0.110446
0.070586
0.051894
0.042135
0.101426
0.142345
0.113786
0.072692
0.049920
0.037652
0.099462
0.140793
0.117055
0.074889
0.047779
0.032028
0.096406
0.139549
0.120168
0.077164
0.045781
0.025484
0.091299
0.137885
0.122760
0.079470
0.044456
0.018729
0.083639
0.135273
0.124770
0.081983
0.044732
0.015082
0.074722
0.131927
0.126217
0.085176
0.048004
0.020705
0.069269
0.129311
0.128025
0.090021
0.055549
0.033958
0.075425
0.130249
0.131627
0.097777
0.067695
0.051334
0.097463
0.138377
0.139103
0.109409
0.084138
0.071224
0.132966
0.156596
0.152374
0.125679
0.103484
0.092699
0.176633
0.184858
0.172463
0.145451
0.124659
0.114497
0.231238
0.224721
0.199561
0.168395
0.146208
0.134980
0.260113
0.248297
0.218997
0.186799
0.163604
0.152409
0.270961
0.257934
0.228516
0.197583
0.176411
0.165666
0.275325
0.262576
0.233957
0.204867
0.185001
0.175015
0.275427
0.263015
0.235987
0.208796
0.190270
0.180877
0.272596
0.260936
0.235688
0.210032
0.192694
0.183895
0.268378
0.257178
0.233465
0.209259
0.192850
0.184616
0.262344
0.251976
0.229942
0.206848
0.191308
0.183545
0.255116
0.246399
0.225449
0.203241
0.188494
0.181103
0.250910
0.240635
0.219969
0.198883
0.184647
0.177640
0.242044
0.233205
0.214069
0.193656
0.180078
0.173369
0.233711
0.225410
0.207035
0.187755
0.174817
0.168483
0.224463
0.216245
0.199089
0.181111
0.169036
0.163109
0.213064
0.205972
0.190472
0.174000
0.162861
0.157404
0.201911
0.195565
0.181633
0.166700
0.156510
0.151515
0.191198
0.185670
0.173112
0.159486
0.150176
0.145597
0.181759
0.176795
0.165248
0.152670
0.144026
0.139786
0.174272
0.169619
0.158530
0.146425
0.138213
0.134169
0.169700
0.164752
0.153175
0.140942
0.132781
0.128775
0.168448
0.162496
0.149430
0.136213
0.127696
0.123545
0.170571
0.162916
0.147103
0.132049
0.122789
0.118310
0.175187
0.164952
0.145436
0.127998
0.117738
0.112784
0.177427
0.165333
0.142927
0.123419
0.111937
0.106624
0.165944
0.159284
0.138358
0.116713
0.105003
0.099414
0.159688
0.148527
0.126390
0.107461
0.096247
0.090918
0.157896
0.136916
0.108260
0.093979
0.085748
0.081225
0.148488
0.115182
0.082903
0.078008
0.073745
0.071008
0.059955
0.051818
0.064804
0.061744
0.060955
0.040295
0.036414
0.054342
0.052319
0.051337
0.038173
0.033064
0.050169
0.042968
0.043340
0.105779
0.063340
0.039175
0.044793
0.035988
0.035367
0.050249
0.065880
0.043911
0.037814
0.030470
0.027045
0.104498
0.075668
0.048032
0.028299
0.028579
0.018145
0.059040
0.045710
0.023876
0.026248
0.010716
0.060581
0.038237
0.027006
0.021235
0.008273
0.067741
0.043527
0.026326
0.025488
0.009171
0.081146
0.068464
0.041881
0.031921
0.026982
0.014908
0.035712
0.043338
0.037225
0.040181
0.027434
0.020968
0.081206
0.057542
0.036003
0.045169
0.030000
0.025467
0.055283
0.033236
0.047939
0.032403
0.028722
0.048792
0.033934
0.048037
0.035247
0.030458
0.049601
0.042421
0.052680
0.035557
0.030425
0.052760
0.058200
0.063107
0.057739
0.035553
0.027248
0.174241
0.141830
0.112650
0.087422
0.029948
0.024040
0.270180
0.294003
0.095868
0.061363
0.034515
0.027137
0.177095
0.197399
0.088243
0.052100
0.038255
0.028420
0.138008
0.173329
0.089662
0.055592
0.043677
0.035021
0.119527
0.159369
0.093410
0.057984
0.046872
0.039285
0.109281
0.150022
0.097269
0.060149
0.047804
0.040462
0.103469
0.143760
0.100986
0.062302
0.047251
0.039118
0.100201
0.139783
0.104719
0.064676
0.045956
0.036044
0.098483
0.137580
0.108517
0.067363
0.044469
0.031802
0.096972
0.136449
0.112368
0.070338
0.043133
0.026727
0.094500
0.135634
0.115987
0.073463
0.042245
0.021147
0.089821
0.134277
0.119123
0.076646
0.042223
0.016188
0.082572
0.131871
0.121487
0.079974
0.043840
0.015627
0.073918
0.128613
0.123312
0.083896
0.048214
0.023013
0.068529
0.125959
0.125337
0.089337
0.056331
0.036177
0.073926
0.126682
0.129114
0.097424
0.068678
0.052891
0.094347
0.134233
0.136654
0.109286
0.084683
0.072164
0.125895
0.150476
0.149357
0.124857
0.103687
0.092948
0.165011
0.175110
0.167361
0.143921
0.124138
0.114141
0.206244
0.205349
0.190006
0.164494
0.144361
0.134385
0.236862
0.228981
0.208041
0.181635
0.162027
0.151859
0.254690
0.243848
0.220726
0.194758
0.175502
0.165785
0.264886
0.252608
0.228957
0.203618
0.185342
0.176005
0.269708
0.257165
0.233680
0.209175
0.191723
0.182887
0.270738
0.258245
0.235381
0.211893
0.195259
0.186866
0.268697
0.256733
0.234814
0.212261
0.196445
0.188466
0.265151
0.253664
0.232446
0.210853
0.195759
0.188158
0.261146
0.249145
0.228693
0.208088
0.193587
0.186362
0.253613
0.243317
0.224072
0.204133
0.190314
0.183391
0.247904
0.237216
0.218298
0.199354
0.186101
0.179515
0.239902
0.229648
0.211808
0.193745
0.181177
0.174922
0.230803
0.221358
0.204528
0.187528
0.175671
0.169794
0.221842
0.212677
0.196800
0.180886
0.169794
0.164291
0.212522
0.203931
0.189012
0.174095
0.163725
0.158582
0.203927
0.195648
0.181468
0.167412
0.157648
0.152815
0.196472
0.188348
0.174558
0.161023
0.151717
0.147104
0.190696
0.182360
0.168458
0.155109
0.146012
0.141513
0.186762
0.177875
0.163350
0.149691
0.140550
0.136032
0.184684
0.174884
0.159096
0.144685
0.135228
0.130556
0.183777
0.172730
0.155298
0.139808
0.129808
0.124874
0.181836
0.170048
0.151192
0.134541
0.123882
0.118674
0.177194
0.165397
0.145639
0.127964
0.117017
0.111554
0.173596
0.157929
0.136182
0.119370
0.108561
0.103173
0.157759
0.143900
0.122758
0.107391
0.098278
0.093339
0.121009
0.116710
0.102653
0.092258
0.086191
0.082267
0.074048
0.078879
0.073831
0.076382
0.072573
0.070761
0.044817
0.048340
0.061081
0.060163
0.059456
0.027543
0.031768
0.050388
0.049350
0.049211
0.025950
0.028358
0.045665
0.039679
0.040648
0.073695
0.046623
0.033428
0.040180
0.032637
0.032468
0.041420
0.051853
0.036270
0.033384
0.027135
0.024257
0.073157
0.059432
0.038893
0.024338
0.025248
0.015544
0.053521
0.037863
0.019730
0.023277
0.008134
0.054649
0.032392
0.023215
0.018926
0.006531
0.058501
0.037238
0.023589
0.023401
0.009249
0.060485
0.056803
0.037147
0.029138
0.025635
0.015123
0.032526
0.039221
0.034647
0.037512
0.026503
0.020928
0.060313
0.045058
0.034320
0.042832
0.029077
0.025233
0.040176
0.032669
0.045583
0.031514
0.028197
0.036516
0.033471
0.045964
0.034071
0.029742
0.042826
0.041432
0.050428
0.034181
0.029604
0.053286
0.066095
0.057351
0.054628
0.033901
0.026810
0.131230
0.111335
0.096040
0.080819
0.029237
0.024069
0.245493
0.285529
0.093674
0.061606
0.034991
0.027043
0.165032
0.190349
0.084788
0.050210
0.036511
0.026105
0.130505
0.166520
0.084230
0.051173
0.039665
0.030648
0.113392
0.152814
0.087097
0.052036
0.041361
0.033629
0.103721
0.143756
0.090710
0.053542
0.041528
0.034111
0.098210
0.137782
0.094616
0.055712
0.040791
0.032520
0.095633
0.134303
0.098805
0.058605
0.039866
0.029644
0.094780
0.132752
0.103327
0.062203
0.039291
0.026159
0.094477
0.132504
0.108041
0.066327
0.039379
0.022618
0.093136
0.132581
0.112635
0.070714
0.040275
0.019727
0.089551
0.132096
0.116672
0.075132
0.042154
0.018837
0.082922
0.130274
0.119836
0.079538
0.045445
0.021856
0.074473
0.127314
0.122179
0.084292
0.050884
0.029633
0.068164
0.124456
0.124433
0.090180
0.059367
0.041603
0.071981
0.124627
0.128160
0.098416
0.071336
0.057013
0.089986
0.130990
0.135213
0.109860
0.086847
0.075046
0.119855
0.145751
0.147142
0.125096
0.104936
0.094883
0.154970
0.167832
0.163976
0.142939
0.124647
0.115322
0.193031
0.194430
0.183568
0.162193
0.144247
0.134980
0.223080
0.217896
0.202177
0.179612
0.161535
0.152403
0.244421
0.235086
0.216011
0.193050
0.175575
0.166554
0.258168
0.246703
0.225909
0.203075
0.185954
0.177236
0.265718
0.253272
0.231953
0.209537
0.193030
0.184607
0.268754
0.256093
0.234861
0.213038
0.197150
0.189082
0.268767
0.256074
0.235166
0.214097
0.198837
0.191113
0.266284
0.253691
0.233466
0.213180
0.198540
0.191166
0.261306
0.249747
0.230257
0.210674
0.196699
0.189632
0.256941
0.244780
0.225674
0.207015
0.193593
0.186861
0.249511
0.238327
0.220278
0.202323
0.189541
0.183114
0.242322
0.231451
0.213970
0.196893
0.184717
0.178621
0.234547
0.223857
0.207116
0.190869
0.179344
0.173570
0.226119
0.215939
0.199937
0.184504
0.173596
0.168145
0.218191
0.208172
0.192723
0.178014
0.167670
0.162506
0.210771
0.200883
0.185790
0.171603
0.161722
0.156792
0.204364
0.194348
0.179319
0.165451
0.155870
0.151099
0.199133
0.188791
0.173499
0.159629
0.150176
0.145469
0.195175
0.184248
0.168297
0.154144
0.144614
0.139867
0.192207
0.180451
0.163555
0.148843
0.139047
0.134168
0.189531
0.176912
0.158851
0.143388
0.133218
0.128141
0.186629
0.172797
0.153405
0.137243
0.126745
0.121459
0.181268
0.166458
0.146067
0.129712
0.119104
0.113754
0.168378
0.155230
0.135716
0.119799
0.109855
0.104684
0.147724
0.136606
0.119859
0.106960
0.098680
0.094132
0.112437
0.108095
0.097664
0.091068
0.085882
0.082353
0.048130
0.066250
0.071090
0.074501
0.071884
0.070206
0.034884
0.046688
0.059611
0.058770
0.058439
0.020767
0.031597
0.048147
0.047869
0.047712
0.016341
0.026981
0.043334
0.037632
0.038985
0.042876
0.032077
0.030217
0.037624
0.030514
0.030687
0.041416
0.041200
0.030571
0.030789
0.025023
0.022461
0.042733
0.043955
0.032782
0.021420
0.023271
0.013817
0.048953
0.032221
0.016883
0.021363
0.006286
0.048921
0.026710
0.021321
0.016897
0.005520
0.050788
0.032057
0.021627
0.021999
0.009097
0.033810
0.043938
0.033179
0.027225
0.024606
0.015119
0.033879
0.037012
0.031732
0.035611
0.025698
0.020781
0.033254
0.033060
0.032996
0.040929
0.028341
0.024914
0.026996
0.032112
0.043814
0.030786
0.027672
0.028764
0.033802
0.044232
0.033275
0.029021
0.043302
0.041334
0.048662
0.033063
0.028834
0.076494
0.076557
0.052944
0.051888
0.032513
0.026280
0.094714
0.084951
0.081031
0.074868
0.028302
0.023931
0.221457
0.278943
0.091588
0.061772
0.034523
0.025933
0.153725
0.184786
0.081577
0.048225
0.034431
0.023034
0.122734
0.160600
0.079122
0.046671
0.035457
0.025669
0.106451
0.146648
0.080882
0.045864
0.035561
0.027362
0.096788
0.137431
0.084077
0.046621
0.034878
0.027120
0.091584
0.131574
0.088076
0.048858
0.034022
0.025342
0.089793
0.128540
0.092799
0.052499
0.033760
0.022989
0.090403
0.127918
0.098232
0.057330
0.034644
0.021079
0.091856
0.128885
0.104134
0.062975
0.036803
0.020474
0.092476
0.130455
0.110089
0.068979
0.040037
0.021679
0.090442
0.131280
0.115446
0.074926
0.044137
0.024869
0.085019
0.130611
0.119772
0.080625
0.049154
0.030226
0.076550
0.128071
0.122871
0.086262
0.055573
0.038165
0.069063
0.125124
0.125435
0.092576
0.064153
0.049057
0.069917
0.124224
0.128850
0.100642
0.075657
0.062979
0.085847
0.129343
0.135318
0.111701
0.090191
0.079669
0.113707
0.142464
0.146262
0.125990
0.107566
0.098322
0.149318
0.163531
0.162045
0.143477
0.126402
0.117916
0.185060
0.188966
0.181349
0.161918
0.145429
0.137010
0.217770
0.213225
0.199420
0.179181
0.162643
0.154107
0.240538
0.231643
0.214357
0.193250
0.176637
0.168173
0.255194
0.244044
0.224769
0.203390
0.187155
0.178836
0.263807
0.251479
0.231277
0.210131
0.194284
0.186215
0.267594
0.254809
0.234440
0.213765
0.198465
0.190666
0.267660
0.254944
0.234924
0.214865
0.200131
0.192651
0.265154
0.252830
0.233266
0.213902
0.199785
0.192610
0.261432
0.248901
0.229893
0.211352
0.197804
0.190964
0.254899
0.243465
0.225357
0.207486
0.194582
0.188045
0.248923
0.237383
0.219704
0.202689
0.190365
0.184150
0.241320
0.230264
0.213409
0.197125
0.185419
0.179511
0.233413
0.222809
0.206578
0.191057
0.179934
0.174337
0.225664
0.215209
0.199513
0.184677
0.174117
0.168804
0.217933
0.207724
0.192466
0.178201
0.168131
0.163073
0.210900
0.200686
0.185645
0.171807
0.162123
0.157268
0.204705
0.194349
0.179270
0.165622
0.156197
0.151474
0.199602
0.188862
0.173419
0.159731
0.150395
0.145722
0.195572
0.184222
0.168115
0.154107
0.144687
0.139975
0.192346
0.180253
0.163177
0.148606
0.138946
0.134107
0.189477
0.176419
0.158198
0.142935
0.132918
0.127902
0.185659
0.171857
0.152518
0.136560
0.126250
0.121050
0.180183
0.165259
0.144957
0.128830
0.118464
0.113199
0.167964
0.154007
0.134292
0.118881
0.109107
0.104038
0.145940
0.135483
0.118953
0.105982
0.097953
0.093450
0.111360
0.107412
0.097275
0.090412
0.085182
0.081698
0.056952
0.069226
0.071435
0.074140
0.071339
0.069572
0.036402
0.048847
0.059319
0.058335
0.057818
0.019417
0.034195
0.047711
0.047451
0.047060
0.012016
0.029027
0.041572
0.037630
0.038074
0.022142
0.021979
0.030928
0.035807
0.030444
0.029863
0.035910
0.031492
0.031314
0.028825
0.025268
0.021768
0.022380
0.037056
0.030278
0.020428
0.022584
0.013462
0.043704
0.026288
0.016920
0.019283
0.005897
0.043513
0.021581
0.020870
0.015504
0.005281
0.043783
0.026284
0.021898
0.020176
0.009222
0.018952
0.038571
0.029617
0.027103
0.023760
0.015239
0.031029
0.034054
0.030649
0.034431
0.025672
0.020604
0.018495
0.025319
0.032259
0.039209
0.028229
0.024457
0.018908
0.032222
0.041833
0.030573
0.026981
0.027989
0.034759
0.043068
0.032589
0.028275
0.050256
0.042058
0.047225
0.032140
0.027995
0.107404
0.088399
0.049661
0.049531
0.031223
0.025632
0.064468
0.061448
0.066399
0.069290
0.027386
0.023633
0.199161
0.274560
0.089779
0.061993
0.033304
0.023950
0.143451
0.180914
0.078926
0.046408
0.032225
0.019253
0.115124
0.155836
0.074682
0.042447
0.031346
0.020141
0.098835
0.141074
0.075113
0.039830
0.029769
0.020521
0.088776
0.131297
0.077646
0.039693
0.028134
0.019498
0.083660
0.125272
0.081614
0.042066
0.027271
0.017659
0.082907
0.122695
0.086912
0.046709
0.028148
0.016565
0.085459
0.123124
0.093402
0.053102
0.031172
0.017734
0.089433
0.125774
0.100801
0.060576
0.035941
0.021347
0.092637
0.129237
0.108421
0.068444
0.041750
0.026531
0.093007
0.132107
0.115562
0.076129
0.048043
0.032622
0.089027
0.132878
0.121335
0.083258
0.054678
0.039540
0.081093
0.131401
0.125590
0.089872
0.061946
0.047732
0.071729
0.128090
0.128465
0.096552
0.070563
0.057871
0.069162
0.126253
0.131648
0.104394
0.081396
0.070514
0.081492
0.129276
0.137054
0.114671
0.095055
0.085781
0.109242
0.141218
0.147134
0.128427
0.111279
0.103281
0.144742
0.161783
0.162432
0.144953
0.129625
0.121913
0.185587
0.188615
0.181428
0.163749
0.148119
0.140384
0.219203
0.214618
0.201193
0.181139
0.165141
0.157041
0.242685
0.233397
0.215760
0.194966
0.178873
0.170682
0.257375
0.245530
0.225903
0.204959
0.189000
0.180879
0.264938
0.252280
0.231981
0.211192
0.195690
0.187767
0.267657
0.254867
0.234623
0.214364
0.199344
0.191711
0.266952
0.254334
0.234486
0.214906
0.200509
0.193169
0.263738
0.251358
0.232201
0.213409
0.199618
0.192621
0.258176
0.246671
0.228316
0.210271
0.197149
0.190470
0.252412
0.240835
0.223089
0.205938
0.193423
0.187085
0.244498
0.233819
0.217041
0.200637
0.188772
0.182754
0.236786
0.226421
0.210257
0.194678
0.183423
0.177727
0.228541
0.218538
0.203091
0.188251
0.177599
0.172208
0.220110
0.210554
0.195723
0.181573
0.171476
0.166375
0.212107
0.202750
0.188379
0.174819
0.165220
0.160371
0.204538
0.195349
0.181275
0.168148
0.158956
0.154317
0.197850
0.188608
0.174571
0.161693
0.152782
0.148291
0.192264
0.182759
0.168435
0.155531
0.146748
0.142328
0.188028
0.177983
0.162931
0.149683
0.140845
0.136403
0.185195
0.174234
0.157995
0.144071
0.134977
0.130420
0.183008
0.171096
0.153348
0.138452
0.128959
0.124195
0.180188
0.167415
0.148314
0.132462
0.122439
0.117473
0.173615
0.161651
0.142075
0.125293
0.115069
0.109919
0.168320
0.153417
0.132450
0.116341
0.106328
0.101243
0.154088
0.139603
0.118904
0.104626
0.095960
0.091296
0.120091
0.114670
0.100620
0.089964
0.084128
0.080246
0.084761
0.084968
0.075357
0.075006
0.070843
0.068831
0.047948
0.053024
0.060362
0.058632
0.057561
0.025199
0.038983
0.048792
0.048116
0.047171
0.014421
0.032272
0.040990
0.039290
0.038022
0.015937
0.032133
0.034527
0.032441
0.029813
0.024933
0.031593
0.028223
0.026945
0.022071
0.033146
0.026373
0.022651
0.021839
0.014399
0.037980
0.019941
0.020380
0.017052
0.007660
0.039288
0.017554
0.021622
0.015219
0.005730
0.037854
0.020646
0.024126
0.018077
0.009824
0.033547
0.026109
0.028282
0.022391
0.015393
0.025807
0.030316
0.033277
0.025866
0.020283
0.018729
0.031810
0.037242
0.028472
0.023804
0.021607
0.032784
0.039933
0.030618
0.026187
0.035080
0.036258
0.042475
0.031955
0.027405
0.061737
0.043485
0.046098
0.031296
0.027002
0.141861
0.101365
0.047536
0.047531
0.030005
0.024792
0.044937
0.041934
0.052749
0.064271
0.026493
0.023196
0.179465
0.272540
0.088485
0.062539
0.031765
0.021597
0.134812
0.178908
0.077180
0.045153
0.030341
0.015116
0.108115
0.152467
0.071370
0.039086
0.027903
0.014362
0.091190
0.136442
0.070284
0.034630
0.024669
0.013338
0.080225
0.125698
0.071903
0.033486
0.022069
0.011443
0.075001
0.119281
0.075710
0.036093
0.021531
0.010151
0.075532
0.117061
0.081546
0.042000
0.024284
0.012440
0.080491
0.118721
0.089243
0.050189
0.030000
0.018239
0.087737
0.123317
0.098272
0.059620
0.037452
0.025628
0.094221
0.129281
0.107917
0.069431
0.045591
0.033538
0.097647
0.134632
0.117071
0.078918
0.053804
0.041529
0.095908
0.137707
0.124850
0.087571
0.061837
0.049597
0.088585
0.137345
0.130359
0.095237
0.069866
0.058134
0.077932
0.134514
0.134093
0.102275
0.078516
0.067819
0.070401
0.130753
0.136700
0.109841
0.088679
0.079426
0.078308
0.131968
0.141205
0.119221
0.101246
0.093401
0.104620
0.141444
0.149639
0.131834
0.116602
0.109591
0.145060
0.162877
0.164567
0.148477
0.133852
0.127305
0.190433
0.193750
0.185823
0.166934
0.152319
0.144977
0.232144
0.223722
0.206494
0.185505
0.169065
0.161028
0.254264
0.241779
0.220969
0.198812
0.182234
0.173902
0.265616
0.252218
0.230082
0.207805
0.191492
0.183247
0.270527
0.256835
0.234683
0.213092
0.197214
0.189184
0.270740
0.257406
0.235899
0.215077
0.199910
0.192167
0.267647
0.254975
0.234474
0.214569
0.200065
0.192703
0.262279
0.250449
0.230993
0.212013
0.198270
0.191262
0.255753
0.244339
0.225909
0.207949
0.194912
0.188296
0.247314
0.237039
0.219763
0.202697
0.190411
0.184157
0.239146
0.229166
0.212714
0.196636
0.185040
0.179154
0.229793
0.220598
0.205180
0.189966
0.179065
0.173528
0.220477
0.211868
0.197270
0.182924
0.172680
0.167481
0.211176
0.203042
0.189226
0.175676
0.166060
0.161177
0.201902
0.194318
0.181213
0.168384
0.159344
0.154753
0.193125
0.185937
0.173397
0.161186
0.152652
0.148315
0.184969
0.178123
0.165969
0.154203
0.146076
0.141943
0.177901
0.171194
0.159107
0.147544
0.139681
0.135682
0.172417
0.165530
0.153022
0.141290
0.133490
0.129534
0.169101
0.161607
0.147913
0.135458
0.127479
0.123448
0.168697
0.159704
0.143762
0.129981
0.121523
0.117307
0.170344
0.159393
0.140243
0.124516
0.115444
0.110899
0.171565
0.158229
0.136103
0.118748
0.108765
0.103988
0.158694
0.151266
0.130794
0.111383
0.101223
0.096263
0.149041
0.140123
0.119910
0.102058
0.092316
0.087524
0.150029
0.129895
0.103521
0.089855
0.081998
0.077821
0.155547
0.119983
0.082796
0.075390
0.070599
0.067639
0.064140
0.058396
0.062657
0.059035
0.057595
0.036718
0.044073
0.051621
0.049709
0.047862
0.024429
0.036831
0.043246
0.041716
0.039089
0.019604
0.032005
0.037162
0.034428
0.031126
0.023807
0.027634
0.031672
0.027866
0.023557
0.030460
0.022129
0.027118
0.021735
0.016391
0.035539
0.017442
0.024424
0.017099
0.010131
0.037615
0.016385
0.024187
0.015663
0.007266
0.036355
0.019224
0.026308
0.017625
0.010299
0.032157
0.023513
0.029595
0.021332
0.015081
0.027730
0.027717
0.032864
0.025203
0.019431
0.026842
0.030570
0.036140
0.028255
0.022912
0.033486
0.033666
0.039148
0.030430
0.025277
0.047602
0.037730
0.042291
0.031363
0.026320
0.076412
0.045614
0.045356
0.030433
0.025772
0.180592
0.116286
0.047145
0.045823
0.028786
0.023675
0.049568
0.032650
0.039079
0.059818
0.025620
0.022562
0.163286
0.272899
0.087999
0.063755
0.030634
0.019866
0.128268
0.178816
0.076697
0.044966
0.029462
0.011801
0.102519
0.150727
0.069673
0.037394
0.026053
0.009662
0.084537
0.133141
0.067036
0.031462
0.021671
0.007326
0.072333
0.121188
0.067599
0.029440
0.018635
0.005222
0.066914
0.114179
0.071095
0.032416
0.019182
0.007800
0.068868
0.112256
0.077439
0.039660
0.024238
0.014808
0.076825
0.115217
0.086311
0.049551
0.032309
0.023477
0.087584
0.122002
0.097087
0.060760
0.041779
0.032798
0.098261
0.130865
0.108802
0.072334
0.051654
0.042225
0.105164
0.139400
0.120352
0.083516
0.061340
0.051449
0.106610
0.145374
0.130363
0.093703
0.070532
0.060405
0.100572
0.147088
0.137855
0.102480
0.079266
0.069339
0.088801
0.144455
0.142286
0.109999
0.087971
0.078816
0.076459
0.139990
0.145160
0.117065
0.097585
0.089578
0.076829
0.136915
0.147612
0.125613
0.108974
0.102338
0.101619
0.144733
0.154817
0.136891
0.122942
0.117252
0.145748
0.165687
0.168599
0.152198
0.139686
0.133650
0.212060
0.206160
0.191932
0.172808
0.157250
0.150417
0.260841
0.245520
0.219309
0.192227
0.174166
0.165500
0.277394
0.260194
0.231344
0.204597
0.186243
0.177362
0.283871
0.266170
0.237494
0.212154
0.194311
0.185393
0.283589
0.267161
0.239952
0.215670
0.198643
0.190007
0.279301
0.264367
0.239175
0.216198
0.199888
0.191690
0.272479
0.258977
0.235778
0.214076
0.198761
0.190969
0.264013
0.251769
0.230438
0.210109
0.195692
0.188396
0.254186
0.243381
0.223768
0.204691
0.191230
0.184385
0.244344
0.234256
0.216073
0.198292
0.185705
0.179324
0.233291
0.224493
0.207805
0.191156
0.179450
0.173502
0.222701
0.214593
0.199061
0.183569
0.172684
0.167159
0.211693
0.204450
0.190130
0.175689
0.165608
0.160482
0.200719
0.194324
0.181097
0.167682
0.158365
0.153624
0.189922
0.184291
0.172105
0.159666
0.151084
0.146704
0.179181
0.174434
0.163276
0.151756
0.143862
0.139819
0.168811
0.164937
0.154737
0.144057
0.136788
0.133046
0.158990
0.156049
0.146681
0.136679
0.129933
0.126440
0.150391
0.148276
0.139389
0.129747
0.123360
0.120034
0.144187
0.142461
0.133259
0.123413
0.117103
0.113830
0.142139
0.139947
0.128887
0.117758
0.111167
0.107781
0.147417
0.142274
0.126495
0.112792
0.105417
0.101787
0.160114
0.149587
0.125808
0.107932
0.099759
0.095631
0.179725
0.157710
0.123862
0.103087
0.093514
0.089131
0.170556
0.153562
0.121324
0.096232
0.086456
0.082042
0.151503
0.141496
0.112469
0.086684
0.078422
0.074200
0.213597
0.152345
0.088073
0.077310
0.068518
0.065963
0.087692
0.062658
0.065184
0.060087
0.057279
0.053797
0.050898
0.055633
0.051930
0.048898
0.038753
0.041905
0.049254
0.044304
0.041029
0.032954
0.037533
0.042517
0.037743
0.033423
0.031293
0.031826
0.036935
0.031012
0.026132
0.033874
0.025702
0.032276
0.024748
0.019050
0.038239
0.022038
0.028859
0.019889
0.012707
0.040807
0.021128
0.027981
0.017715
0.009123
0.040767
0.022521
0.029271
0.018922
0.010565
0.039852
0.025829
0.031291
0.022136
0.014618
0.039075
0.028338
0.034044
0.025359
0.018735
0.041432
0.030950
0.036624
0.028150
0.021961
0.048966
0.034012
0.039472
0.030008
0.024081
0.063408
0.039624
0.042591
0.030624
0.024916
0.094108
0.048576
0.044789
0.029592
0.024150
0.225251
0.132717
0.048492
0.044604
0.027499
0.022166
0.077207
0.043956
0.028210
0.056246
0.024717
0.021587
0.151220
0.275522
0.088568
0.065960
0.030741
0.020175
0.124340
0.180592
0.077727
0.046364
0.030303
0.011961
0.099306
0.150761
0.069976
0.038189
0.026839
0.010212
0.080424
0.131610
0.066065
0.031757
0.022609
0.009355
0.067227
0.118427
0.065633
0.029557
0.020531
0.010677
0.061777
0.110812
0.068786
0.032979
0.022696
0.015406
0.065414
0.109179
0.075527
0.041132
0.029197
0.022948
0.076274
0.113439
0.085459
0.052138
0.038410
0.032139
0.090826
0.122540
0.097808
0.064578
0.048927
0.042132
0.105487
0.134493
0.111550
0.077485
0.059849
0.052336
0.117293
0.146901
0.125504
0.090099
0.070567
0.062353
0.122141
0.156667
0.138238
0.101707
0.080691
0.071983
0.119273
0.161582
0.148170
0.111717
0.090056
0.081294
0.106631
0.159927
0.154175
0.119786
0.098931
0.090660
0.090187
0.153961
0.156651
0.126606
0.107903
0.100766
0.080813
0.148487
0.158722
0.133462
0.118255
0.112256
0.100210
0.148624
0.161309
0.143511
0.130663
0.125610
0.153845
0.172151
0.174387
0.157954
0.145504
0.140562
0.248180
0.232543
0.205277
0.177762
0.162901
0.155659
0.319974
0.287161
0.238903
0.202089
0.179048
0.169437
0.325478
0.294077
0.245975
0.211919
0.190265
0.179752
0.320798
0.294118
0.249803
0.217389
0.196491
0.186201
0.311392
0.288455
0.249136
0.219042
0.198957
0.189188
0.299733
0.280051
0.245512
0.217277
0.198641
0.189302
0.286727
0.269962
0.239467
0.213364
0.195875
0.187212
0.273224
0.258913
0.231811
0.207652
0.191463
0.183382
0.259642
0.247169
0.222945
0.200729
0.185752
0.178294
0.245532
0.235081
0.213409
0.192927
0.179170
0.172292
0.232210
0.222968
0.203380
0.184599
0.171974
0.165666
0.218444
0.210769
0.193199
0.175929
0.164410
0.158636
0.205316
0.198787
0.182895
0.167113
0.156636
0.151374
0.192292
0.186910
0.172632
0.158250
0.148787
0.144011
0.179343
0.175181
0.162454
0.149445
0.140962
0.136653
0.166507
0.163592
0.152422
0.140775
0.133243
0.129382
0.153487
0.152099
0.142599
0.132308
0.125701
0.122265
0.140406
0.140796
0.133079
0.124130
0.118405
0.115365
0.127285
0.129927
0.124067
0.116359
0.111429
0.108736
0.115001
0.120236
0.116006
0.109182
0.104866
0.102428
0.105810
0.113442
0.109640
0.102880
0.098794
0.096470
0.104501
0.112791
0.106375
0.097667
0.093288
0.090852
0.121263
0.123451
0.106938
0.093631
0.088209
0.085516
0.160618
0.146586
0.110776
0.089657
0.083611
0.080236
0.225099
0.176917
0.111895
0.085778
0.078553
0.074870
0.282170
0.204779
0.109599
0.079039
0.072990
0.069275
0.421279
0.238993
0.099578
0.071364
0.066803
0.063192
0.112951
0.069862
0.069555
0.059090
0.056863
0.082442
0.057171
0.064515
0.053099
0.049940
0.069311
0.054942
0.056752
0.047613
0.043025
0.055630
0.048481
0.050669
0.041151
0.036227
0.047730
0.043482
0.044871
0.034909
0.029254
0.046298
0.039040
0.039715
0.028984
0.022171
0.047418
0.033679
0.036211
0.024036
0.015509
0.050692
0.032425
0.034072
0.021696
0.010587
0.053663
0.033517
0.033481
0.022190
0.010118
0.053663
0.032476
0.035075
0.023972
0.013507
0.054501
0.032212
0.036547
0.026357
0.017339
0.058452
0.033238
0.038350
0.028341
0.020423
0.066449
0.035479
0.040308
0.029726
0.022316
0.081515
0.040109
0.042831
0.030035
0.022786
0.115373
0.053901
0.044290
0.028533
0.022050
0.279360
0.152804
0.052123
0.043338
0.026377
0.020080
0.117339
0.070816
0.022763
0.054007
0.024190
0.020200
0.143842
0.280165
0.090465
0.069378
0.032822
0.023437
0.123489
0.184039
0.080386
0.049670
0.033331
0.016755
0.099503
0.152609
0.072491
0.041832
0.030704
0.016682
0.080617
0.132185
0.067873
0.036129
0.027856
0.017928
0.067566
0.118093
0.066824
0.034712
0.027580
0.020955
0.062973
0.110135
0.069769
0.038613
0.031075
0.026227
0.068292
0.108914
0.076814
0.047045
0.038137
0.033746
0.081419
0.114445
0.087536
0.058415
0.047657
0.042945
0.098931
0.125665
0.101085
0.071418
0.058554
0.053132
0.117600
0.140721
0.116500
0.085119
0.069996
0.063701
0.134454
0.157224
0.132634
0.098744
0.081360
0.074176
0.145682
0.172267
0.148216
0.111564
0.092150
0.084246
0.146285
0.181944
0.161388
0.122795
0.102073
0.093802
0.136697
0.183861
0.170182
0.131769
0.111061
0.103031
0.114976
0.175950
0.172925
0.138238
0.119607
0.112393
0.097545
0.166061
0.172482
0.143941
0.128369
0.122576
0.105925
0.162114
0.175568
0.150554
0.139026
0.133932
0.169728
0.173846
0.178930
0.163710
0.152137
0.146374
0.346744
0.289511
0.216958
0.185799
0.166601
0.159316
0.445751
0.382827
0.277343
0.212080
0.182595
0.170712
0.421013
0.369172
0.272681
0.220302
0.192099
0.179206
0.393963
0.350068
0.266700
0.222889
0.195954
0.183780
0.368892
0.331479
0.261743
0.220902
0.196674
0.184867
0.345403
0.314190
0.255216
0.217361
0.194287
0.183443
0.323002
0.296896
0.246470
0.211376
0.190057
0.179962
0.301518
0.279617
0.236148
0.203937
0.184273
0.175034
0.280710
0.262547
0.224809
0.195378
0.177455
0.169039
0.261281
0.245888
0.212901
0.186209
0.169930
0.162316
0.242191
0.229673
0.200840
0.176655
0.161985
0.155115
0.224602
0.214119
0.188748
0.166968
0.153804
0.147637
0.207359
0.199084
0.176866
0.157248
0.145541
0.140027
0.191072
0.184646
0.165113
0.147610
0.137295
0.132397
0.175350
0.170641
0.153564
0.138120
0.129147
0.124831
0.159850
0.156941
0.142259
0.128829
0.121157
0.117396
0.144410
0.143412
0.131184
0.119774
0.113375
0.110152
0.128442
0.129857
0.120331
0.110990
0.105855
0.103155
0.111711
0.116171
0.109726
0.102551
0.098664
0.096472
0.093396
0.102399
0.099554
0.094585
0.091904
0.090178
0.073740
0.089385
0.090396
0.087367
0.085717
0.084369
0.055508
0.080253
0.083478
0.081333
0.080271
0.079124
0.056731
0.082949
0.081364
0.076979
0.075717
0.074492
0.092485
0.107592
0.086186
0.074450
0.071888
0.070450
0.198173
0.162994
0.096261
0.071737
0.069056
0.066740
0.331399
0.208815
0.095934
0.069737
0.066951
0.063122
0.323157
0.195401
0.078344
0.072973
0.061527
0.059801
0.206658
0.086470
0.074522
0.058179
0.056410
0.149721
0.085604
0.072111
0.054439
0.051256
0.119254
0.074870
0.068369
0.049856
0.046250
0.096154
0.071383
0.061518
0.045102
0.040451
0.080978
0.069884
0.054352
0.039760
0.033677
0.077353
0.070766
0.046954
0.034477
0.025985
0.085915
0.074824
0.039764
0.030774
0.017722
0.091372
0.074516
0.037761
0.028643
0.010802
0.084627
0.061321
0.040153
0.028174
0.009133
0.079579
0.051740
0.040619
0.028954
0.011975
0.078348
0.046236
0.040917
0.029891
0.015544
0.080824
0.042731
0.041302
0.030843
0.018489
0.088892
0.041359
0.041793
0.031616
0.020188
0.102785
0.041220
0.042441
0.031704
0.020599
0.143491
0.057881
0.040955
0.030971
0.019402
0.346610
0.164276
0.056180
0.043265
0.026357
0.017347
0.169445
0.105954
0.024759
0.053873
0.022690
0.018922
0.141459
0.286485
0.093953
0.074148
0.037125
0.029339
0.126061
0.188804
0.084701
0.054865
0.038534
0.024282
0.103752
0.156181
0.077151
0.048065
0.037174
0.025547
0.086299
0.135069
0.072520
0.043883
0.036115
0.028220
0.075123
0.120705
0.071474
0.043782
0.037590
0.032388
0.072533
0.112966
0.074554
0.048271
0.042147
0.038276
0.079361
0.112484
0.081916
0.056736
0.049569
0.045979
0.093849
0.119268
0.093152
0.068040
0.059162
0.055197
0.113184
0.132306
0.107503
0.081127
0.070127
0.065418
0.135141
0.149968
0.124042
0.095150
0.081755
0.076098
0.157129
0.170323
0.141895
0.109377
0.093424
0.086748
0.176515
0.191029
0.159918
0.123074
0.104610
0.096971
0.187244
0.208462
0.176675
0.135406
0.114855
0.106528
0.183026
0.217458
0.189647
0.145393
0.123899
0.115380
0.164658
0.214269
0.195733
0.152109
0.131766
0.123758
0.131926
0.195018
0.191786
0.155899
0.139163
0.132105
0.135449
0.181263
0.187913
0.160521
0.146933
0.140832
0.216028
0.200525
0.201738
0.170704
0.155993
0.150069
0.519317
0.407152
0.240573
0.190018
0.167903
0.159187
0.659247
0.550781
0.309501
0.222681
0.179852
0.167621
0.592776
0.503755
0.284219
0.229438
0.188383
0.173235
0.535780
0.462306
0.280902
0.224469
0.190795
0.175507
0.488267
0.425834
0.275092
0.221044
0.188419
0.174953
0.446717
0.393757
0.266629
0.214668
0.184506
0.172009
0.407916
0.362775
0.254798
0.206221
0.178758
0.167543
0.372328
0.334052
0.241785
0.196724
0.171894
0.161914
0.339361
0.306904
0.227839
0.186530
0.164306
0.155482
0.308811
0.281696
0.213832
0.176065
0.156292
0.148515
0.281089
0.258152
0.199737
0.165504
0.148054
0.141220
0.254872
0.236036
0.185859
0.155018
0.139744
0.133752
0.231174
0.215501
0.172137
0.144729
0.131461
0.126232
0.208747
0.196158
0.158697
0.134684
0.123286
0.118747
0.187791
0.177976
0.145677
0.124912
0.115273
0.111365
0.167979
0.160765
0.133150
0.115449
0.107463
0.104140
0.148908
0.144305
0.121041
0.106303
0.099889
0.097122
0.130588
0.128438
0.109278
0.097485
0.092589
0.090363
0.112265
0.112898
0.097820
0.088999
0.085615
0.083927
0.093655
0.097424
0.086637
0.080931
0.079045
0.077906
0.073367
0.081917
0.075919
0.073410
0.073030
0.072416
0.051499
0.067545
0.066370
0.066865
0.067766
0.067619
0.040249
0.060504
0.060061
0.061871
0.063552
0.063643
0.062007
0.075941
0.061043
0.059392
0.060553
0.060588
0.132509
0.122424
0.072695
0.059523
0.058869
0.058266
0.129784
0.173509
0.088504
0.063067
0.057760
0.056647
0.346871
0.203614
0.107012
0.067410
0.056768
0.055719
0.619091
0.309552
0.109362
0.069471
0.055958
0.053743
0.392035
0.242867
0.097435
0.069933
0.052208
0.049989
0.249530
0.173906
0.081120
0.067230
0.049042
0.046113
0.187787
0.133799
0.078224
0.061050
0.046185
0.041157
0.214341
0.126849
0.081329
0.054350
0.042954
0.035141
0.304634
0.157459
0.084895
0.047925
0.039793
0.027966
0.441745
0.218970
0.089830
0.042082
0.036415
0.020099
0.575384
0.280489
0.099027
0.037930
0.034264
0.011999
0.382822
0.203445
0.096127
0.042572
0.029962
0.007950
0.229238
0.133477
0.076173
0.047932
0.027285
0.009599
0.112171
0.093131
0.059063
0.046815
0.028251
0.011643
0.063519
0.085730
0.049677
0.044680
0.028761
0.014509
0.072022
0.089095
0.041792
0.043884
0.028448
0.016344
0.096184
0.107280
0.040161
0.042099
0.028342
0.016692
0.141589
0.125316
0.042759
0.043808
0.025666
0.015839
0.146177
0.075278
0.045975
0.047406
0.021753
0.014857
0.219704
0.128734
0.032481
0.055335
0.020564
0.017217
0.144303
0.294141
0.099112
0.080183
0.043266
0.036943
0.132136
0.194512
0.090550
0.061692
0.045442
0.033105
0.112118
0.161293
0.083682
0.056277
0.045449
0.035447
0.097410
0.140246
0.079670
0.053878
0.046145
0.039321
0.089403
0.126409
0.079265
0.055237
0.049172
0.044521
0.089458
0.119601
0.082882
0.060457
0.054699
0.051099
0.097787
0.120277
0.090636
0.069039
0.062526
0.059130
0.113102
0.128314
0.102194
0.080191
0.072189
0.068432
0.133736
0.142804
0.116906
0.093118
0.083107
0.078621
0.158227
0.162482
0.134062
0.107102
0.094685
0.089228
0.185477
0.186057
0.152913
0.121485
0.106352
0.099775
0.213230
0.211929
0.172729
0.135569
0.117561
0.109820
0.238848
0.237845
0.192269
0.148564
0.127789
0.118993
0.254095
0.258949
0.209758
0.159432
0.136544
0.127055
0.251191
0.268805
0.221815
0.166932
0.143481
0.133957
0.229225
0.260689
0.223394
0.169799
0.148882
0.139779
0.197060
0.226528
0.210010
0.171650
0.153235
0.144912
0.286880
0.255988
0.226435
0.177262
0.157733
0.149740
0.925712
0.680581
0.287136
0.193987
0.161844
0.154293
1.026670
0.950824
0.396768
0.221039
0.171045
0.157632
0.871381
0.870222
0.413141
0.229434
0.175968
0.159823
0.761532
0.753743
0.381879
0.223004
0.175539
0.159869
0.676734
0.658601
0.344117
0.211215
0.171712
0.157774
0.608632
0.584531
0.313103
0.199833
0.165815
0.154125
0.551908
0.522983
0.283732
0.188557
0.159127
0.149261
0.502349
0.471647
0.258187
0.177475
0.152014
0.143585
0.457628
0.426029
0.234349
0.166601
0.144598
0.137367
0.416000
0.385274
0.212901
0.156008
0.137002
0.130791
0.376744
0.347834
0.193014
0.145720
0.129330
0.123996
0.339591
0.313335
0.174888
0.135775
0.121659
0.117098
0.303879
0.281399
0.158364
0.126174
0.114060
0.110184
0.270395
0.251943
0.143269
0.116924
0.106581
0.103327
0.238738
0.224360
0.129253
0.108025
0.099264
0.096581
0.209479
0.198713
0.116188
0.099478
0.092143
0.089996
0.182580
0.174852
0.103914
0.091276
0.085254
0.083616
0.158027
0.152883
0.092398
0.083414
0.078630
0.077487
0.136718
0.132879
0.081519
0.075916
0.072316
0.071674
0.118230
0.115000
0.071274
0.068799
0.066387
0.066258
0.105700
0.099746
0.061595
0.062219
0.060947
0.061371
0.098617
0.088035
0.052946
0.056354
0.056205
0.057168
0.109396
0.083215
0.046411
0.051843
0.052406
0.053865
0.134773
0.089083
0.045080
0.049287
0.050027
0.051539
0.211326
0.118074
0.053256
0.050550
0.048912
0.050241
0.271132
0.158115
0.074299
0.053387
0.048983
0.049581
0.450588
0.238434
0.093423
0.056235
0.050258
0.048958
0.350456
0.199590
0.087334
0.062016
0.049508
0.048416
0.232985
0.165240
0.081076
0.061716
0.049885
0.046747
0.222494
0.174886
0.077250
0.058187
0.049079
0.043928
0.300216
0.205250
0.074882
0.054966
0.046833
0.040181
0.430496
0.247916
0.077181
0.051680
0.043751
0.035160
0.601227
0.306580
0.090921
0.045834
0.040615
0.029121
0.820002
0.351828
0.106510
0.033688
0.042352
0.022631
0.307941
0.136276
0.105179
0.034762
0.035991
0.015739
0.237337
0.201418
0.097503
0.047871
0.024354
0.013410
0.249241
0.147687
0.083842
0.052406
0.022831
0.011064
0.133232
0.092867
0.065520
0.050857
0.023800
0.010799
0.115522
0.081512
0.050581
0.048639
0.023518
0.012565
0.080883
0.075104
0.042536
0.045870
0.023356
0.013841
0.123918
0.096716
0.036619
0.045295
0.021944
0.014660
0.178168
0.109967
0.028795
0.048229
0.018906
0.014620
0.138130
0.089700
0.031242
0.050334
0.016445
0.012811
0.161319
0.094253
0.037009
0.056929
0.017787
0.015089
0.152374
0.302818
0.105900
0.087179
0.050612
0.045381
0.141489
0.200880
0.097732
0.069719
0.053475
0.042515
0.124102
0.167689
0.091705
0.065826
0.054840
0.045881
0.112855
0.147457
0.088790
0.065207
0.057189
0.050901
0.108453
0.134945
0.089492
0.068025
0.061620
0.057111
0.111315
0.129732
0.093973
0.074086
0.068077
0.064412
0.121228
0.131914
0.102242
0.082930
0.076356
0.072834
0.137399
0.141164
0.114006
0.093981
0.086115
0.082243
0.158985
0.156676
0.128762
0.106633
0.096910
0.092334
0.185469
0.177534
0.145934
0.120301
0.108239
0.102693
0.216687
0.203009
0.164974
0.134385
0.119575
0.112855
0.252777
0.232553
0.185283
0.148264
0.130363
0.122335
0.293143
0.265375
0.206204
0.161151
0.140017
0.130659
0.336486
0.299576
0.226496
0.172090
0.147903
0.137390
0.377515
0.330563
0.243996
0.179791
0.153404
0.142167
0.414943
0.354378
0.255478
0.182909
0.155773
0.144897
0.452008
0.371493
0.255536
0.179349
0.155658
0.145590
0.489146
0.371056
0.242583
0.174882
0.154869
0.144898
0.569958
0.439532
0.235326
0.181696
0.149064
0.144036
12.495000
0.525786
0.277283
0.191575
0.151899
0.142839
10.086100
0.410991
0.243755
0.186526
0.153553
0.140082
12.247400
0.357698
0.207268
0.172335
0.151573
0.138142
0.319980
0.196129
0.159422
0.146069
0.135430
0.292068
0.185425
0.151327
0.139526
0.131601
0.269310
0.176412
0.144218
0.133247
0.126945
0.249663
0.166403
0.137400
0.126943
0.121797
0.231775
0.156666
0.130379
0.120618
0.116301
0.214929
0.146510
0.123247
0.114214
0.110577
0.198742
0.136579
0.115979
0.107776
0.104708
0.182879
0.126571
0.108708
0.101334
0.098772
0.167274
0.116808
0.101465
0.094948
0.092831
0.151942
0.107082
0.094341
0.088651
0.086943
0.137053
0.097511
0.087349
0.082493
0.081155
0.122720
0.088149
0.080549
0.076506
0.075511
0.109071
0.079140
0.073974
0.070727
0.070054
0.096231
0.070504
0.067680
0.065195
0.064832
0.084340
0.062316
0.061695
0.059959
0.059900
0.073635
0.054626
0.056104
0.055073
0.055339
0.064347
0.047564
0.050954
0.050647
0.051249
0.056852
0.041412
0.046504
0.046796
0.047795
0.051464
0.036812
0.042936
0.043808
0.045117
0.048694
0.035117
0.041144
0.041774
0.043439
0.050637
0.038625
0.040738
0.041444
0.042578
0.055596
0.045363
0.044725
0.042025
0.042521
0.079571
0.066728
0.049416
0.043273
0.042930
0.100359
0.072372
0.050620
0.045491
0.042881
0.116919
0.068661
0.052100
0.046131
0.042511
0.140203
0.066298
0.051452
0.045532
0.041065
0.165408
0.064835
0.049607
0.043479
0.038380
0.193387
0.066495
0.047230
0.040227
0.034610
0.228457
0.077542
0.041553
0.037524
0.029865
0.282097
0.079855
0.032810
0.040689
0.025159
0.278010
0.183001
0.057015
0.033798
0.032021
0.019235
0.455094
0.220519
0.075124
0.046051
0.022172
0.018275
0.276771
0.148821
0.071634
0.048202
0.022851
0.011437
0.135969
0.087700
0.059390
0.048020
0.022579
0.008720
0.099620
0.067453
0.044753
0.046491
0.021945
0.008252
0.081292
0.063848
0.035301
0.044543
0.021346
0.008825
0.098669
0.070822
0.028202
0.044360
0.020120
0.009387
0.087962
0.064925
0.026284
0.045380
0.019181
0.008639
0.070628
0.048333
0.027025
0.048217
0.016886
0.007775
0.074090
0.054973
0.032860
0.057623
0.014788
0.012810
0.165570
0.312301
0.114176
0.094797
0.058537
0.054040
0.153747
0.207726
0.106009
0.078491
0.062104
0.052070
0.138874
0.175155
0.100831
0.076162
0.064828
0.056518
0.131198
0.156356
0.099281
0.077253
0.068749
0.062703
0.130280
0.145779
0.101353
0.081470
0.074486
0.069912
0.135768
0.142583
0.106883
0.088399
0.081823
0.077929
0.147247
0.146419
0.115733
0.097583
0.090546
0.086735
0.164216
0.156716
0.127613
0.108552
0.100374
0.096215
0.186314
0.172707
0.142106
0.120823
0.110938
0.106104
0.213599
0.193706
0.158737
0.133886
0.121794
0.116017
0.246554
0.219284
0.177008
0.147195
0.132433
0.125492
0.286212
0.249336
0.196407
0.160110
0.142279
0.134001
0.333995
0.283943
0.216327
0.171861
0.150666
0.140979
0.391294
0.322915
0.235855
0.181379
0.156850
0.145830
0.457591
0.364773
0.253257
0.187272
0.159922
0.148013
0.530230
0.405985
0.265217
0.187443
0.159109
0.147108
0.596086
0.437583
0.266163
0.179518
0.153928
0.143128
0.599586
0.435518
0.243331
0.163470
0.145999
0.136706
0.660634
0.430793
0.189912
0.155307
0.133695
0.130409
7.972040
0.358437
0.158612
0.154496
0.127182
0.124992
18.735200
0.329602
0.166666
0.141758
0.126015
0.118948
25.422400
0.280473
0.156810
0.131892
0.122778
0.115362
0.243437
0.143436
0.123943
0.118007
0.112018
0.214571
0.134993
0.115910
0.112895
0.108307
0.192174
0.127036
0.109652
0.107385
0.104251
0.173603
0.120128
0.104051
0.102085
0.099843
0.157677
0.112964
0.098781
0.096864
0.095225
0.143414
0.105972
0.093518
0.091711
0.090463
0.130339
0.098769
0.088240
0.086572
0.085620
0.118129
0.091609
0.082906
0.081466
0.080739
0.106664
0.084376
0.077583
0.076402
0.075869
0.095894
0.077256
0.072270
0.071422
0.071048
0.085719
0.070221
0.067037
0.066548
0.066320
0.076115
0.063397
0.061918
0.061819
0.061720
0.067095
0.056803
0.056980
0.057268
0.057291
0.058737
0.050537
0.052254
0.052939
0.053073
0.051157
0.044625
0.047817
0.048872
0.049122
0.044540
0.039202
0.043695
0.045135
0.045498
0.039120
0.034333
0.040028
0.041786
0.042297
0.035282
0.030316
0.036837
0.038971
0.039617
0.033240
0.027273
0.034503
0.036756
0.037623
0.033868
0.026111
0.032889
0.035502
0.036355
0.036705
0.026642
0.033243
0.035021
0.035929
0.044704
0.032154
0.034738
0.035725
0.036074
0.058103
0.039594
0.037125
0.037103
0.036402
0.072062
0.042106
0.039707
0.037838
0.036756
0.088417
0.045198
0.040160
0.038280
0.036536
0.107369
0.046848
0.039940
0.037786
0.035815
0.127419
0.046402
0.039255
0.036460
0.034447
0.149096
0.047126
0.036818
0.034853
0.032377
0.168733
0.039514
0.033936
0.033274
0.029301
0.187567
0.032801
0.032902
0.034473
0.026657
0.368357
0.226841
0.049483
0.032768
0.029087
0.023170
0.224843
0.158773
0.061860
0.041571
0.022857
0.021342
0.146952
0.102788
0.057724
0.045223
0.023278
0.016057
0.096632
0.068592
0.047537
0.045110
0.023381
0.011710
0.072936
0.051075
0.036319
0.043998
0.022416
0.008995
0.060335
0.043788
0.027217
0.043247
0.021581
0.007328
0.045744
0.041156
0.023596
0.043623
0.021074
0.006402
0.037653
0.037207
0.024364
0.045580
0.020205
0.005975
0.036590
0.031821
0.025854
0.048867
0.017778
0.005458
0.058222
0.045515
0.030219
0.058999
0.014175
0.011500
0.183671
0.322528
0.123788
0.102700
0.066490
0.062448
0.168521
0.215135
0.115079
0.087620
0.070859
0.061420
0.155620
0.183495
0.110673
0.086852
0.075003
0.067069
0.151110
0.166561
0.110609
0.089554
0.080448
0.074463
0.153186
0.158248
0.114136
0.095077
0.087403
0.082656
0.160868
0.157174
0.120742
0.102825
0.095541
0.091340
0.173557
0.162523
0.130122
0.112318
0.104632
0.100462
0.190819
0.173477
0.141954
0.123134
0.114425
0.109912
0.212437
0.189209
0.155830
0.134839
0.124590
0.119442
0.238376
0.208993
0.171276
0.146958
0.134704
0.128682
0.268916
0.232265
0.187729
0.158920
0.144251
0.137155
0.304330
0.258480
0.204465
0.170034
0.152611
0.144304
0.344566
0.286855
0.220490
0.179388
0.159056
0.149495
0.388210
0.315834
0.234270
0.185786
0.162705
0.152066
0.431394
0.342086
0.243120
0.187441
0.162688
0.151372
0.462132
0.356508
0.241842
0.182522
0.158180
0.146937
0.436419
0.340869
0.224847
0.169665
0.148778
0.138783
0.356532
0.298464
0.191370
0.148441
0.135758
0.127853
0.321662
0.286480
0.138345
0.133689
0.117823
0.117380
21.804000
0.284417
0.116699
0.122847
0.107290
0.108049
23.790700
0.240333
0.117657
0.111788
0.101933
0.099781
29.954200
0.217581
0.116480
0.103269
0.098415
0.094661
0.189856
0.109299
0.095488
0.094342
0.090940
0.166956
0.102086
0.089509
0.089589
0.087503
0.147695
0.095808
0.083916
0.085083
0.083903
0.131775
0.089750
0.079146
0.080616
0.080195
0.118088
0.084191
0.074751
0.076339
0.076372
0.106113
0.078562
0.070603
0.072169
0.072490
0.095344
0.073044
0.066516
0.068102
0.068579
0.085525
0.067439
0.062484
0.064100
0.064672
0.076461
0.061925
0.058475
0.060176
0.060796
0.068016
0.056465
0.054529
0.056336
0.056983
0.060118
0.051177
0.050655
0.052606
0.053260
0.052704
0.046040
0.046909
0.049007
0.049661
0.045808
0.041155
0.043310
0.045572
0.046216
0.039477
0.036533
0.039924
0.042330
0.042966
0.033870
0.032308
0.036766
0.039329
0.039950
0.029184
0.028515
0.033936
0.036603
0.037228
0.025843
0.025399
0.031427
0.034236
0.034857
0.024168
0.023010
0.029440
0.032263
0.032936
0.024789
0.021839
0.027874
0.030863
0.031522
0.027407
0.021761
0.027241
0.029999
0.030732
0.032668
0.023832
0.027264
0.029934
0.030523
0.040602
0.027140
0.028249
0.030540
0.030800
0.050409
0.030892
0.030328
0.031345
0.031378
0.063030
0.034674
0.031336
0.032338
0.031817
0.077052
0.036188
0.032305
0.032708
0.032058
0.092273
0.037167
0.032444
0.032573
0.031860
0.108959
0.037243
0.031542
0.032048
0.031253
0.125243
0.033634
0.030365
0.030937
0.030236
0.142192
0.031967
0.027960
0.030308
0.028763
0.171886
0.034187
0.030502
0.033017
0.027627
0.182779
0.162745
0.043626
0.036198
0.029257
0.025715
0.090394
0.102135
0.058862
0.041744
0.026997
0.024648
0.069892
0.081520
0.054632
0.044609
0.026933
0.021347
0.072064
0.066269
0.045492
0.045208
0.026581
0.017980
0.049334
0.047438
0.037170
0.044297
0.025866
0.014937
0.031205
0.035256
0.029847
0.044209
0.024830
0.012490
0.020676
0.030350
0.027376
0.045268
0.024034
0.010612
0.021912
0.029409
0.027753
0.047659
0.022883
0.009242
0.025589
0.028885
0.027816
0.051206
0.019974
0.008277
0.041144
0.037810
0.029025
0.061257
0.015326
0.013281
0.206389
0.333413
0.134703
0.110516
0.074061
0.070214
0.185570
0.223180
0.124618
0.096779
0.079358
0.070263
0.173600
0.192553
0.120946
0.097538
0.085021
0.077268
0.171450
0.177701
0.122344
0.101750
0.091961
0.085918
0.175771
0.171673
0.127264
0.108449
0.100045
0.095063
0.184941
0.172502
0.134825
0.116894
0.108865
0.104327
0.198105
0.178943
0.144558
0.126569
0.118186
0.113644
0.214700
0.189913
0.156059
0.137058
0.127775
0.122907
0.234244
0.204412
0.168872
0.147936
0.137315
0.131880
0.256296
0.221478
0.182425
0.158704
0.146387
0.140195
0.280084
0.240028
0.195968
0.168748
0.154456
0.147371
0.304369
0.258679
0.208475
0.177267
0.160878
0.152832
0.326781
0.275299
0.218430
0.183263
0.164882
0.155940
0.342535
0.286460
0.223730
0.185422
0.165655
0.156027
0.344169
0.286731
0.221291
0.182435
0.162349
0.152505
0.314157
0.268973
0.208976
0.172896
0.154405
0.145029
0.278786
0.243745
0.186494
0.156388
0.141974
0.133728
0.271764
0.233677
0.160650
0.134120
0.126063
0.119820
0.206697
0.232330
0.121371
0.117740
0.105760
0.106409
26.340400
0.225888
0.089317
0.105574
0.091352
0.094742
29.757700
0.191754
0.088497
0.088136
0.085072
0.084125
31.743000
0.168564
0.084685
0.080244
0.079555
0.078015
0.151914
0.082064
0.074060
0.075183
0.073777
0.134262
0.077437
0.068703
0.071143
0.070323
0.118897
0.072986
0.064421
0.067108
0.067126
0.105283
0.068617
0.060459
0.063419
0.063933
0.093476
0.064196
0.056922
0.059876
0.060763
0.083058
0.059865
0.053573
0.056518
0.057598
0.073796
0.055400
0.050413
0.053267
0.054464
0.065422
0.050993
0.047335
0.050133
0.051370
0.057733
0.046598
0.044335
0.047102
0.048333
0.050609
0.042341
0.041406
0.044181
0.045371
0.043954
0.038190
0.038580
0.041372
0.042507
0.037748
0.034246
0.035863
0.038698
0.039762
0.031979
0.030505
0.033307
0.036171
0.037163
0.026751
0.027093
0.030920
0.033826
0.034738
0.022216
0.024041
0.028776
0.031684
0.032525
0.018794
0.021556
0.026870
0.029797
0.030560
0.016964
0.019696
0.025325
0.028186
0.028902
0.017419
0.018789
0.024083
0.026946
0.027588
0.019956
0.018767
0.023384
0.026070
0.026700
0.024473
0.020022
0.023096
0.025700
0.026249
0.030614
0.022102
0.023445
0.025798
0.026248
0.038204
0.024930
0.024453
0.026278
0.026631
0.047783
0.027976
0.025456
0.027124
0.027170
0.058692
0.030198
0.026742
0.027773
0.027775
0.071166
0.032037
0.027277
0.028300
0.028192
0.084886
0.032529
0.027436
0.028517
0.028433
0.099135
0.031577
0.027215
0.028427
0.028495
0.114358
0.030812
0.026285
0.028480
0.028437
0.132754
0.030263
0.026865
0.028984
0.028263
0.159270
0.035515
0.032455
0.032444
0.029106
0.149505
0.157239
0.045149
0.037568
0.031371
0.028687
0.109663
0.110433
0.053739
0.044030
0.031277
0.028817
0.077167
0.084437
0.054388
0.046607
0.032207
0.026889
0.059333
0.070170
0.050785
0.047421
0.032070
0.024783
0.054000
0.058381
0.044311
0.047581
0.031209
0.022365
0.039964
0.046653
0.039369
0.047629
0.030138
0.019845
0.033596
0.039524
0.036033
0.048822
0.028761
0.017459
0.030422
0.035229
0.034209
0.050909
0.026951
0.015266
0.035067
0.033030
0.031322
0.054068
0.023431
0.013553
0.043757
0.037045
0.027228
0.064163
0.018219
0.017063
0.233405
0.345014
0.146801
0.117985
0.080959
0.077052
0.204819
0.231850
0.134373
0.105676
0.087329
0.078349
0.192209
0.202235
0.131430
0.107920
0.094604
0.086867
0.191309
0.189431
0.134150
0.113544
0.103009
0.096820
0.196910
0.185419
0.140284
0.121261
0.112118
0.106863
0.206649
0.187675
0.148567
0.130225
0.121469
0.116590
0.219325
0.194569
0.158362
0.139884
0.130838
0.125941
0.234094
0.204780
0.169173
0.149810
0.140008
0.134825
0.250177
0.217098
0.180447
0.159561
0.148675
0.143020
0.266549
0.230278
0.191501
0.168612
0.156421
0.150170
0.281959
0.242938
0.201441
0.176303
0.162718
0.155804
0.294486
0.253303
0.209089
0.181833
0.166928
0.159369
0.301485
0.259231
0.213029
0.184222
0.168357
0.160267
0.300839
0.258507
0.211552
0.182515
0.166278
0.157919
0.289663
0.249920
0.203915
0.175720
0.160111
0.151873
0.283555
0.239325
0.189706
0.163361
0.149573
0.141958
0.268483
0.225472
0.170501
0.145300
0.135021
0.128577
0.206177
0.196298
0.143472
0.123438
0.117643
0.112962
0.117975
0.190696
0.100035
0.107302
0.096459
0.098021
38.284300
0.190865
0.073094
0.090869
0.081444
0.084652
27.579600
0.158746
0.066265
0.072859
0.072057
0.072920
29.913000
0.140163
0.063639
0.062771
0.065798
0.065460
0.124534
0.060656
0.057302
0.060698
0.060627
0.111631
0.058518
0.052993
0.056721
0.056995
0.098785
0.055805
0.049326
0.053288
0.053925
0.087201
0.053102
0.046283
0.050090
0.051130
0.076713
0.050076
0.043420
0.047232
0.048434
0.067492
0.046612
0.040885
0.044476
0.045853
0.059308
0.043007
0.038485
0.041881
0.043343
0.051905
0.039365
0.036184
0.039428
0.040903
0.045119
0.035826
0.033960
0.037105
0.038540
0.038813
0.032357
0.031832
0.034900
0.036266
0.032924
0.029065
0.029796
0.032817
0.034092
0.027391
0.025936
0.027888
0.030859
0.032036
0.022250
0.023092
0.026110
0.029046
0.030114
0.017568
0.020560
0.024520
0.027390
0.028352
0.013684
0.018524
0.023112
0.025924
0.026773
0.011217
0.017049
0.021970
0.024663
0.025413
0.011269
0.016384
0.021062
0.023659
0.024299
0.013803
0.016493
0.020516
0.022915
0.023478
0.018144
0.017544
0.020258
0.022506
0.022970
0.023623
0.019242
0.020420
0.022418
0.022802
0.030086
0.021570
0.020980
0.022651
0.022962
0.037782
0.024182
0.021739
0.023198
0.023368
0.046694
0.026595
0.022770
0.023849
0.023955
0.057190
0.028625
0.023468
0.024570
0.024559
0.068863
0.029625
0.024124
0.025104
0.025182
0.081483
0.029759
0.024438
0.025577
0.025780
0.095019
0.029496
0.024517
0.026135
0.026449
0.110019
0.028884
0.025005
0.026988
0.027274
0.127678
0.029643
0.026965
0.028725
0.028261
0.154540
0.035405
0.033491
0.033655
0.030447
0.109466
0.147500
0.042419
0.040174
0.033621
0.031612
0.089911
0.110086
0.056685
0.045905
0.035460
0.032944
0.086413
0.095011
0.058035
0.049592
0.037295
0.032562
0.076214
0.081109
0.056494
0.051470
0.037985
0.031566
0.064014
0.069972
0.053391
0.052130
0.037562
0.029864
0.057995
0.060823
0.049118
0.052653
0.036313
0.027536
0.049612
0.052287
0.045441
0.053405
0.034512
0.024777
0.044723
0.044889
0.041291
0.054886
0.031884
0.021887
0.037428
0.036804
0.035754
0.057422
0.027749
0.019420
0.039301
0.033300
0.025238
0.067626
0.022291
0.021775
0.264259
0.357624
0.159982
0.124993
0.086954
0.082768
0.226184
0.241299
0.144257
0.114094
0.094573
0.085488
0.211048
0.212470
0.141908
0.117792
0.103536
0.095671
0.210044
0.201435
0.145770
0.124705
0.113372
0.106957
0.215819
0.198949
0.152858
0.133264
0.123384
0.117827
0.225142
0.201991
0.161554
0.142537
0.133091
0.127875
0.236415
0.208644
0.171075
0.151950
0.142303
0.137079
0.248551
0.217408
0.180836
0.161066
0.150833
0.145381
0.260549
0.226968
0.190232
0.169441
0.158401
0.152591
0.271425
0.236070
0.198541
0.176551
0.164615
0.158380
0.279918
0.243387
0.204908
0.181776
0.168982
0.162318
0.284934
0.247694
0.208395
0.184398
0.170946
0.163911
0.285819
0.247937
0.208011
0.183711
0.169910
0.162651
0.281569
0.243630
0.203241
0.178970
0.165345
0.158091
0.275963
0.235715
0.193230
0.169691
0.156868
0.149944
0.251703
0.218676
0.177748
0.155464
0.144422
0.138256
0.208331
0.191038
0.154764
0.136616
0.128562
0.123565
0.169314
0.167946
0.125288
0.114509
0.110645
0.107149
0.084612
0.167044
0.087823
0.096999
0.089696
0.091531
40.300500
0.166337
0.059991
0.080785
0.073748
0.077542
29.612100
0.138055
0.052037
0.061252
0.063578
0.064806
20.202300
0.120282
0.047797
0.051066
0.055659
0.056594
0.107564
0.045569
0.045075
0.050092
0.051002
0.096269
0.043031
0.041480
0.045802
0.047085
0.085855
0.041990
0.038203
0.042785
0.043964
0.075304
0.041205
0.035268
0.040310
0.041300
0.065873
0.039078
0.033274
0.037753
0.039006
0.057646
0.036178
0.031476
0.035452
0.036878
0.050263
0.033188
0.029742
0.033372
0.034862
0.043534
0.030254
0.028069
0.031465
0.032943
0.037301
0.027372
0.026484
0.029694
0.031116
0.031482
0.024644
0.024978
0.028049
0.029382
0.025983
0.022051
0.023578
0.026519
0.027750
0.020785
0.019715
0.022282
0.025113
0.026226
0.015860
0.017658
0.021132
0.023833
0.024828
0.011358
0.016053
0.020127
0.022701
0.023570
0.007723
0.014960
0.019323
0.021728
0.022477
0.006644
0.014573
0.018705
0.020946
0.021566
0.009096
0.014858
0.018346
0.020360
0.020869
0.013527
0.015886
0.018204
0.020012
0.020400
0.018818
0.017441
0.018352
0.019895
0.020182
0.024780
0.019492
0.018758
0.020022
0.020217
0.031502
0.021807
0.019371
0.020382
0.020482
0.039039
0.024235
0.020226
0.020885
0.020955
0.047682
0.026671
0.021015
0.021523
0.021565
0.057791
0.028283
0.021715
0.022271
0.022265
0.069431
0.028296
0.022065
0.023062
0.022970
0.081603
0.027612
0.022544
0.023731
0.023867
0.094306
0.027512
0.023296
0.024688
0.025106
0.108475
0.027797
0.024554
0.026359
0.026707
0.126221
0.028920
0.027413
0.029160
0.028640
0.151798
0.034442
0.034723
0.034946
0.031996
0.096821
0.145833
0.041956
0.041599
0.036224
0.034402
0.091760
0.111858
0.056878
0.048569
0.039106
0.036989
0.086991
0.099365
0.062468
0.053069
0.042202
0.037960
0.085106
0.090875
0.063163
0.056048
0.043812
0.038109
0.080532
0.082015
0.061470
0.057564
0.043996
0.037144
0.072008
0.073175
0.058550
0.058191
0.042878
0.035083
0.065349
0.064538
0.054234
0.058668
0.040634
0.032109
0.055079
0.054474
0.048813
0.059334
0.037338
0.028607
0.046191
0.042952
0.040792
0.061169
0.032622
0.025415
0.039199
0.030713
0.023954
0.071798
0.026982
0.026842
0.298281
0.371496
0.174235
0.131475
0.091907
0.087216
0.249524
0.251727
0.154207
0.121918
0.100945
0.091549
0.229865
0.223191
0.152253
0.127016
0.111674
0.103541
0.227285
0.213436
0.157017
0.135083
0.122890
0.116175
0.232118
0.211849
0.164757
0.144291
0.133672
0.127784
0.240164
0.215014
0.173538
0.153656
0.143554
0.138002
0.249421
0.220828
0.182466
0.162602
0.152406
0.146875
0.258665
0.227754
0.190930
0.170711
0.160099
0.154410
0.266976
0.234539
0.198335
0.177569
0.166402
0.160465
0.273444
0.240091
0.204059
0.182712
0.170978
0.164769
0.277476
0.243527
0.207440
0.185615
0.173415
0.166959
0.278319
0.243998
0.207813
0.185744
0.173249
0.166630
0.275008
0.240855
0.204648
0.182531
0.170038
0.163390
0.267453
0.233411
0.197085
0.175520
0.163407
0.156934
0.246859
0.218406
0.184642
0.164269
0.153150
0.147154
0.222287
0.197968
0.166162
0.148697
0.139404
0.134235
0.195723
0.176448
0.142876
0.129023
0.122864
0.118841
0.139889
0.150379
0.114931
0.106919
0.104701
0.102215
0.080963
0.150932
0.077083
0.089789
0.084160
0.086486
42.893900
0.150611
0.052990
0.072469
0.068747
0.072218
27.111300
0.123864
0.042180
0.053772
0.057380
0.059312
15.450700
0.107411
0.037993
0.042793
0.048969
0.050393
0.095554
0.034443
0.036966
0.042531
0.044263
0.087229
0.030703
0.033902
0.037684
0.040047
0.072946
0.030745
0.030484
0.034882
0.036729
0.058741
0.032055
0.027669
0.032849
0.034092
0.051157
0.030051
0.026259
0.030543
0.032035
0.011500
0.044242
0.027668
0.025009
0.028637
0.030230
0.010965
0.038204
0.025323
0.023759
0.027017
0.028587
0.010154
0.032630
0.022992
0.022592
0.025565
0.027071
0.009454
0.027508
0.020797
0.021482
0.024251
0.025659
0.008692
0.022697
0.018702
0.020462
0.023045
0.024342
0.008034
0.018205
0.016835
0.019522
0.021945
0.023120
0.007440
0.013997
0.015210
0.018696
0.020948
0.021999
0.006941
0.010224
0.013988
0.017982
0.020066
0.020988
0.006589
0.007284
0.013220
0.017422
0.019306
0.020102
0.006325
0.006402
0.013055
0.017009
0.018693
0.019358
0.006281
0.008257
0.013458
0.016789
0.018234
0.018775
0.006341
0.011755
0.014448
0.016742
0.017954
0.018368
0.006703
0.016003
0.015857
0.016904
0.017856
0.018152
0.007223
0.020767
0.017642
0.017256
0.017945
0.018133
0.008096
0.026024
0.019633
0.017777
0.018215
0.018304
0.009142
0.031815
0.021767
0.018480
0.018614
0.018659
0.010383
0.038236
0.023921
0.019225
0.019128
0.019163
0.011484
0.045487
0.025946
0.020087
0.019680
0.019834
0.011965
0.053788
0.027550
0.020952
0.020328
0.020707
0.007298
0.068880
0.026092
0.020864
0.021610
0.021407
0.084609
0.024506
0.021531
0.022658
0.022569
0.095464
0.025843
0.022722
0.023908
0.024343
0.109042
0.026862
0.024574
0.026276
0.026589
0.126338
0.028234
0.028124
0.029836
0.029340
0.151490
0.033838
0.035809
0.036543
0.033625
0.079123
0.144027
0.041535
0.043534
0.038675
0.037178
0.086600
0.113363
0.059107
0.051078
0.042765
0.040901
0.094136
0.104903
0.066094
0.056938
0.046894
0.043136
0.094489
0.098448
0.069297
0.060937
0.049535
0.044350
0.091626
0.092231
0.069446
0.063220
0.050355
0.044145
0.087077
0.084864
0.067104
0.064143
0.049448
0.042407
0.078001
0.075707
0.062908
0.064232
0.046963
0.039304
0.067682
0.064533
0.056336
0.064238
0.043057
0.035293
0.052091
0.049181
0.046727
0.065328
0.037879
0.031378
0.037056
0.028272
0.025811
0.076842
0.031991
0.031960
0.334703
0.386941
0.189568
0.137455
0.095757
0.090315
0.274716
0.263274
0.164161
0.129106
0.106380
0.096461
0.248561
0.234313
0.162391
0.135524
0.118941
0.110402
0.242944
0.225212
0.167785
0.144603
0.131476
0.124385
0.245832
0.223875
0.175861
0.154270
0.142890
0.136636
0.251957
0.226575
0.184419
0.163524
0.152770
0.146873
0.258939
0.231160
0.192514
0.171820
0.161083
0.155249
0.265460
0.236138
0.199559
0.178794
0.167787
0.161860
0.270617
0.240408
0.205060
0.184104
0.172729
0.166646
0.273824
0.243119
0.208520
0.187379
0.175657
0.169415
0.274225
0.243459
0.209450
0.188223
0.176252
0.169893
0.271190
0.240790
0.207358
0.186209
0.174175
0.167780
0.263903
0.234249
0.201599
0.180956
0.169106
0.162810
0.249192
0.222499
0.191774
0.172076
0.160819
0.154822
0.232925
0.207106
0.177217
0.159382
0.149271
0.143835
0.208354
0.187468
0.158458
0.142835
0.134717
0.130176
0.169777
0.161832
0.134979
0.123045
0.117850
0.114546
0.134216
0.140648
0.106498
0.101574
0.099871
0.098089
0.096423
0.144001
0.072513
0.084021
0.080195
0.082577
41.182900
0.140730
0.049303
0.067095
0.065074
0.068480
23.639500
0.114536
0.038026
0.048662
0.053517
0.055529
18.071000
0.098360
0.032082
0.037990
0.044406
0.046325
0.087418
0.028251
0.031694
0.037608
0.039669
0.080054
0.023308
0.028692
0.032349
0.035120
0.063262
0.023931
0.024874
0.029565
0.031507
0.045141
0.025579
0.022734
0.027557
0.028931
0.037674
0.023632
0.021639
0.025436
0.026966
0.015958
0.031829
0.021782
0.020709
0.023868
0.025376
0.013846
0.026835
0.019956
0.019869
0.022595
0.024014
0.011699
0.022433
0.018245
0.019057
0.021508
0.022804
0.009713
0.018463
0.016614
0.018313
0.020536
0.021711
0.007839
0.014886
0.015178
0.017620
0.019660
0.020710
0.006193
0.011713
0.013940
0.017007
0.018865
0.019795
0.004827
0.009160
0.013041
0.016470
0.018158
0.018966
0.004041
0.007627
0.012512
0.016042
0.017542
0.018233
0.004085
0.007711
0.012471
0.015725
0.017037
0.017607
0.004995
0.009319
0.012882
0.015553
0.016652
0.017104
0.006418
0.011909
0.013760
0.015518
0.016411
0.016739
0.008167
0.015034
0.014978
0.015648
0.016319
0.016527
0.010102
0.018514
0.016498
0.015928
0.016386
0.016476
0.012215
0.022315
0.018188
0.016355
0.016608
0.016585
0.014396
0.026403
0.020007
0.016921
0.016961
0.016852
0.016640
0.030902
0.021843
0.017563
0.017421
0.017258
0.018592
0.035862
0.023640
0.018290
0.017934
0.017806
0.020113
0.041651
0.025295
0.019084
0.018482
0.018520
0.019557
0.049465
0.026953
0.019950
0.019166
0.019545
0.011553
0.069049
0.024121
0.019484
0.020794
0.020226
0.088119
0.021776
0.020970
0.022164
0.021791
0.097705
0.024585
0.022542
0.023616
0.024001
0.110600
0.026371
0.024955
0.026539
0.026843
0.127759
0.028166
0.029007
0.030832
0.030303
0.152529
0.033669
0.037303
0.038211
0.035448
0.068969
0.144879
0.042359
0.045611
0.041281
0.040015
0.088347
0.115961
0.061126
0.054130
0.046372
0.044805
0.098165
0.109541
0.070551
0.060955
0.051604
0.048170
0.103623
0.106174
0.075392
0.066069
0.055144
0.050386
0.103937
0.101729
0.076921
0.069082
0.056652
0.050898
0.099132
0.095431
0.075572
0.070273
0.056000
0.049517
0.091598
0.086699
0.071297
0.070149
0.053358
0.046354
0.078480
0.074303
0.064210
0.069497
0.048991
0.041896
0.061479
0.057157
0.053525
0.069956
0.043394
0.037253
0.038062
0.029688
0.032499
0.082978
0.037164
0.036993
0.372697
0.404241
0.205952
0.143023
0.098506
0.092043
0.301571
0.276056
0.174099
0.135659
0.110880
0.100218
0.267190
0.245750
0.172275
0.143311
0.125324
0.116241
0.257187
0.236630
0.178033
0.153260
0.139110
0.131564
0.257282
0.234943
0.186149
0.163209
0.151020
0.144358
0.261063
0.236735
0.194226
0.172174
0.160737
0.154474
0.265673
0.239852
0.201320
0.179682
0.168362
0.162206
0.269661
0.242914
0.206923
0.185454
0.173969
0.167775
0.272158
0.244928
0.210636
0.189246
0.177512
0.171227
0.272315
0.245090
0.212091
0.190793
0.178837
0.172470
0.269738
0.242809
0.210892
0.189800
0.177737
0.171332
0.263519
0.237335
0.206609
0.185979
0.173982
0.167627
0.252835
0.228165
0.198921
0.179032
0.167383
0.161211
0.239750
0.215733
0.187408
0.168774
0.157844
0.152045
0.218359
0.198606
0.172175
0.155097
0.145434
0.140278
0.191914
0.177293
0.152660
0.138229
0.130492
0.126299
0.164944
0.155818
0.129397
0.118660
0.113768
0.110806
0.129375
0.136075
0.103239
0.097798
0.096262
0.094816
0.128662
0.144494
0.070863
0.080816
0.077408
0.079760
35.432700
0.136092
0.050801
0.063621
0.063005
0.065931
23.282200
0.108458
0.037538
0.046206
0.051109
0.053190
15.855500
0.092254
0.030802
0.035431
0.041794
0.043753
0.081260
0.025861
0.029055
0.034528
0.036748
0.073894
0.021745
0.025187
0.029262
0.031742
0.058851
0.021064
0.021663
0.026117
0.027944
0.042061
0.022104
0.019984
0.023949
0.025323
0.033981
0.020311
0.019068
0.021961
0.023389
0.013874
0.028411
0.018733
0.018309
0.020626
0.021926
0.011882
0.023751
0.017346
0.017686
0.019623
0.020760
0.009994
0.019755
0.016061
0.017129
0.018795
0.019781
0.008218
0.016237
0.014922
0.016601
0.018076
0.018925
0.006659
0.013173
0.013932
0.016121
0.017427
0.018159
0.005339
0.010661
0.013190
0.015682
0.016842
0.017467
0.004469
0.008948
0.012719
0.015312
0.016318
0.016845
0.004229
0.008451
0.012619
0.015014
0.015869
0.016301
0.004757
0.009305
0.012879
0.014818
0.015508
0.015846
0.005845
0.011251
0.013533
0.014729
0.015255
0.015497
0.007312
0.013867
0.014500
0.014772
0.015125
0.015269
0.008998
0.016925
0.015757
0.014944
0.015135
0.015175
0.010866
0.020313
0.017200
0.015253
0.015289
0.015223
0.012828
0.023982
0.018791
0.015691
0.015579
0.015414
0.014864
0.027981
0.020439
0.016230
0.015991
0.015739
0.016784
0.032337
0.022105
0.016866
0.016487
0.016196
0.018468
0.037288
0.023709
0.017568
0.017035
0.016788
0.019414
0.043225
0.025358
0.018380
0.017632
0.017587
0.018820
0.052137
0.026680
0.019264
0.018448
0.018731
0.012692
0.072262
0.023218
0.018915
0.020262
0.019540
0.090891
0.021074
0.020645
0.021985
0.021385
0.100185
0.024309
0.022728
0.023713
0.024022
0.112832
0.026718
0.025663
0.027164
0.027422
0.129954
0.028909
0.030298
0.032088
0.031566
0.154913
0.034641
0.039188
0.040145
0.037513
0.059068
0.146614
0.044088
0.048261
0.044056
0.043034
0.090047
0.119366
0.064457
0.057479
0.050201
0.048799
0.105619
0.115293
0.075291
0.065412
0.056362
0.053195
0.113229
0.113675
0.081744
0.071434
0.060801
0.056305
0.114806
0.111049
0.084620
0.075181
0.062911
0.057492
0.112199
0.105902
0.083886
0.076652
0.062568
0.056461
0.103815
0.097293
0.079865
0.076354
0.059840
0.053287
0.090849
0.084664
0.072434
0.075198
0.055086
0.048426
0.070945
0.066239
0.061531
0.075119
0.049140
0.043019
0.044299
0.037185
0.043747
0.090412
0.042445
0.041869
0.411458
0.423579
0.223301
0.148312
0.100206
0.092426
0.329833
0.290131
0.184027
0.141616
0.114498
0.102867
0.285904
0.257454
0.181897
0.150419
0.130864
0.121100
0.270347
0.247649
0.187779
0.161105
0.145827
0.137746
0.266958
0.245114
0.195675
0.171177
0.158105
0.150986
0.268050
0.245655
0.203062
0.179704
0.167516
0.160850
0.270240
0.247172
0.209040
0.186317
0.174330
0.167815
0.271825
0.248323
0.213185
0.190853
0.178766
0.172255
0.271766
0.248206
0.215213
0.193172
0.180902
0.174344
0.269590
0.246184
0.214835
0.193119
0.180703
0.174105
0.264412
0.241603
0.211783
0.190514
0.178067
0.171481
0.256206
0.234222
0.205808
0.185167
0.172884
0.166398
0.244896
0.223793
0.196656
0.176935
0.165077
0.158828
0.227693
0.209474
0.184247
0.165716
0.154662
0.148846
0.208539
0.192199
0.168219
0.151586
0.141809
0.136683
0.185334
0.172826
0.149093
0.134720
0.126924
0.122775
0.156950
0.151914
0.127107
0.115788
0.110650
0.107760
0.140234
0.137707
0.102573
0.096090
0.093867
0.092472
0.155741
0.150929
0.073937
0.079419
0.075998
0.078008
32.187500
0.135233
0.054804
0.062473
0.062123
0.064542
19.622500
0.105089
0.040806
0.045555
0.050161
0.051972
10.036300
0.088079
0.032137
0.034981
0.040491
0.042396
0.076759
0.026841
0.028112
0.033014
0.035034
0.069042
0.022428
0.023796
0.027474
0.029668
0.054479
0.020992
0.020165
0.024089
0.025625
0.038904
0.020639
0.018912
0.021613
0.022932
0.031522
0.018912
0.017851
0.019733
0.020957
0.012875
0.026045
0.017396
0.017164
0.018520
0.019560
0.011105
0.021793
0.016223
0.016619
0.017692
0.018519
0.009468
0.018185
0.015219
0.016175
0.017042
0.017699
0.007991
0.015129
0.014361
0.015774
0.016490
0.017015
0.006710
0.012571
0.013672
0.015396
0.015995
0.016416
0.005712
0.010632
0.013176
0.015051
0.015540
0.015879
0.005099
0.009545
0.012947
0.014742
0.015128
0.015397
0.005022
0.009532
0.013001
0.014494
0.014767
0.014973
0.005506
0.010617
0.013389
0.014316
0.014478
0.014620
0.006480
0.012543
0.014080
0.014235
0.014278
0.014356
0.007801
0.015066
0.015072
0.014259
0.014190
0.014198
0.009391
0.018013
0.016295
0.014408
0.014233
0.014162
0.011163
0.021299
0.017718
0.014685
0.014415
0.014259
0.013077
0.024914
0.019268
0.015084
0.014736
0.014492
0.015022
0.028860
0.020904
0.015603
0.015179
0.014861
0.016901
0.033263
0.022563
0.016218
0.015718
0.015361
0.018497
0.038303
0.024250
0.016943
0.016324
0.016015
0.019512
0.044660
0.025927
0.017802
0.017021
0.016900
0.019595
0.053719
0.027298
0.018839
0.017982
0.018185
0.014299
0.074326
0.023794
0.018654
0.020015
0.019162
0.093469
0.021640
0.020866
0.022000
0.021327
0.102686
0.025206
0.023297
0.024160
0.024376
0.115402
0.028034
0.026786
0.028135
0.028330
0.132798
0.030915
0.032051
0.033704
0.033164
0.158403
0.036873
0.041681
0.042368
0.039907
0.056730
0.150128
0.047298
0.051487
0.047166
0.046331
0.095798
0.124082
0.068718
0.061418
0.054297
0.052988
0.113799
0.121615
0.080870
0.070276
0.061350
0.058297
0.123105
0.121919
0.088762
0.077208
0.066542
0.062209
0.127170
0.120692
0.092499
0.081561
0.069257
0.063993
0.124480
0.116338
0.092551
0.083352
0.069191
0.063306
0.116870
0.108217
0.088740
0.082945
0.066442
0.060145
0.103175
0.095442
0.081278
0.081370
0.061371
0.054905
0.083274
0.077330
0.070901
0.080930
0.055101
0.048679
0.055156
0.049613
0.058489
0.099302
0.047825
0.046554
0.450272
0.444974
0.241451
0.153461
0.100940
0.091522
0.359176
0.305516
0.193971
0.147033
0.117323
0.104494
0.304894
0.269417
0.191271
0.156921
0.135637
0.125064
0.282833
0.258313
0.197078
0.168224
0.151706
0.143009
0.275354
0.254517
0.204534
0.178278
0.164228
0.156597
0.273481
0.253558
0.211059
0.186237
0.173203
0.166088
0.273128
0.253327
0.215816
0.191869
0.179099
0.172177
0.272362
0.252595
0.218496
0.195135
0.182306
0.175417
0.270206
0.250534
0.218898
0.196026
0.183046
0.176132
0.265746
0.246513
0.216881
0.194498
0.181404
0.174474
0.259052
0.240302
0.212286
0.190483
0.177399
0.170503
0.249258
0.231417
0.204980
0.183914
0.171030
0.164262
0.235875
0.219622
0.194841
0.174740
0.162328
0.155827
0.220673
0.205359
0.181733
0.162991
0.151406
0.145370
0.200491
0.188393
0.165964
0.148750
0.138510
0.133191
0.178702
0.169778
0.147446
0.132395
0.124032
0.119718
0.159984
0.153078
0.126899
0.114469
0.108571
0.105480
0.149705
0.142243
0.105470
0.096009
0.092729
0.091088
0.190213
0.162767
0.079562
0.080130
0.075795
0.077305
26.264900
0.137502
0.061282
0.063040
0.062458
0.064176
16.275200
0.103707
0.045531
0.046630
0.050295
0.051745
12.064200
0.085575
0.035547
0.035825
0.040348
0.041963
0.073590
0.029064
0.028642
0.032483
0.034277
0.065536
0.024463
0.023656
0.026747
0.028527
0.051414
0.021884
0.019961
0.022998
0.024256
0.014851
0.036559
0.020507
0.018643
0.020279
0.021421
0.029670
0.018450
0.017476
0.018373
0.019387
0.012115
0.024607
0.017015
0.016667
0.017239
0.018000
0.010601
0.020604
0.015885
0.016144
0.016492
0.017035
0.009199
0.017381
0.015038
0.015729
0.015953
0.016321
0.007993
0.014696
0.014348
0.015381
0.015506
0.015754
0.006973
0.012563
0.013824
0.015058
0.015106
0.015272
0.006201
0.011049
0.013480
0.014751
0.014733
0.014840
0.005737
0.010329
0.013348
0.014469
0.014381
0.014448
0.005675
0.010540
0.013475
0.014219
0.014062
0.014095
0.006058
0.011650
0.013870
0.014023
0.013792
0.013794
0.006869
0.013506
0.014554
0.013898
0.013595
0.013562
0.008048
0.015924
0.015500
0.013868
0.013497
0.013423
0.009520
0.018786
0.016695
0.013951
0.013522
0.013397
0.011232
0.022033
0.018088
0.014162
0.013692
0.013502
0.013104
0.025638
0.019646
0.014515
0.014010
0.013750
0.015054
0.029652
0.021315
0.014999
0.014472
0.014144
0.016959
0.034149
0.023061
0.015627
0.015056
0.014691
0.018623
0.039419
0.024855
0.016388
0.015747
0.015415
0.019946
0.045958
0.026678
0.017377
0.016569
0.016408
0.020433
0.055283
0.028269
0.018550
0.017733
0.017851
0.016238
0.076723
0.024781
0.018790
0.019959
0.019052
0.096057
0.022973
0.021448
0.022264
0.021552
0.105310
0.026996
0.024279
0.024898
0.025043
0.118258
0.030402
0.028354
0.029466
0.029577
0.136200
0.034140
0.034354
0.035711
0.035127
0.163039
0.040721
0.044844
0.044974
0.042686
0.064530
0.155251
0.051964
0.055426
0.050671
0.049973
0.103663
0.129963
0.074303
0.065988
0.058791
0.057437
0.123356
0.129318
0.087604
0.075709
0.066607
0.063557
0.135357
0.130964
0.096240
0.083411
0.072507
0.068150
0.138815
0.130740
0.101176
0.088395
0.075713
0.070468
0.137698
0.127323
0.101665
0.090437
0.075956
0.070095
0.130347
0.119599
0.098139
0.090005
0.073210
0.066969
0.116889
0.107263
0.091033
0.088134
0.067872
0.061365
0.097353
0.090290
0.081829
0.087501
0.061295
0.054241
0.072407
0.066846
0.076264
0.109773
0.053325
0.051018
0.488558
0.468255
0.260169
0.158586
0.100807
0.089410
0.389233
0.322166
0.203958
0.151974
0.119466
0.105219
0.324324
0.281668
0.200428
0.162905
0.139748
0.128245
0.295028
0.268708
0.206002
0.174720
0.156844
0.147455
0.282956
0.263323
0.212833
0.184626
0.169489
0.161289
0.277790
0.260628
0.218336
0.191895
0.177899
0.170286
0.274835
0.258577
0.221779
0.196450
0.182775
0.175392
0.271811
0.255950
0.222955
0.198414
0.184697
0.177364
0.267461
0.252021
0.221820
0.197907
0.184043
0.176695
0.261554
0.246435
0.218321
0.195015
0.181041
0.173678
0.253038
0.238666
0.212434
0.189788
0.175824
0.168499
0.242327
0.228751
0.204098
0.182261
0.168501
0.161310
0.229225
0.216597
0.193336
0.172482
0.159202
0.152292
0.212513
0.202098
0.180233
0.160536
0.148124
0.141695
0.195734
0.186281
0.164730
0.146661
0.135542
0.129854
0.177369
0.170155
0.147539
0.131107
0.121860
0.117161
0.162169
0.155986
0.129071
0.114526
0.107476
0.103983
0.167772
0.150996
0.110369
0.097618
0.092763
0.090645
0.219975
0.178002
0.088011
0.082397
0.076763
0.077593
22.905900
0.141981
0.068649
0.065205
0.063791
0.064743
15.509300
0.104044
0.051465
0.048820
0.051389
0.052336
8.722270
0.084380
0.039550
0.037730
0.040999
0.042283
0.071653
0.032180
0.029944
0.032759
0.034214
0.063149
0.026804
0.024422
0.026681
0.028092
0.049221
0.023417
0.020431
0.022613
0.023558
0.034821
0.020953
0.018961
0.019603
0.020568
0.028385
0.018727
0.017535
0.017665
0.018441
0.011738
0.023632
0.017161
0.016636
0.016520
0.017044
0.010330
0.019972
0.016091
0.016035
0.015819
0.016115
0.009149
0.017031
0.015272
0.015621
0.015330
0.015470
0.008139
0.014696
0.014679
0.015279
0.014948
0.014984
0.007335
0.012889
0.014235
0.014976
0.014608
0.014582
0.006711
0.011692
0.013964
0.014685
0.014283
0.014223
0.006342
0.011202
0.013878
0.014402
0.013965
0.013888
0.006257
0.011505
0.014009
0.014135
0.013659
0.013573
0.006539
0.012589
0.014386
0.013896
0.013380
0.013290
0.007195
0.014347
0.015019
0.013708
0.013152
0.013056
0.008228
0.016668
0.015918
0.013595
0.013006
0.012897
0.009596
0.019463
0.017066
0.013586
0.012978
0.012843
0.011249
0.022685
0.018447
0.013712
0.013096
0.012922
0.013115
0.026333
0.020027
0.013992
0.013385
0.013154
0.015103
0.030424
0.021765
0.014451
0.013849
0.013559
0.017068
0.035081
0.023626
0.015082
0.014481
0.014147
0.018902
0.040515
0.025566
0.015932
0.015266
0.014952
0.020398
0.047270
0.027596
0.017033
0.016255
0.016069
0.021290
0.056900
0.029420
0.018446
0.017646
0.017695
0.018194
0.079115
0.026199
0.019166
0.020088
0.019160
0.098826
0.024910
0.022367
0.022732
0.022038
0.108135
0.029510
0.025639
0.025929
0.026001
0.121486
0.033667
0.030384
0.031154
0.031159
0.140178
0.038584
0.037261
0.038116
0.037479
0.168956
0.046019
0.048698
0.048014
0.045867
0.080873
0.162375
0.058340
0.060198
0.054617
0.054003
0.115496
0.137790
0.081431
0.071231
0.063731
0.062187
0.135603
0.138100
0.095130
0.081812
0.072230
0.068999
0.146225
0.140938
0.105179
0.090214
0.078694
0.074176
0.153035
0.141948
0.110346
0.095674
0.082390
0.076936
0.151595
0.138961
0.111512
0.098069
0.082892
0.076862
0.144261
0.131717
0.108436
0.097640
0.080200
0.073791
0.131918
0.120239
0.101754
0.095582
0.074634
0.067828
0.114308
0.105599
0.094556
0.094952
0.067738
0.059712
0.093223
0.087279
0.096589
0.121876
0.058970
0.055222
0.525893
0.493067
0.279162
0.163748
0.099911
0.086178
0.419620
0.339980
0.214004
0.156499
0.121049
0.105178
0.344285
0.294246
0.209397
0.168456
0.143307
0.130771
0.307265
0.278943
0.214617
0.180686
0.161344
0.151192
0.290127
0.271676
0.220657
0.190314
0.173979
0.165156
0.281436
0.267078
0.224983
0.196758
0.181687
0.173526
0.275655
0.263048
0.226994
0.200136
0.185425
0.177528
0.270261
0.258534
0.226648
0.200737
0.185989
0.178153
0.264193
0.252917
0.223995
0.198847
0.183938
0.176078
0.256251
0.245664
0.219148
0.194685
0.179637
0.171753
0.246972
0.236877
0.212162
0.188415
0.173351
0.165490
0.235414
0.226225
0.203149
0.180167
0.165294
0.157554
0.222110
0.213926
0.192117
0.170087
0.155684
0.148218
0.207999
0.200353
0.179208
0.158341
0.144770
0.137800
0.190830
0.185630
0.164836
0.145102
0.132875
0.126646
0.177129
0.171837
0.148987
0.130807
0.120294
0.115063
0.170933
0.162169
0.132833
0.115785
0.107296
0.103194
0.184173
0.161365
0.117415
0.100525
0.093826
0.091049
0.253988
0.196531
0.097914
0.086116
0.078702
0.078731
19.333500
0.148108
0.076692
0.068505
0.065946
0.066090
12.519600
0.105717
0.057554
0.051877
0.053192
0.053588
9.533160
0.084353
0.044069
0.040193
0.042290
0.043170
0.070728
0.035458
0.031801
0.033553
0.034673
0.061803
0.029424
0.025624
0.027116
0.028150
0.047908
0.025108
0.021322
0.022677
0.023347
0.033591
0.021841
0.019534
0.019422
0.020178
0.027500
0.019298
0.017912
0.017391
0.017960
0.011656
0.023081
0.017715
0.016861
0.016228
0.016534
0.010375
0.019699
0.016587
0.016209
0.015525
0.015626
0.009321
0.017070
0.015818
0.015751
0.015067
0.015025
0.008493
0.015002
0.015239
0.015408
0.014719
0.014597
0.007812
0.013481
0.014849
0.015105
0.014419
0.014256
0.007323
0.012508
0.014604
0.014819
0.014127
0.013950
0.006988
0.012171
0.014536
0.014532
0.013830
0.013656
0.006902
0.012515
0.014656
0.014242
0.013525
0.013364
0.007078
0.013542
0.014994
0.013958
0.013224
0.013080
0.007605
0.015203
0.015574
0.013698
0.012948
0.012823
0.008489
0.017426
0.016412
0.013489
0.012732
0.012620
0.009749
0.020158
0.017516
0.013370
0.012618
0.012508
0.011337
0.023372
0.018882
0.013382
0.012654
0.012527
0.013197
0.027058
0.020489
0.013576
0.012879
0.012716
0.015217
0.031260
0.022311
0.013976
0.013322
0.013106
0.017278
0.036055
0.024292
0.014630
0.013987
0.013725
0.019203
0.041674
0.026421
0.015539
0.014883
0.014609
0.020904
0.048658
0.028658
0.016815
0.016050
0.015864
0.022181
0.058568
0.030818
0.018450
0.017720
0.017688
0.020241
0.081854
0.027980
0.019786
0.020382
0.019466
0.101837
0.027331
0.023605
0.023398
0.022766
0.111335
0.032687
0.027361
0.027249
0.027237
0.125141
0.037715
0.032896
0.033178
0.033073
0.144897
0.044080
0.040721
0.040950
0.040199
0.176232
0.052793
0.053320
0.051460
0.049468
0.107656
0.171999
0.066268
0.065715
0.059062
0.058409
0.129847
0.147261
0.090055
0.077383
0.069119
0.067242
0.148328
0.149017
0.104634
0.088573
0.078227
0.074640
0.162549
0.152637
0.114484
0.097631
0.085206
0.080265
0.165945
0.153685
0.120882
0.103658
0.089259
0.083408
0.165672
0.151482
0.122329
0.106276
0.090063
0.083608
0.160136
0.145073
0.119560
0.105963
0.087450
0.080619
0.148556
0.134790
0.113920
0.103842
0.081692
0.074310
0.133900
0.123238
0.109152
0.103419
0.074442
0.065085
0.119310
0.111538
0.119634
0.135659
0.064796
0.059105
0.562004
0.518922
0.298090
0.168938
0.098352
0.081925
0.449989
0.358786
0.224092
0.160656
0.122188
0.104524
0.364805
0.307184
0.218197
0.173642
0.146418
0.132769
0.319766
0.289100
0.222959
0.186189
0.165288
0.154317
0.297205
0.279708
0.228042
0.195390
0.177755
0.168263
0.284565
0.272971
0.231021
0.200853
0.184594
0.175841
0.275802
0.266884
0.231475
0.202909
0.187051
0.178594
0.267998
0.260377
0.229498
0.202069
0.186164
0.177767
0.259515
0.252887
0.225352
0.198780
0.182680
0.174245
0.250586
0.244437
0.219236
0.193405
0.177131
0.168641
0.239946
0.234580
0.211369
0.186236
0.169902
0.161404
0.228511
0.223661
0.201864
0.177513
0.161307
0.152907
0.215459
0.211592
0.190979
0.167416
0.151649
0.143512
0.201319
0.198784
0.178795
0.156158
0.141235
0.133580
0.190368
0.186634
0.165410
0.144022
0.130341
0.123449
0.179339
0.175679
0.151796
0.131147
0.119223
0.113290
0.178638
0.169187
0.138062
0.118038
0.107793
0.102977
0.205679
0.174330
0.125482
0.104518
0.095732
0.092126
0.285109
0.217055
0.109342
0.090797
0.081400
0.080557
16.267100
0.155380
0.084886
0.072624
0.068723
0.068030
11.520900
0.108516
0.063852
0.055429
0.055511
0.055331
7.322890
0.085303
0.048586
0.043046
0.044002
0.044466
0.070725
0.038944
0.033898
0.034735
0.035493
0.061376
0.032008
0.027124
0.027853
0.028558
0.047367
0.026938
0.022387
0.023063
0.023471
0.032799
0.022876
0.020264
0.019558
0.020122
0.026979
0.020110
0.018425
0.017441
0.017814
0.011851
0.022833
0.018425
0.017280
0.016232
0.016363
0.010705
0.019764
0.017323
0.016555
0.015529
0.015467
0.009788
0.017386
0.016533
0.016079
0.015081
0.014904
0.009048
0.015587
0.015998
0.015721
0.014764
0.014525
0.008500
0.014278
0.015617
0.015428
0.014496
0.014236
0.008055
0.013493
0.015405
0.015150
0.014237
0.013980
0.007790
0.013258
0.015339
0.014867
0.013962
0.013724
0.007667
0.013621
0.015453
0.014566
0.013663
0.013453
0.007796
0.014593
0.015758
0.014247
0.013341
0.013168
0.008190
0.016155
0.016288
0.013923
0.013015
0.012882
0.008951
0.018282
0.017068
0.013619
0.012719
0.012623
0.010077
0.020949
0.018124
0.013378
0.012500
0.012434
0.011589
0.024145
0.019468
0.013260
0.012420
0.012366
0.013413
0.027881
0.021103
0.013324
0.012545
0.012476
0.015456
0.032179
0.022995
0.013652
0.012927
0.012820
0.017564
0.037132
0.025125
0.014273
0.013608
0.013442
0.019592
0.042944
0.027431
0.015271
0.014597
0.014396
0.021411
0.050147
0.029945
0.016686
0.015976
0.015788
0.023122
0.060476
0.032483
0.018609
0.017953
0.017829
0.022483
0.084843
0.030117
0.020671
0.020846
0.019967
0.105343
0.030276
0.025175
0.024281
0.023730
0.114965
0.036424
0.029486
0.028845
0.028750
0.129482
0.042543
0.035836
0.035566
0.035294
0.150444
0.050464
0.044782
0.044138
0.043288
0.185216
0.060713
0.058577
0.055374
0.053430
0.138633
0.184459
0.076118
0.072200
0.063909
0.063195
0.150068
0.159918
0.100577
0.084182
0.075025
0.072573
0.165539
0.161379
0.114793
0.096281
0.084610
0.080427
0.174044
0.165239
0.126264
0.105840
0.091956
0.086401
0.182816
0.167610
0.132197
0.112200
0.096403
0.089828
0.182710
0.165589
0.134154
0.115252
0.097460
0.090303
0.176086
0.159455
0.132097
0.115082
0.094987
0.087443
0.167121
0.150962
0.127349
0.113004
0.089075
0.080804
0.156643
0.143555
0.125910
0.113008
0.081407
0.070338
0.149216
0.139085
0.145198
0.151078
0.070835
0.062578
0.596786
0.545246
0.316585
0.174075
0.096225
0.076759
0.480054
0.378349
0.234164
0.164482
0.122997
0.103416
0.385839
0.320477
0.226821
0.178503
0.149168
0.134354
0.332685
0.299233
0.231013
0.191242
0.168721
0.156890
0.304249
0.287433
0.234955
0.199827
0.180810
0.170618
0.287377
0.278372
0.236371
0.204096
0.186570
0.177193
0.275098
0.269891
0.235055
0.204661
0.187562
0.178509
0.264299
0.261203
0.231355
0.202243
0.185091
0.176096
0.254135
0.252054
0.225636
0.197503
0.180125
0.171061
0.242948
0.241965
0.218309
0.190967
0.173348
0.164192
0.231858
0.231478
0.209677
0.183032
0.165282
0.156076
0.219938
0.220403
0.200045
0.174010
0.156348
0.147193
0.208768
0.209253
0.189471
0.164199
0.146901
0.137980
0.197853
0.198221
0.178316
0.153789
0.137272
0.128843
0.185561
0.187469
0.166913
0.142943
0.127744
0.120060
0.183129
0.180147
0.154996
0.132022
0.118327
0.111634
0.191471
0.178599
0.144179
0.120822
0.108784
0.103085
0.225670
0.188206
0.134676
0.109203
0.098152
0.093651
0.319044
0.239650
0.121450
0.096229
0.084609
0.082811
13.647100
0.163367
0.093003
0.077230
0.071868
0.070363
9.412710
0.112262
0.069967
0.059259
0.058154
0.057381
7.164300
0.087115
0.053171
0.046052
0.045992
0.046024
0.071569
0.042381
0.036164
0.036144
0.036550
0.061814
0.034651
0.028733
0.028809
0.029195
0.047590
0.028764
0.023558
0.023646
0.023826
0.032420
0.024046
0.021035
0.019925
0.020296
0.026747
0.020982
0.019029
0.017704
0.017913
0.012346
0.022885
0.019277
0.017789
0.016463
0.016445
0.011311
0.020068
0.018148
0.017038
0.015752
0.015569
0.010498
0.017968
0.017405
0.016543
0.015326
0.015047
0.009879
0.016377
0.016872
0.016201
0.015039
0.014720
0.009355
0.015273
0.016540
0.015926
0.014815
0.014489
0.009007
0.014628
0.016346
0.015679
0.014599
0.014290
0.008741
0.014485
0.016314
0.015421
0.014363
0.014084
0.008656
0.014864
0.016429
0.015135
0.014086
0.013847
0.008722
0.015787
0.016725
0.014807
0.013762
0.013573
0.009059
0.017265
0.017218
0.014442
0.013402
0.013270
0.009679
0.019296
0.017952
0.014060
0.013033
0.012961
0.010697
0.021894
0.018959
0.013704
0.012704
0.012690
0.012087
0.025065
0.020279
0.013437
0.012487
0.012516
0.013853
0.028835
0.021923
0.013354
0.012469
0.012517
0.015876
0.033240
0.023898
0.013541
0.012748
0.012771
0.018004
0.038354
0.026156
0.014119
0.013389
0.013356
0.020068
0.044378
0.028695
0.015130
0.014465
0.014345
0.022004
0.051877
0.031487
0.016733
0.016049
0.015867
0.024077
0.062578
0.034492
0.018939
0.018387
0.018131
0.024456
0.088429
0.032716
0.021873
0.021518
0.020677
0.109349
0.033681
0.027147
0.025407
0.024948
0.119410
0.040833
0.032017
0.030769
0.030538
0.134580
0.048011
0.039280
0.038266
0.037832
0.157201
0.057750
0.049303
0.047743
0.046688
0.195948
0.069727
0.064558
0.059596
0.057767
0.179114
0.200632
0.087427
0.079313
0.069273
0.068256
0.171794
0.174778
0.112932
0.092202
0.081264
0.078122
0.183340
0.177543
0.128112
0.104613
0.091336
0.086300
0.197565
0.181508
0.138131
0.114753
0.099021
0.092458
0.198429
0.182100
0.145238
0.121710
0.103701
0.096121
0.197303
0.180172
0.147425
0.124964
0.105094
0.096881
0.194616
0.175602
0.145711
0.125076
0.102810
0.094219
0.187939
0.169342
0.142657
0.123185
0.096792
0.087285
0.182619
0.166606
0.144872
0.123838
0.088622
0.075431
0.184515
0.170683
0.173626
0.168137
0.077123
0.065512
0.630282
0.571439
0.334264
0.179017
0.093630
0.070818
0.509641
0.398371
0.244115
0.167994
0.123579
0.102024
0.407312
0.334072
0.235220
0.183033
0.151610
0.135612
0.345991
0.309308
0.238690
0.195784
0.171619
0.158913
0.311320
0.294802
0.241234
0.203489
0.183054
0.172144
0.289385
0.282959
0.240797
0.206301
0.187452
0.177440
0.273150
0.271870
0.237480
0.205115
0.186745
0.177085
0.259325
0.260763
0.231797
0.200963
0.182534
0.172917
0.245703
0.249259
0.224423
0.194703
0.175999
0.166286
0.233448
0.238036
0.215883
0.187005
0.168017
0.158157
0.221184
0.226734
0.206635
0.178412
0.159222
0.149251
0.210036
0.215918
0.196968
0.169330
0.150112
0.140153
0.198770
0.205560
0.187275
0.160007
0.141126
0.131369
0.190385
0.196492
0.177449
0.150736
0.132597
0.123312
0.188388
0.190038
0.167707
0.141672
0.124696
0.116199
0.186070
0.185539
0.159061
0.132658
0.117358
0.109786
0.201285
0.187325
0.150674
0.123931
0.109776
0.103236
0.249763
0.203654
0.143884
0.114176
0.100836
0.095306
0.351406
0.263697
0.134465
0.101966
0.088015
0.085261
11.248200
0.171945
0.100955
0.082039
0.075179
0.072856
8.161480
0.116777
0.075918
0.063157
0.060931
0.059570
5.899690
0.089800
0.057617
0.049132
0.048114
0.047707
0.073206
0.045865
0.038461
0.037705
0.037735
0.063114
0.037241
0.030432
0.029882
0.029974
0.048531
0.030617
0.024753
0.024370
0.024327
0.032406
0.025244
0.021829
0.020435
0.020627
0.026820
0.021924
0.019649
0.018123
0.018183
0.013031
0.023143
0.020147
0.018361
0.016847
0.016716
0.012172
0.020618
0.019063
0.017594
0.016149
0.015876
0.011478
0.018729
0.018329
0.017125
0.015755
0.015410
0.010873
0.017360
0.017867
0.016814
0.015522
0.015152
0.010462
0.016418
0.017568
0.016597
0.015359
0.014996
0.010109
0.015917
0.017448
0.016407
0.015214
0.014875
0.009933
0.015860
0.017457
0.016212
0.015041
0.014740
0.009846
0.016272
0.017619
0.015975
0.014816
0.014562
0.009949
0.017171
0.017927
0.015678
0.014523
0.014326
0.010222
0.018579
0.018419
0.015313
0.014160
0.014032
0.010796
0.020530
0.019122
0.014891
0.013747
0.013696
0.011671
0.023048
0.020096
0.014445
0.013325
0.013358
0.012977
0.026192
0.021386
0.014044
0.012969
0.013080
0.014628
0.029987
0.023043
0.013782
0.012785
0.012947
0.016601
0.034498
0.025076
0.013806
0.012897
0.013069
0.018709
0.039796
0.027494
0.014236
0.013450
0.013557
0.020749
0.046072
0.030250
0.015263
0.014546
0.014533
0.022689
0.053878
0.033415
0.016968
0.016355
0.016146
0.025126
0.065160
0.036930
0.019557
0.019057
0.018637
0.026888
0.092499
0.035786
0.023465
0.022467
0.021632
0.114379
0.037743
0.029604
0.026846
0.026455
0.124681
0.045861
0.035076
0.033046
0.032639
0.141073
0.054348
0.043188
0.041371
0.040674
0.165330
0.065655
0.054379
0.051631
0.050424
0.208964
0.079598
0.071000
0.064270
0.062346
0.224799
0.221500
0.101378
0.087468
0.074824
0.073604
0.204861
0.195345
0.127543
0.100585
0.088004
0.083764
0.208082
0.195132
0.141410
0.114170
0.098307
0.092091
0.207779
0.197084
0.153528
0.124649
0.106147
0.098322
0.216546
0.199581
0.159724
0.131744
0.111168
0.102133
0.219265
0.198442
0.162079
0.135580
0.112871
0.103223
0.214571
0.193663
0.161136
0.136001
0.110903
0.100865
0.210945
0.189641
0.159413
0.134382
0.104831
0.093703
0.212127
0.192623
0.166261
0.135959
0.096037
0.080308
0.224630
0.206221
0.204759
0.186699
0.083688
0.067748
0.662756
0.596927
0.350755
0.183593
0.090685
0.064313
0.538680
0.418500
0.253787
0.171190
0.124030
0.100523
0.429100
0.347838
0.243281
0.187163
0.153741
0.136580
0.359588
0.319198
0.245786
0.199648
0.173873
0.160298
0.317869
0.301491
0.246594
0.206114
0.184264
0.172646
0.290402
0.286526
0.243921
0.207085
0.186949
0.176309
0.269157
0.272078
0.238176
0.203880
0.184263
0.174001
0.250493
0.257793
0.230288
0.197785
0.178118
0.167898
0.234648
0.244250
0.221061
0.189893
0.169953
0.159588
0.219446
0.231036
0.211249
0.181076
0.160776
0.150214
0.206624
0.219224
0.201428
0.171928
0.151352
0.140620
0.195705
0.208865
0.192046
0.162904
0.142271
0.131478
0.188391
0.200418
0.183208
0.154386
0.133966
0.123360
0.181710
0.193536
0.175358
0.146479
0.126790
0.116685
0.177942
0.188856
0.168285
0.139310
0.120846
0.111532
0.192813
0.190607
0.161509
0.132928
0.115716
0.107408
0.217492
0.198611
0.157149
0.126340
0.110526
0.103016
0.271647
0.219336
0.153479
0.118999
0.103205
0.096775
0.386491
0.289132
0.147419
0.107755
0.091337
0.087550
8.922600
0.180742
0.108344
0.086722
0.078403
0.075276
6.814320
0.122231
0.081559
0.066990
0.063674
0.061723
5.130500
0.093290
0.062005
0.052158
0.050282
0.049393
0.075756
0.049279
0.040814
0.039316
0.038964
0.065276
0.039864
0.032146
0.031051
0.030818
0.050240
0.032461
0.025970
0.025176
0.024912
0.032781
0.026475
0.022603
0.021048
0.021054
0.027092
0.022844
0.020271
0.018638
0.018572
0.014031
0.023640
0.021047
0.018942
0.017346
0.017128
0.013232
0.021301
0.019967
0.018205
0.016676
0.016350
0.012568
0.019653
0.019321
0.017782
0.016346
0.015966
0.012103
0.018460
0.018910
0.017558
0.016193
0.015805
0.011662
0.017698
0.018726
0.017429
0.016130
0.015754
0.011441
0.017341
0.018685
0.017349
0.016086
0.015739
0.011294
0.017396
0.018802
0.017257
0.016016
0.015707
0.011319
0.017868
0.019036
0.017118
0.015881
0.015621
0.011451
0.018776
0.019411
0.016899
0.015659
0.015459
0.011783
0.020150
0.019930
0.016587
0.015339
0.015212
0.012303
0.022032
0.020645
0.016178
0.014928
0.014889
0.013171
0.024496
0.021603
0.015698
0.014458
0.014520
0.014333
0.027591
0.022884
0.015200
0.013992
0.014160
0.015955
0.031427
0.024545
0.014786
0.013639
0.013898
0.017826
0.036045
0.026655
0.014599
0.013557
0.013858
0.019878
0.041557
0.029216
0.014863
0.013933
0.014193
0.021847
0.048135
0.032259
0.015751
0.015004
0.015074
0.023645
0.056338
0.035789
0.017600
0.016956
0.016727
0.026199
0.068155
0.039935
0.020483
0.020086
0.019411
0.028466
0.097579
0.039510
0.025601
0.023741
0.022901
0.120289
0.042436
0.032632
0.028717
0.028303
0.131743
0.051823
0.038777
0.035779
0.035109
0.149013
0.061436
0.047739
0.044881
0.043886
0.175822
0.074560
0.059871
0.055975
0.054440
0.224299
0.089989
0.078002
0.069064
0.067249
0.282587
0.247901
0.116532
0.095877
0.080922
0.078984
0.236475
0.218176
0.144342
0.110634
0.094672
0.089378
0.233269
0.219690
0.160067
0.124002
0.105308
0.097634
0.245150
0.222115
0.169145
0.134917
0.113348
0.103712
0.241879
0.219828
0.175612
0.142806
0.118550
0.107638
0.235923
0.215793
0.177889
0.146850
0.120751
0.109145
0.234941
0.212635
0.177479
0.147786
0.119158
0.107264
0.236117
0.212248
0.178144
0.146662
0.113128
0.099976
0.245047
0.221568
0.190017
0.149384
0.103617
0.084899
0.270660
0.246202
0.238812
0.206699
0.090541
0.069102
0.694703
0.621208
0.365734
0.187634
0.087570
0.057601
0.567269
0.438335
0.262963
0.174038
0.124432
0.099084
0.451072
0.361560
0.250807
0.190745
0.155486
0.137213
0.373016
0.328625
0.251991
0.202527
0.175234
0.160825
0.323596
0.307174
0.250555
0.207240
0.184076
0.171774
0.288705
0.287983
0.245102
0.205961
0.184608
0.173372
0.261168
0.269543
0.236562
0.200369
0.179631
0.168815
0.238427
0.251903
0.226030
0.192134
0.171404
0.160612
0.217203
0.234788
0.214692
0.182585
0.161544
0.150585
0.199864
0.219846
0.203488
0.172647
0.151240
0.140019
0.185363
0.207062
0.193138
0.163058
0.141326
0.129864
0.175199
0.197298
0.184068
0.154305
0.132428
0.120877
0.169017
0.190763
0.176635
0.146644
0.125072
0.113669
0.171120
0.188104
0.170546
0.140375
0.119508
0.108643
0.178190
0.188887
0.166171
0.135368
0.115698
0.105749
0.185055
0.191762
0.163732
0.131272
0.113097
0.104126
0.224588
0.204751
0.161359
0.127976
0.110145
0.102116
0.299936
0.236267
0.161464
0.122797
0.105061
0.097625
0.422122
0.316323
0.161064
0.113051
0.094144
0.089442
7.530560
0.190264
0.115353
0.091142
0.081298
0.077398
5.271670
0.128483
0.086868
0.070583
0.066274
0.063675
4.453370
0.098028
0.066223
0.055195
0.052358
0.050987
0.079271
0.052737
0.043144
0.040983
0.040153
0.068406
0.042454
0.033939
0.032246
0.031678
0.052688
0.034295
0.027195
0.026042
0.025530
0.033416
0.027683
0.023355
0.021720
0.021533
0.027619
0.023743
0.020866
0.019218
0.019040
0.015081
0.024211
0.021882
0.019519
0.017924
0.017655
0.014347
0.022111
0.020875
0.018832
0.017320
0.016975
0.013839
0.020631
0.020289
0.018523
0.017086
0.016714
0.013286
0.019643
0.020036
0.018418
0.017063
0.016687
0.013041
0.019074
0.019971
0.018447
0.017136
0.016777
0.012860
0.018897
0.020101
0.018518
0.017239
0.016903
0.012895
0.019100
0.020348
0.018584
0.017310
0.017009
0.013023
0.019679
0.020723
0.018591
0.017310
0.017051
0.013304
0.020639
0.021198
0.018507
0.017206
0.017002
0.013713
0.022022
0.021806
0.018307
0.016981
0.016848
0.014342
0.023883
0.022570
0.017981
0.016632
0.016588
0.015179
0.026297
0.023565
0.017541
0.016176
0.016241
0.016431
0.029390
0.024860
0.017024
0.015665
0.015850
0.017922
0.033233
0.026561
0.016515
0.015189
0.015494
0.019916
0.038024
0.028745
0.016161
0.014910
0.015296
0.021894
0.043798
0.031502
0.016184
0.015076
0.015435
0.023721
0.050748
0.034837
0.016941
0.015992
0.016153
0.025201
0.059417
0.038851
0.018693
0.018066
0.017742
0.027491
0.071933
0.043611
0.021989
0.021509
0.020577
0.030966
0.103512
0.043993
0.028254
0.025521
0.024549
0.128148
0.048099
0.036484
0.031051
0.030598
0.140268
0.058727
0.043235
0.039158
0.038013
0.160362
0.069875
0.053089
0.048945
0.047526
0.188998
0.084047
0.066032
0.060651
0.058854
0.243107
0.101383
0.085158
0.074442
0.072239
0.354140
0.284365
0.136678
0.105489
0.086689
0.084525
0.296133
0.254241
0.164449
0.119799
0.101633
0.094689
0.274636
0.245169
0.175449
0.134671
0.112155
0.102532
0.251789
0.238172
0.186385
0.146134
0.120116
0.108283
0.251320
0.237575
0.192905
0.154075
0.125667
0.112301
0.257970
0.237588
0.195892
0.159030
0.128343
0.114393
0.259129
0.235342
0.196184
0.160481
0.127453
0.113202
0.264180
0.237494
0.198527
0.159814
0.121600
0.105980
0.281845
0.253671
0.216228
0.164005
0.111219
0.089133
0.321896
0.290316
0.275377
0.227822
0.097658
0.069386
0.727057
0.643913
0.378983
0.191029
0.084572
0.051321
0.595618
0.457443
0.271368
0.176464
0.124840
0.097838
0.473015
0.374941
0.257499
0.193486
0.156632
0.137324
0.385763
0.337166
0.256799
0.203918
0.175290
0.160082
0.326401
0.310744
0.252497
0.206268
0.181915
0.168983
0.283270
0.286685
0.243691
0.202184
0.179824
0.168057
0.248650
0.263139
0.231653
0.193950
0.172300
0.160989
0.217974
0.240306
0.218128
0.183488
0.161870
0.150608
0.193766
0.220411
0.204493
0.172229
0.150391
0.138905
0.173350
0.203117
0.191821
0.161306
0.139089
0.127274
0.157863
0.189521
0.180876
0.151416
0.128861
0.116738
0.146211
0.179624
0.172200
0.143055
0.120383
0.108127
0.140937
0.174301
0.165915
0.136550
0.114126
0.102117
0.141731
0.173988
0.162276
0.131826
0.110416
0.099043
0.158681
0.180251
0.160458
0.128962
0.108993
0.098620
0.196862
0.195139
0.160464
0.127564
0.108910
0.099686
0.238115
0.213986
0.164393
0.126357
0.108657
0.100114
0.319334
0.249292
0.167876
0.125154
0.105262
0.097649
0.463033
0.343953
0.172820
0.117409
0.096193
0.090491
5.156840
0.200013
0.121191
0.094703
0.083699
0.078961
4.521570
0.136863
0.091782
0.074090
0.068461
0.065309
3.373280
0.104142
0.070418
0.058098
0.054391
0.052367
0.084103
0.056109
0.045642
0.042560
0.041259
0.072710
0.045087
0.035774
0.033481
0.032492
0.055934
0.036072
0.028450
0.026933
0.026138
0.034383
0.028834
0.024103
0.022419
0.022038
0.028136
0.024559
0.021421
0.019845
0.019575
0.016257
0.024878
0.022653
0.020079
0.018586
0.018301
0.015562
0.022870
0.021687
0.019508
0.018082
0.017775
0.014795
0.021597
0.021296
0.019340
0.018011
0.017684
0.014544
0.020850
0.021195
0.019445
0.018159
0.017837
0.014343
0.020523
0.021370
0.019673
0.018422
0.018106
0.014454
0.020588
0.021690
0.019961
0.018709
0.018408
0.014656
0.020994
0.022152
0.020228
0.018963
0.018682
0.015021
0.021728
0.022697
0.020433
0.019136
0.018887
0.015492
0.022805
0.023341
0.020534
0.019196
0.018990
0.016096
0.024246
0.024078
0.020508
0.019119
0.018974
0.016870
0.026138
0.024963
0.020338
0.018895
0.018830
0.017905
0.028565
0.026043
0.020025
0.018531
0.018567
0.019182
0.031653
0.027422
0.019592
0.018056
0.018212
0.020987
0.035605
0.029201
0.019097
0.017545
0.017826
0.022895
0.040504
0.031524
0.018669
0.017135
0.017520
0.025436
0.046738
0.034500
0.018524
0.017089
0.017474
0.027227
0.054271
0.038259
0.019019
0.017813
0.017971
0.028046
0.063480
0.042791
0.020766
0.019803
0.019416
0.029259
0.076628
0.048343
0.024077
0.023585
0.022275
0.031282
0.110816
0.049275
0.031724
0.027779
0.026725
0.137826
0.054796
0.040995
0.034103
0.033362
0.152710
0.067149
0.048940
0.043061
0.041484
0.174083
0.079502
0.059323
0.053852
0.051645
0.208851
0.095513
0.073060
0.065956
0.063636
0.266374
0.112426
0.092807
0.079716
0.077607
0.446513
0.328201
0.155724
0.114026
0.093367
0.089608
0.341806
0.284336
0.181807
0.130853
0.107675
0.099389
0.292847
0.274748
0.198168
0.145074
0.117950
0.106381
0.301550
0.277567
0.208412
0.156759
0.125857
0.111525
0.302688
0.274514
0.214475
0.165667
0.131768
0.115621
0.291246
0.265749
0.215581
0.170935
0.135467
0.118497
0.286674
0.260560
0.215964
0.173336
0.135362
0.118403
0.294638
0.264989
0.220621
0.173669
0.129913
0.111524
0.321178
0.288012
0.244197
0.179497
0.118754
0.092910
0.377782
0.337867
0.313939
0.249773
0.104941
0.068466
0.761255
0.664930
0.390475
0.193799
0.082149
0.046533
0.624191
0.475413
0.278641
0.178298
0.125231
0.096801
0.494579
0.387576
0.262925
0.194918
0.156784
0.136494
0.395996
0.343936
0.259653
0.203094
0.173345
0.157402
0.325373
0.311380
0.251564
0.202257
0.177027
0.163530
0.270537
0.279967
0.238388
0.195022
0.171877
0.159674
0.225449
0.249683
0.222445
0.183974
0.161638
0.149980
0.191351
0.223145
0.205717
0.171283
0.149141
0.137488
0.163121
0.199868
0.189864
0.158600
0.136225
0.124291
0.141840
0.181406
0.176003
0.146889
0.124188
0.111814
0.125149
0.167136
0.164710
0.136921
0.113922
0.101139
0.113828
0.157387
0.156259
0.129158
0.106106
0.093188
0.105378
0.151729
0.150951
0.123820
0.101252
0.088694
0.104757
0.151463
0.148599
0.120980
0.099470
0.087931
0.110707
0.157160
0.149499
0.120034
0.100502
0.090253
0.142922
0.172197
0.152520
0.120705
0.103135
0.094030
0.238464
0.209522
0.156987
0.122599
0.105217
0.096959
0.364930
0.270083
0.169780
0.123120
0.104578
0.096446
0.510244
0.376501
0.186347
0.120041
0.096631
0.090784
5.306980
0.213829
0.126701
0.098201
0.085163
0.079867
2.658140
0.147306
0.096505
0.077065
0.070410
0.066415
2.908180
0.112726
0.074235
0.061379
0.055973
0.053518
0.091070
0.059524
0.048236
0.044079
0.042197
0.078300
0.047485
0.037840
0.034620
0.033222
0.059826
0.037771
0.029839
0.027784
0.026719
0.035257
0.029936
0.024839
0.023152
0.022570
0.028726
0.025226
0.022014
0.020538
0.020224
0.017326
0.025302
0.023294
0.020702
0.019365
0.019140
0.015915
0.023476
0.022528
0.020254
0.019056
0.018829
0.015666
0.022498
0.022296
0.020347
0.019189
0.018964
0.015463
0.022052
0.022513
0.020697
0.019572
0.019333
0.015747
0.022080
0.022939
0.021199
0.020056
0.019810
0.016107
0.022445
0.023549
0.021735
0.020562
0.020310
0.016671
0.023117
0.024241
0.022247
0.021023
0.020775
0.017313
0.024070
0.025021
0.022682
0.021399
0.021165
0.018057
0.025303
0.025861
0.023013
0.021656
0.021450
0.018943
0.026884
0.026797
0.023212
0.021773
0.021610
0.019968
0.028853
0.027851
0.023267
0.021735
0.021633
0.021259
0.031364
0.029104
0.023173
0.021538
0.021517
0.022883
0.034533
0.030635
0.022936
0.021198
0.021274
0.024852
0.038577
0.032589
0.022600
0.020758
0.020944
0.027546
0.043803
0.035118
0.022245
0.020337
0.020611
0.030127
0.050348
0.038434
0.022083
0.020157
0.020446
0.033859
0.059052
0.042698
0.022423
0.020677
0.020738
0.034467
0.069527
0.048090
0.023908
0.022544
0.021966
0.032545
0.083090
0.054436
0.027507
0.026302
0.024757
0.033715
0.119554
0.056078
0.035837
0.030856
0.029495
0.150204
0.062427
0.046419
0.037663
0.036730
0.169384
0.077234
0.055224
0.047895
0.045436
0.197271
0.091459
0.067673
0.059000
0.056376
0.231496
0.107886
0.080832
0.072136
0.068778
0.299254
0.128012
0.101038
0.086361
0.082664
0.577881
0.403508
0.190248
0.125825
0.098257
0.094604
0.477222
0.363332
0.213290
0.137966
0.112764
0.103033
0.401128
0.337367
0.221837
0.152033
0.122090
0.108497
0.358239
0.314390
0.228577
0.164347
0.129823
0.112645
0.321603
0.295599
0.231224
0.174073
0.136321
0.116879
0.304972
0.284198
0.233125
0.181623
0.140817
0.120987
0.304055
0.279963
0.233696
0.185453
0.142264
0.122388
0.320047
0.289293
0.241135
0.186859
0.137722
0.116320
0.359878
0.322008
0.272439
0.195093
0.125829
0.096159
0.434778
0.386455
0.352814
0.271782
0.112197
0.066296
0.799813
0.684676
0.400518
0.196207
0.080958
0.044636
0.653421
0.491935
0.284340
0.179232
0.125413
0.095703
0.514659
0.398822
0.266551
0.194222
0.155183
0.133950
0.401627
0.347283
0.259383
0.198896
0.168463
0.151833
0.313183
0.304541
0.246057
0.194268
0.168429
0.154530
0.244920
0.264627
0.227840
0.183528
0.159976
0.147551
0.194982
0.229222
0.207638
0.169818
0.147238
0.135348
0.155545
0.198408
0.188176
0.155430
0.132972
0.121050
0.127973
0.174655
0.171025
0.141709
0.119082
0.106687
0.107488
0.156278
0.156779
0.129759
0.106735
0.093672
0.092783
0.142877
0.145712
0.120141
0.096801
0.083155
0.080896
0.133405
0.137880
0.113240
0.090005
0.076219
0.074405
0.128256
0.133177
0.109246
0.086836
0.073697
0.069350
0.126623
0.131686
0.108039
0.087346
0.075638
0.072412
0.129776
0.132916
0.109313
0.090755
0.080954
0.079189
0.136779
0.137206
0.111903
0.095858
0.087499
0.113144
0.151711
0.144112
0.115460
0.100459
0.092677
0.320810
0.235802
0.153720
0.120241
0.101343
0.094196
0.579449
0.410533
0.189153
0.118212
0.096626
0.089647
2.834560
0.228557
0.131797
0.099471
0.085806
0.079861
2.123350
0.164104
0.099461
0.081226
0.070925
0.067106
3.008430
0.126947
0.077861
0.064875
0.057127
0.054334
0.100547
0.062149
0.051421
0.045078
0.042960
0.085438
0.049942
0.040193
0.035500
0.033842
0.064749
0.039389
0.031468
0.028535
0.027284
0.036124
0.030819
0.025921
0.023896
0.023231
0.028587
0.025953
0.022804
0.021400
0.021124
0.016202
0.025409
0.024107
0.021484
0.020465
0.020321
0.015966
0.023971
0.023412
0.021318
0.020385
0.020302
0.015821
0.023352
0.023565
0.021677
0.020796
0.020695
0.016467
0.023408
0.024076
0.022351
0.021424
0.021298
0.017138
0.023832
0.024859
0.023132
0.022146
0.021984
0.018048
0.024575
0.025740
0.023937
0.022869
0.022680
0.018967
0.025548
0.026712
0.024696
0.023543
0.023334
0.019971
0.026746
0.027725
0.025380
0.024129
0.023915
0.021065
0.028204
0.028810
0.025961
0.024604
0.024397
0.022244
0.029944
0.029969
0.026426
0.024948
0.024761
0.023663
0.032099
0.031267
0.026764
0.025145
0.024994
0.025269
0.034726
0.032752
0.026967
0.025186
0.025082
0.027348
0.038082
0.034541
0.027042
0.025069
0.025027
0.029862
0.042306
0.036763
0.027003
0.024823
0.024843
0.033085
0.047832
0.039626
0.026929
0.024519
0.024591
0.037308
0.055091
0.043388
0.026930
0.024367
0.024403
0.041559
0.064569
0.048370
0.027363
0.024746
0.024565
0.048635
0.078175
0.054845
0.028695
0.026431
0.025570
0.044131
0.094330
0.062966
0.032008
0.030144
0.028176
0.030379
0.132182
0.064659
0.041356
0.034478
0.033045
0.165707
0.071966
0.052300
0.041969
0.040590
0.191287
0.087778
0.062382
0.052831
0.049893
0.231857
0.106552
0.075743
0.065372
0.061288
0.281242
0.123795
0.093549
0.078053
0.074083
0.331449
0.148066
0.111989
0.091779
0.087810
0.767077
0.493829
0.213070
0.127779
0.104701
0.098043
0.436288
0.336541
0.209038
0.139627
0.115674
0.104938
0.308338
0.284629
0.219356
0.152589
0.123546
0.108113
0.254577
0.272845
0.229033
0.166346
0.130457
0.111049
0.257328
0.271846
0.234960
0.178880
0.137208
0.115505
0.270764
0.272661
0.237044
0.187582
0.143797
0.121031
0.295297
0.282246
0.243358
0.193985
0.147121
0.124644
0.332998
0.305277
0.258128
0.198480
0.144151
0.120026
0.392172
0.351458
0.298335
0.209858
0.132309
0.098754
0.488760
0.432788
0.390152
0.293115
0.119088
0.063036
0.846293
0.704675
0.409914
0.198906
0.081756
0.046504
0.683539
0.506848
0.287820
0.178543
0.124806
0.093760
0.530012
0.406385
0.267043
0.190073
0.150714
0.128501
0.392985
0.341318
0.253885
0.189965
0.159278
0.142232
0.285918
0.286817
0.233698
0.180797
0.155104
0.141127
0.207663
0.238684
0.209701
0.166994
0.143623
0.131203
0.150246
0.198251
0.186482
0.151453
0.128860
0.116994
0.115094
0.169004
0.166114
0.136031
0.113624
0.101412
0.091570
0.147070
0.149196
0.122321
0.099440
0.086340
0.075393
0.131174
0.135941
0.110950
0.087370
0.073133
0.063612
0.119719
0.126091
0.102375
0.078296
0.063084
0.057210
0.112404
0.119487
0.096836
0.072990
0.057610
0.054565
0.108629
0.116016
0.094445
0.071934
0.057696
0.059316
0.108708
0.115458
0.095064
0.074914
0.062887
0.068343
0.112252
0.117613
0.098118
0.080932
0.071267
0.087090
0.119046
0.121634
0.102876
0.088223
0.080382
0.112152
0.126997
0.127284
0.108402
0.094904
0.087622
0.140565
0.146153
0.137681
0.115630
0.097958
0.090789
0.515668
0.389663
0.180201
0.121243
0.093583
0.088300
5.781420
0.283890
0.133137
0.104285
0.084653
0.079910
2.767220
0.196144
0.103458
0.085638
0.070505
0.067389
2.674710
0.147199
0.078265
0.070093
0.056791
0.054974
0.114059
0.063307
0.055975
0.044828
0.043723
0.096149
0.051304
0.043845
0.035529
0.034562
0.068957
0.041362
0.033996
0.028981
0.028027
0.034675
0.033000
0.027464
0.024877
0.024205
0.028439
0.027515
0.024036
0.022806
0.022493
0.014874
0.025761
0.025314
0.022943
0.022128
0.022107
0.015029
0.024644
0.024952
0.022974
0.022373
0.022408
0.016376
0.024657
0.025345
0.023665
0.023029
0.023058
0.017601
0.025159
0.026226
0.024599
0.023886
0.023862
0.019053
0.026043
0.027267
0.025632
0.024798
0.024719
0.020373
0.027121
0.028424
0.026655
0.025702
0.025573
0.021730
0.028387
0.029615
0.027633
0.026556
0.026388
0.023087
0.029839
0.030869
0.028542
0.027337
0.027143
0.024501
0.031508
0.032182
0.029374
0.028028
0.027821
0.026087
0.033486
0.033606
0.030123
0.028616
0.028405
0.027816
0.035818
0.035173
0.030782
0.029086
0.028878
0.029965
0.038709
0.036972
0.031350
0.029421
0.029223
0.032415
0.042232
0.039085
0.031822
0.029613
0.029423
0.035726
0.046811
0.041687
0.032223
0.029663
0.029476
0.039628
0.052601
0.044987
0.032580
0.029624
0.029404
0.045309
0.060581
0.049300
0.033039
0.029624
0.029315
0.052180
0.071183
0.055160
0.033732
0.030044
0.029434
0.062484
0.087091
0.062897
0.035289
0.031490
0.030247
0.077235
0.110774
0.073412
0.038236
0.034946
0.032573
0.050376
0.154935
0.078159
0.046460
0.039303
0.037181
0.192620
0.082787
0.058897
0.046174
0.044870
0.224193
0.097633
0.070565
0.057394
0.054535
0.273771
0.116059
0.086888
0.070179
0.066199
0.341716
0.156397
0.103776
0.084173
0.078707
0.461323
0.189005
0.121610
0.098070
0.091812
0.652274
0.487356
0.206911
0.141298
0.107199
0.100591
0.165955
0.160411
0.172187
0.139615
0.116745
0.104523
0.053001
0.149940
0.185107
0.147169
0.121609
0.105036
0.107643
0.186271
0.200005
0.161088
0.126777
0.106335
0.149797
0.209157
0.213739
0.174722
0.134242
0.110687
0.207235
0.237822
0.229693
0.188085
0.142406
0.118096
0.264627
0.267810
0.243830
0.198554
0.149062
0.124400
0.329408
0.308594
0.267573
0.206584
0.148861
0.122142
0.414564
0.373827
0.320872
0.223017
0.137537
0.100685
0.534679
0.473534
0.423903
0.312660
0.125232
0.059013
0.906287
0.728812
0.420254
0.203052
0.085014
0.051333
0.711961
0.519076
0.287847
0.174946
0.122315
0.089561
0.530812
0.404020
0.261729
0.180347
0.141516
0.118698
0.364883
0.319912
0.238656
0.173859
0.144479
0.127496
0.234860
0.250219
0.210167
0.161096
0.136367
0.122804
0.146439
0.197123
0.183242
0.145360
0.122562
0.110727
0.101498
0.162846
0.160195
0.129054
0.107139
0.095349
0.075718
0.138399
0.141455
0.114446
0.092031
0.079254
0.059778
0.121419
0.127039
0.102112
0.078530
0.064025
0.050244
0.109460
0.116189
0.092494
0.067583
0.050899
0.046580
0.101633
0.108580
0.085773
0.060048
0.041506
0.048248
0.097447
0.103962
0.082126
0.056790
0.038100
0.056347
0.096909
0.102287
0.081632
0.058189
0.041766
0.068796
0.100531
0.103610
0.084129
0.063668
0.050629
0.092348
0.109410
0.107875
0.089173
0.071820
0.061801
0.116957
0.123952
0.115507
0.095919
0.080923
0.072838
0.176793
0.153647
0.126665
0.103315
0.088978
0.081506
0.225780
0.197511
0.139864
0.111495
0.093201
0.085811
0.454634
0.374481
0.198085
0.114017
0.092668
0.084090
0.236286
0.299660
0.144526
0.099172
0.084607
0.076533
0.104548
0.214443
0.110241
0.084075
0.070587
0.065518
0.053986
0.151683
0.086339
0.069665
0.057116
0.053955
0.029956
0.117705
0.070998
0.055709
0.045692
0.043154
0.030933
0.098637
0.058259
0.044469
0.036460
0.034633
0.039624
0.070430
0.047313
0.035520
0.030224
0.028824
0.015342
0.038194
0.037753
0.029483
0.026651
0.025719
0.014781
0.030928
0.030505
0.026587
0.025017
0.024678
0.014297
0.027554
0.028161
0.025479
0.024801
0.024755
0.016198
0.026773
0.027650
0.025758
0.025267
0.025368
0.017948
0.026975
0.028226
0.026581
0.026104
0.026198
0.019982
0.027842
0.029195
0.027659
0.027071
0.027115
0.021728
0.028951
0.030392
0.028798
0.028079
0.028056
0.023448
0.030263
0.031661
0.029940
0.029076
0.028993
0.025059
0.031720
0.033010
0.031053
0.030046
0.029913
0.026693
0.033359
0.034427
0.032138
0.030979
0.030805
0.028426
0.035240
0.035958
0.033195
0.031867
0.031661
0.030297
0.037413
0.037628
0.034225
0.032702
0.032469
0.032496
0.040019
0.039505
0.035229
0.033468
0.033208
0.034982
0.043122
0.041642
0.036201
0.034147
0.033854
0.038150
0.047006
0.044162
0.037146
0.034715
0.034377
0.041836
0.051784
0.047189
0.038062
0.035160
0.034746
0.046965
0.058098
0.050976
0.039001
0.035487
0.034959
0.053064
0.066207
0.055871
0.040009
0.035797
0.035062
0.063101
0.078049
0.062338
0.041328
0.036306
0.035245
0.075299
0.094315
0.071466
0.043023
0.037590
0.035909
0.105673
0.124805
0.082360
0.045836
0.040435
0.037802
0.128145
0.167739
0.091428
0.051819
0.044930
0.041864
0.161185
0.207889
0.099198
0.062346
0.051523
0.048919
0.200560
0.254392
0.111055
0.075346
0.061786
0.058487
0.256808
0.321829
0.132159
0.091423
0.074387
0.069847
0.366326
0.430783
0.168380
0.108732
0.088307
0.081756
0.562663
0.554865
0.214887
0.123344
0.102235
0.092591
0.710836
0.570522
0.274198
0.140555
0.110646
0.099635
0.259680
0.221526
0.174382
0.138951
0.113930
0.101258
0.153127
0.134708
0.156602
0.140513
0.116093
0.099093
0.051641
0.126466
0.166516
0.150217
0.119304
0.098170
0.074762
0.151793
0.184615
0.164424
0.126624
0.102092
0.139694
0.187219
0.203351
0.179955
0.137229
0.111158
0.220247
0.238601
0.233970
0.196916
0.146781
0.120894
0.315478
0.303990
0.273643
0.212618
0.150570
0.121931
0.424432
0.387116
0.337963
0.234179
0.141859
0.101594
0.570809
0.507475
0.454283
0.329797
0.130060
0.055028
0.985402
0.764393
0.433817
0.209872
0.090375
0.056665
0.730087
0.523936
0.280527
0.165191
0.115910
0.081505
0.503329
0.378079
0.241801
0.161271
0.126014
0.103160
0.288837
0.263344
0.206144
0.150064
0.123003
0.107142
0.144659
0.190245
0.175425
0.134925
0.111897
0.100055
0.085756
0.153020
0.150880
0.118918
0.098133
0.087143
0.059956
0.128637
0.132108
0.105157
0.083875
0.071999
0.048086
0.113059
0.118533
0.093610
0.070672
0.056617
0.044114
0.102570
0.108445
0.084541
0.059480
0.042087
0.044829
0.095744
0.101217
0.077890
0.050960
0.029385
0.048910
0.091817
0.096364
0.073676
0.045893
0.020630
0.056510
0.090647
0.093794
0.071963
0.044949
0.020430
0.067034
0.092728
0.093660
0.072853
0.048247
0.028713
0.084547
0.099135
0.096271
0.076393
0.055029
0.040490
0.105466
0.110642
0.102247
0.082325
0.063991
0.053046
0.142310
0.131277
0.111809
0.089969
0.073565
0.064742
0.186513
0.162051
0.125323
0.098143
0.081928
0.073961
0.247121
0.207334
0.138763
0.104986
0.087356
0.078773
0.400213
0.322856
0.180205
0.109688
0.086696
0.078248
0.274830
0.245821
0.138937
0.095927
0.079645
0.072195
0.181350
0.191885
0.115275
0.078408
0.069645
0.062152
0.109466
0.144252
0.097906
0.063997
0.057733
0.051519
0.076979
0.113556
0.080684
0.052670
0.046697
0.041775
0.068366
0.094140
0.066967
0.042951
0.038399
0.034320
0.058996
0.073760
0.054176
0.036668
0.032529
0.029952
0.034936
0.050114
0.043022
0.032807
0.029447
0.028168
0.022704
0.037183
0.036323
0.030438
0.028530
0.027951
0.020641
0.032744
0.033002
0.029672
0.028638
0.028484
0.020644
0.031038
0.032163
0.029863
0.029251
0.029279
0.022210
0.031031
0.032380
0.030604
0.030071
0.030148
0.023858
0.031688
0.033184
0.031560
0.030985
0.031035
0.025628
0.032754
0.034231
0.032618
0.031935
0.031934
0.027291
0.034034
0.035457
0.033721
0.032909
0.032853
0.028989
0.035528
0.036808
0.034863
0.033906
0.033799
0.030748
0.037253
0.038316
0.036048
0.034931
0.034778
0.032657
0.039260
0.039998
0.037286
0.035985
0.035787
0.034838
0.041642
0.041907
0.038582
0.037061
0.036817
0.037320
0.044462
0.044083
0.039938
0.038145
0.037847
0.040338
0.047891
0.046605
0.041351
0.039211
0.038842
0.043872
0.052030
0.049543
0.042810
0.040225
0.039757
0.048370
0.057209
0.053048
0.044314
0.041144
0.040537
0.053767
0.063643
0.057278
0.045859
0.041946
0.041134
0.061063
0.072062
0.062541
0.047489
0.042641
0.041544
0.070238
0.083055
0.069189
0.049243
0.043355
0.041875
0.083830
0.098230
0.077510
0.051129
0.044513
0.042426
0.100399
0.119063
0.085990
0.053969
0.046633
0.043848
0.102982
0.134733
0.095989
0.058513
0.050455
0.047103
0.108802
0.148812
0.106926
0.065264
0.057104
0.052847
0.152549
0.180528
0.119041
0.075989
0.066192
0.061409
0.206932
0.228731
0.134723
0.088913
0.078331
0.071677
0.276525
0.286493
0.151499
0.107447
0.090643
0.082457
0.367696
0.346009
0.187002
0.126651
0.100240
0.091783
0.523297
0.436498
0.236577
0.140502
0.108375
0.095866
0.241754
0.204625
0.151486
0.131213
0.109284
0.094519
0.169533
0.149240
0.144163
0.130982
0.107303
0.089878
0.092106
0.111672
0.141640
0.136657
0.108416
0.086339
0.043082
0.111541
0.154612
0.150127
0.114771
0.089226
0.093478
0.148481
0.182369
0.169685
0.126727
0.099515
0.179415
0.204069
0.213336
0.190035
0.140837
0.112315
0.286846
0.284222
0.266683
0.211732
0.148644
0.117924
0.424491
0.393407
0.352487
0.242861
0.143129
0.100882
0.597245
0.535750
0.482010
0.343761
0.133470
0.051800
1.089090
0.820276
0.448860
0.217073
0.096106
0.059686
0.712119
0.501014
0.252105
0.144949
0.104648
0.067905
0.394344
0.293497
0.195484
0.133881
0.102386
0.081697
0.153281
0.171925
0.158389
0.117827
0.094231
0.082512
0.068632
0.134199
0.134000
0.102600
0.084471
0.075050
0.050112
0.115704
0.118670
0.092635
0.073827
0.063838
0.050771
0.106621
0.109864
0.085151
0.064006
0.051645
0.054370
0.100750
0.103656
0.079678
0.055975
0.040114
0.058573
0.096874
0.099014
0.075553
0.049882
0.030207
0.062136
0.094056
0.095347
0.072535
0.045774
0.022615
0.066665
0.092482
0.092661
0.070522
0.043676
0.018848
0.071902
0.092257
0.091019
0.069655
0.043771
0.020579
0.080678
0.094280
0.090752
0.070180
0.046220
0.026968
0.092268
0.099221
0.092473
0.072422
0.051015
0.035921
0.111884
0.109391
0.096801
0.076634
0.057748
0.046020
0.138272
0.125702
0.104599
0.082656
0.065551
0.056044
0.173293
0.149598
0.114985
0.089613
0.072941
0.064398
0.213440
0.178975
0.127648
0.096177
0.077674
0.069472
0.264471
0.226762
0.152771
0.099517
0.077953
0.069778
0.207254
0.188168
0.130240
0.087705
0.072804
0.065088
0.171711
0.159184
0.107394
0.075401
0.063429
0.057179
0.128278
0.131089
0.091580
0.062162
0.053897
0.048096
0.092785
0.106165
0.079193
0.051910
0.045060
0.040286
0.072304
0.086907
0.067780
0.045024
0.038553
0.034967
0.058850
0.071632
0.057632
0.040294
0.035082
0.032422
0.047867
0.057941
0.048955
0.037471
0.033659
0.031984
0.035581
0.046363
0.043192
0.035879
0.033408
0.032528
0.030178
0.040181
0.039701
0.035241
0.033695
0.033317
0.028442
0.037482
0.038078
0.035180
0.034200
0.034074
0.028429
0.036541
0.037681
0.035513
0.034787
0.034771
0.029273
0.036617
0.037930
0.036103
0.035434
0.035446
0.030404
0.037235
0.038606
0.036862
0.036159
0.036154
0.031757
0.038250
0.039567
0.037771
0.036976
0.036937
0.033258
0.039592
0.040798
0.038825
0.037907
0.037827
0.034973
0.041276
0.042289
0.040034
0.038964
0.038838
0.036966
0.043347
0.044074
0.041407
0.040152
0.039976
0.039297
0.045863
0.046182
0.042953
0.041468
0.041232
0.042105
0.048926
0.048668
0.044672
0.042895
0.042584
0.045438
0.052622
0.051576
0.046556
0.044402
0.043990
0.049520
0.057127
0.054990
0.048588
0.045941
0.045390
0.054398
0.062575
0.058970
0.050735
0.047446
0.046700
0.060381
0.069239
0.063652
0.052949
0.048841
0.047831
0.067574
0.077364
0.069075
0.055183
0.050058
0.048711
0.076075
0.087152
0.075420
0.057307
0.051141
0.049332
0.086021
0.098998
0.082051
0.059567
0.052189
0.049889
0.093112
0.110586
0.089776
0.061954
0.053693
0.050858
0.102254
0.122160
0.097564
0.065179
0.056500
0.052979
0.114525
0.136096
0.105319
0.070837
0.061151
0.057198
0.131829
0.154476
0.116112
0.078678
0.068792
0.063660
0.168531
0.181531
0.128648
0.091242
0.078009
0.072009
0.216452
0.216218
0.148022
0.106062
0.087853
0.080646
0.273091
0.260059
0.178391
0.118918
0.097232
0.086874
0.367255
0.317542
0.204821
0.132362
0.100965
0.088782
0.235226
0.195826
0.143310
0.122795
0.099003
0.084586
0.167883
0.145657
0.129353
0.118789
0.095283
0.076720
0.107108
0.108559
0.123531
0.121491
0.093902
0.070447
0.049610
0.088277
0.126704
0.131197
0.099130
0.071452
0.047838
0.103665
0.146977
0.150241
0.110997
0.081953
0.140833
0.172558
0.198046
0.180060
0.126733
0.097103
0.265600
0.268688
0.261671
0.211227
0.141522
0.106737
0.411818
0.387962
0.356006
0.246839
0.142300
0.095820
0.619967
0.562859
0.513051
0.354560
0.134437
0.050796
1.206200
0.884661
0.445742
0.218792
0.102545
0.056667
0.582350
0.405037
0.186938
0.121738
0.084663
0.050409
0.197698
0.151558
0.126954
0.096440
0.068832
0.057714
0.055164
0.098539
0.102610
0.076137
0.064183
0.058071
0.062386
0.099217
0.097959
0.074886
0.061160
0.054633
0.076846
0.105412
0.101691
0.077298
0.059467
0.050281
0.083314
0.107579
0.103640
0.079708
0.058953
0.046782
0.087473
0.108175
0.104148
0.080840
0.058746
0.044713
0.088483
0.106799
0.103125
0.081007
0.058555
0.043573
0.089783
0.105310
0.101437
0.080282
0.058032
0.042805
0.090066
0.103287
0.099200
0.078975
0.057158
0.042020
0.091604
0.101737
0.096787
0.077236
0.056011
0.041244
0.093464
0.100521
0.094380
0.075372
0.054942
0.040860
0.098702
0.101030
0.092463
0.073808
0.054476
0.041557
0.107351
0.104121
0.091936
0.073185
0.055268
0.043940
0.123028
0.112223
0.093778
0.074199
0.057614
0.047978
0.145368
0.126255
0.099408
0.077095
0.061064
0.052795
0.172321
0.146563
0.108839
0.080449
0.064304
0.056464
0.197138
0.167182
0.118246
0.082645
0.064766
0.057324
0.162609
0.146920
0.108199
0.075959
0.061160
0.054751
0.126479
0.124188
0.095968
0.066605
0.055262
0.049538
0.105567
0.107402
0.083258
0.058538
0.048629
0.043832
0.086666
0.093877
0.074043
0.051822
0.043647
0.039327
0.071670
0.082352
0.067375
0.047670
0.040690
0.037148
0.063103
0.072452
0.061157
0.045436
0.039554
0.036927
0.054024
0.062824
0.055451
0.043823
0.039482
0.037640
0.046656
0.054715
0.050458
0.042687
0.039619
0.038499
0.040128
0.048380
0.046961
0.041735
0.039745
0.039123
0.036925
0.044656
0.044636
0.041128
0.039794
0.039503
0.035424
0.042684
0.043372
0.040810
0.039864
0.039750
0.035079
0.041868
0.042892
0.040803
0.040031
0.040000
0.035402
0.041841
0.042986
0.041096
0.040364
0.040358
0.036174
0.042396
0.043561
0.041680
0.040909
0.040895
0.037335
0.043459
0.044557
0.042559
0.041694
0.041653
0.038871
0.045010
0.045972
0.043735
0.042736
0.042654
0.040819
0.047071
0.047812
0.045217
0.044042
0.043908
0.043255
0.049699
0.050112
0.047010
0.045608
0.045407
0.046245
0.052964
0.052905
0.049116
0.047421
0.047129
0.049924
0.056974
0.056248
0.051527
0.049446
0.049031
0.054379
0.061832
0.060180
0.054217
0.051629
0.051044
0.059756
0.067671
0.064758
0.057129
0.053884
0.053066
0.066119
0.074585
0.069954
0.060177
0.056086
0.054965
0.073336
0.082552
0.075764
0.063179
0.058111
0.056591
0.081250
0.091470
0.081805
0.066045
0.059799
0.057834
0.088224
0.100471
0.088108
0.068511
0.061151
0.058687
0.095378
0.109360
0.094005
0.070674
0.062353
0.059361
0.100816
0.117600
0.099388
0.073098
0.063795
0.060407
0.109337
0.126387
0.105143
0.076150
0.066515
0.062413
0.127233
0.139250
0.111821
0.081961
0.070586
0.065989
0.149787
0.156679
0.122924
0.089772
0.076334
0.070796
0.182610
0.180277
0.137420
0.098755
0.082984
0.075466
0.226599
0.207720
0.150787
0.109224
0.087459
0.078198
0.270051
0.231738
0.161223
0.114807
0.088781
0.076300
0.199130
0.168937
0.128844
0.106749
0.084465
0.069287
0.148955
0.129452
0.113350
0.103441
0.078803
0.058872
0.100340
0.096753
0.103883
0.103596
0.076439
0.049543
0.059637
0.076124
0.103706
0.110349
0.079592
0.048303
0.025417
0.068722
0.110545
0.123226
0.089599
0.057988
0.065135
0.100415
0.137442
0.146056
0.104381
0.073428
0.210054
0.223717
0.235023
0.192010
0.119598
0.085745
0.403714
0.389399
0.370936
0.251761
0.131585
0.081018
0.647391
0.597786
0.551321
0.364652
0.136914
0.049647
1.260710
0.902978
0.410400
0.228534
0.101745
0.049438
0.257361
0.203035
0.092401
0.095325
0.053404
0.038517
0.072743
0.061093
0.051852
0.045020
0.042375
0.040832
0.119327
0.100972
0.074845
0.056852
0.050093
0.046887
0.130512
0.122796
0.101648
0.075002
0.059803
0.053382
0.131935
0.130453
0.113293
0.087578
0.068825
0.059259
0.130637
0.133153
0.119406
0.094754
0.075115
0.064481
0.126544
0.131443
0.120772
0.098526
0.079304
0.068329
0.124020
0.129503
0.120424
0.099833
0.081370
0.070652
0.120240
0.126007
0.118334
0.099388
0.081709
0.071267
0.117598
0.122591
0.115301
0.097376
0.080321
0.070162
0.113899
0.118117
0.111058
0.093954
0.077349
0.067351
0.110735
0.113311
0.105733
0.089120
0.072852
0.062982
0.106743
0.107495
0.099182
0.082975
0.067080
0.057359
0.104015
0.101694
0.091679
0.075860
0.060506
0.051132
0.103079
0.096831
0.084345
0.068605
0.054082
0.045366
0.107839
0.096473
0.079237
0.062666
0.049122
0.041314
0.118531
0.102451
0.078921
0.059869
0.046583
0.039796
0.125914
0.109681
0.082318
0.059028
0.046062
0.039856
0.120390
0.107080
0.080389
0.057368
0.045660
0.040081
0.105210
0.099631
0.077351
0.055669
0.045048
0.040127
0.086521
0.091102
0.075293
0.054197
0.044959
0.040406
0.077403
0.085791
0.072951
0.053942
0.045402
0.041437
0.073659
0.081842
0.070396
0.053813
0.046373
0.042971
0.068044
0.076190
0.067198
0.053223
0.047197
0.044491
0.061969
0.069284
0.062769
0.052108
0.047434
0.045511
0.054522
0.061891
0.058146
0.050410
0.047129
0.045848
0.048546
0.055734
0.053956
0.048638
0.046392
0.045649
0.043979
0.051094
0.050769
0.047009
0.045533
0.045147
0.041326
0.048102
0.048539
0.045781
0.044753
0.044600
0.039895
0.046383
0.047220
0.045007
0.044222
0.044192
0.039404
0.045655
0.046683
0.044722
0.044027
0.044052
0.039603
0.045722
0.046817
0.044919
0.044216
0.044251
0.040380
0.046474
0.047563
0.045587
0.044812
0.044828
0.041693
0.047868
0.048885
0.046719
0.045823
0.045801
0.043554
0.049908
0.050786
0.048314
0.047253
0.047176
0.046009
0.052632
0.053287
0.050379
0.049101
0.048949
0.049149
0.056119
0.056431
0.052920
0.051359
0.051105
0.053078
0.060461
0.060268
0.055943
0.054005
0.053610
0.057934
0.065778
0.064854
0.059430
0.056994
0.056403
0.063838
0.072172
0.070209
0.063334
0.060241
0.059387
0.070817
0.079680
0.076317
0.067532
0.063614
0.062407
0.078800
0.088218
0.082970
0.071855
0.066902
0.065266
0.087095
0.097325
0.089929
0.075963
0.069865
0.067720
0.095302
0.106399
0.096533
0.079520
0.072236
0.069540
0.101522
0.114259
0.102173
0.082237
0.073794
0.070603
0.106966
0.120543
0.106327
0.083836
0.074652
0.070908
0.112464
0.125833
0.108899
0.084951
0.074820
0.070741
0.120068
0.131127
0.111345
0.085534
0.074903
0.070282
0.134944
0.138517
0.113281
0.086501
0.074974
0.069517
0.152944
0.146442
0.114492
0.088244
0.074481
0.067956
0.165411
0.151668
0.116453
0.088883
0.073152
0.064331
0.172938
0.151922
0.114615
0.088442
0.069431
0.057671
0.139709
0.121220
0.097653
0.084404
0.063948
0.047525
0.108462
0.096929
0.088898
0.083525
0.060029
0.035413
0.085819
0.082464
0.087579
0.087265
0.059453
0.025162
0.070849
0.074889
0.089260
0.093089
0.062815
0.023089
0.050563
0.063332
0.089090
0.100090
0.068447
0.031750
0.047925
0.059043
0.090322
0.107026
0.075433
0.044612
0.072566
0.091057
0.113889
0.122337
0.084380
0.054683
0.299839
0.300176
0.301788
0.200820
0.095591
0.054514
0.686101
0.649340
0.625272
0.382056
0.128383
0.044713
0.882319
0.762399
0.401864
0.263407
0.114197
0.049881
0.456155
0.351461
0.188614
0.111431
0.062506
0.040011
0.358796
0.289711
0.160350
0.084055
0.062682
0.043732
0.276052
0.222375
0.152969
0.100499
0.069348
0.058837
0.224252
0.193423
0.148661
0.109601
0.085005
0.072571
0.198546
0.181013
0.150702
0.118415
0.095531
0.084466
0.179950
0.170845
0.149592
0.123538
0.103688
0.093089
0.169216
0.164915
0.148756
0.126254
0.108393
0.098870
0.159858
0.158462
0.146112
0.126776
0.110676
0.101839
0.153621
0.153447
0.142993
0.125473
0.110553
0.102333
0.147175
0.147602
0.138542
0.122464
0.108340
0.100452
0.141347
0.141559
0.132934
0.117615
0.103936
0.096244
0.133984
0.133827
0.125469
0.110719
0.097280
0.089632
0.125088
0.124181
0.115735
0.101442
0.088164
0.080546
0.112799
0.111311
0.103096
0.089466
0.076518
0.068960
0.096885
0.094906
0.087152
0.074768
0.062420
0.055100
0.076830
0.075110
0.068585
0.057939
0.046624
0.039647
0.057358
0.056246
0.050453
0.041414
0.031265
0.024425
0.051501
0.050765
0.042843
0.032697
0.022990
0.016150
0.061513
0.062089
0.051653
0.037911
0.028459
0.022989
0.077044
0.078448
0.065918
0.049063
0.039490
0.034441
0.090183
0.090946
0.076660
0.058898
0.049064
0.044307
0.092229
0.095414
0.082250
0.064664
0.055562
0.051202
0.088198
0.093196
0.082322
0.066654
0.058763
0.055121
0.080729
0.086555
0.078280
0.065635
0.059292
0.056513
0.070541
0.077643
0.072341
0.062630
0.058030
0.056062
0.061154
0.068747
0.065896
0.058938
0.055734
0.054515
0.053321
0.061143
0.060158
0.055238
0.053164
0.052478
0.047815
0.055414
0.055551
0.052090
0.050738
0.050434
0.044131
0.051436
0.052244
0.049654
0.048760
0.048678
0.042010
0.048964
0.050103
0.048017
0.047345
0.047385
0.040987
0.047695
0.048993
0.047137
0.046544
0.046632
0.040824
0.047406
0.048771
0.046969
0.046358
0.046448
0.041365
0.047955
0.049335
0.047464
0.046771
0.046836
0.042536
0.049273
0.050633
0.048590
0.047772
0.047791
0.044342
0.051350
0.052651
0.050338
0.049354
0.049310
0.046827
0.054229
0.055415
0.052718
0.051522
0.051395
0.050095
0.057993
0.058978
0.055757
0.054286
0.054048
0.054289
0.062768
0.063423
0.059488
0.057656
0.057265
0.059607
0.068709
0.068838
0.063945
0.061628
0.061028
0.066254
0.075982
0.075310
0.069126
0.066171
0.065282
0.074471
0.084726
0.082853
0.074994
0.071186
0.069916
0.084296
0.094944
0.091404
0.081371
0.076500
0.074730
0.095716
0.106414
0.100614
0.087961
0.081795
0.079410
0.107875
0.118412
0.109866
0.094228
0.086588
0.083512
0.119991
0.129743
0.118067
0.099350
0.090291
0.086438
0.129945
0.138616
0.123750
0.102509
0.092049
0.087544
0.135526
0.142947
0.125563
0.102423
0.091262
0.086087
0.136589
0.141152
0.121642
0.098756
0.087144
0.081504
0.128246
0.131204
0.111822
0.090940
0.079485
0.073409
0.111299
0.113747
0.096904
0.079485
0.068679
0.061821
0.090645
0.091596
0.078028
0.067347
0.056170
0.047454
0.071448
0.070812
0.063112
0.059593
0.046246
0.032044
0.062872
0.062168
0.062362
0.062394
0.044239
0.020289
0.074324
0.072862
0.075008
0.073796
0.050747
0.020583
0.094685
0.091586
0.091706
0.086674
0.059964
0.028754
0.101849
0.099265
0.099958
0.096319
0.067483
0.035778
0.117727
0.112716
0.110573
0.102147
0.070192
0.038913
0.095109
0.092127
0.094377
0.097581
0.066676
0.036927
0.122263
0.110134
0.106352
0.085063
0.052168
0.031510
0.045508
0.062892
0.074314
0.044411
0.042730
0.027734
0.572517
0.545995
0.530349
0.302662
0.110450
0.041668
